0 1
0 2
0 3
0 4
0 5
0 6
1 1911
1 1912
1 1913
1 1914
1 4
1 755
1 5
1 1847
1 1915
1 6
2 5
2 1915
3 7478
3 1914
3 4
3 5
3 1915
3 6
4 1911
4 1912
4 7478
4 1913
4 6174
4 1914
4 5
4 1915
4 6175
5 1911
5 7478
5 1915
5 6
6 7477
7 8
7 9
7 10
7 11
7 12
8 5754
8 9
8 9185
8 5757
8 12
8 5758
8 3930
9 5754
9 5757
9 12
10 3927
10 11
10 12
10 3930
10 3931
11 5755
11 12
12 9185
12 3931
13 14
13 15
13 16
13 17
13 18
14 15
14 16
14 17
14 18
15 16
15 17
15 18
16 17
16 18
17 8166
17 18
19 20
19 21
19 22
19 23
19 24
20 21
20 22
20 23
20 2744
20 2745
20 24
20 2746
21 22
21 23
21 2744
21 2745
21 24
21 2746
22 23
22 2744
22 2745
22 24
22 2746
23 2744
23 2745
23 24
23 2746
24 2744
24 2745
25 26
25 27
25 28
25 29
25 30
26 1145
26 7056
26 1146
26 27
26 1147
26 28
26 1148
26 29
26 1149
26 1150
26 30
26 1151
27 1144
27 2785
27 6292
27 7056
27 1146
27 28
27 29
27 1149
27 1150
27 30
28 1144
28 2785
28 1145
28 6292
28 1147
28 29
28 1149
28 1150
28 30
28 1151
29 1144
29 2785
29 1145
29 6292
29 1146
29 1147
29 1148
29 1149
29 30
29 1151
30 1144
30 2785
30 1145
30 6292
30 1146
30 1147
30 1148
30 1150
30 1151
31 32
31 33
31 34
31 35
31 36
31 37
31 38
32 33
32 35
32 36
32 37
33 34
33 35
33 36
33 37
33 38
34 35
34 36
34 37
34 38
35 36
35 37
35 38
37 38
39 40
39 41
39 42
39 43
39 44
40 3625
40 3626
40 42
40 3627
41 3625
41 4935
41 3626
41 4936
41 4938
41 42
41 43
41 3627
42 4938
42 44
43 3625
43 4938
43 4939
43 3627
43 4940
43 44
44 3625
44 4935
44 4938
44 4939
44 3627
44 4940
44 4941
45 46
45 47
45 48
45 49
45 50
45 51
46 47
46 50
47 48
47 50
48 49
48 51
49 50
49 51
52 53
52 54
52 55
53 55
54 55
56 57
56 58
56 59
56 60
57 3231
57 59
57 851
57 3232
57 3233
57 3234
57 3235
57 3236
57 3237
57 3238
57 60
57 3239
57 3240
57 3241
58 851
58 1874
58 3807
58 2491
58 3808
58 3809
58 60
58 3240
58 3810
59 4454
59 3234
59 3237
59 3810
60 3231
60 851
60 3232
60 6137
60 6138
60 3235
60 3236
60 3237
60 3238
60 3241
61 62
61 63
61 64
61 65
61 66
62 63
62 65
62 3056
63 5233
63 65
63 66
63 3056
64 7677
65 8502
65 7669
65 3056
66 2161
67 68
67 69
67 70
67 71
67 72
67 73
67 74
67 75
67 76
67 77
67 78
67 79
67 80
67 81
67 82
67 83
67 84
67 85
67 86
67 87
67 88
67 89
67 90
67 91
67 92
67 93
67 94
68 223
68 69
68 70
68 71
68 72
68 73
68 2832
68 2833
68 76
68 2834
68 78
68 79
68 81
68 82
68 2835
68 87
68 2836
68 89
68 225
68 90
68 91
68 92
68 94
68 2837
69 74
69 87
70 74
70 78
70 91
71 74
71 87
71 91
72 223
72 74
72 75
72 5701
72 77
72 224
72 5702
72 80
72 5703
72 5704
72 5705
72 83
72 5706
72 84
72 85
72 86
72 5707
72 88
72 2836
72 225
72 91
72 5708
72 5709
72 93
72 5710
72 5711
73 74
73 87
74 223
74 2832
74 2833
74 5701
74 76
74 2834
74 78
74 5702
74 79
74 5704
74 81
74 82
74 2835
74 87
74 2836
74 89
74 90
74 5708
74 5709
74 6764
74 92
74 94
74 5710
74 2837
75 78
75 87
75 91
76 87
77 87
77 90
78 223
78 5701
78 224
78 5702
78 80
78 5703
78 5704
78 5705
78 83
78 5706
78 84
78 85
78 86
78 5707
78 87
78 2836
78 89
78 225
78 5708
78 5709
78 6764
78 5710
78 5711
79 87
79 91
80 87
81 87
82 87
83 87
84 87
84 91
85 87
86 87
86 91
87 4094
87 5706
87 88
87 90
87 91
87 6764
87 92
87 93
87 94
88 90
89 91
90 4094
90 5706
90 91
90 5708
90 6764
90 93
90 5710
91 2832
91 2833
91 5701
91 2834
91 5702
91 5703
91 5704
91 5705
91 2835
91 5707
91 5708
91 5709
91 6764
91 94
91 5710
91 2837
91 5711
95 96
95 97
95 98
95 99
95 100
95 101
95 102
95 103
96 2661
96 97
96 98
96 101
96 102
97 2661
97 101
97 102
98 99
98 101
98 102
98 103
99 102
99 103
100 2661
100 101
101 2661
101 102
102 2661
102 103
104 105
104 106
104 107
104 108
104 109
105 1884
105 2162
105 2163
105 2164
105 2165
105 2166
105 2167
105 2168
105 2169
105 2170
105 2171
105 106
105 2172
105 107
105 2173
105 2174
105 2175
105 109
105 2176
105 2177
105 2178
105 2179
105 2180
105 1886
105 2181
105 2182
105 2183
105 2184
105 2185
105 2186
106 2043
106 4186
106 1885
106 2162
106 2163
106 2164
106 2165
106 7337
106 7766
106 2169
106 2170
106 8232
106 8233
106 8234
106 8235
106 2174
106 8236
106 2175
106 109
106 2176
106 2177
106 2179
106 2180
106 1886
106 8237
106 2182
106 2183
106 2184
106 2185
107 4186
107 1885
107 2162
107 2163
107 2164
107 2165
107 5463
107 7337
107 7766
107 2170
107 108
107 8233
107 8234
107 109
107 2176
107 2177
107 2179
107 2180
107 5464
107 8237
107 2182
107 2183
107 2184
107 2185
108 1885
108 2162
108 2163
108 2164
108 2165
108 2168
108 2169
108 2170
108 2171
108 2172
108 8235
108 2174
108 8236
108 2175
108 109
108 2176
108 2177
108 2179
108 2180
108 1886
108 2182
108 2183
108 2184
108 2185
109 1885
109 2163
109 2165
109 5463
109 7337
109 2178
109 5464
109 2182
109 2183
109 2185
109 2186
110 111
110 112
110 113
110 114
111 1081
111 112
111 6367
111 6368
111 1624
111 1083
111 1625
111 1610
111 1605
111 1086
111 6369
111 114
111 1087
112 5637
112 1613
112 113
112 6367
112 1083
112 1610
112 1604
112 1086
112 6369
112 1087
112 4443
113 1607
113 1622
113 1609
113 5637
113 1623
113 6368
113 1624
113 1083
113 1625
113 1084
113 1605
113 1086
113 114
113 1087
114 4441
114 6367
114 1625
115 116
115 117
115 118
115 119
115 120
115 121
116 5608
116 5609
116 119
116 5610
116 5611
116 120
116 5612
117 7678
117 118
117 5611
117 120
118 7740
118 7679
118 5611
118 120
118 9103
119 5609
119 120
119 121
120 7679
120 9485
120 5611
121 9103
121 8981
121 5612
122 123
122 124
122 125
122 126
122 127
122 128
123 923
123 2979
123 2980
123 124
123 2730
123 2899
123 126
123 2981
123 237
123 2731
123 2901
123 2982
123 2983
123 928
123 127
123 2984
123 128
123 2985
124 236
124 4277
124 2980
124 5249
124 125
124 2899
124 126
124 2981
124 237
124 2901
124 2982
124 2983
124 928
124 5250
124 5251
124 128
124 5252
124 2985
124 5253
125 127
125 128
126 2979
126 2980
126 924
126 2898
126 2899
126 8500
126 8285
126 2982
126 2984
126 2902
126 128
126 7111
127 128
128 923
128 2897
128 2979
128 2980
128 6689
128 925
128 5249
128 2898
128 2899
128 2981
128 237
128 8926
128 8500
128 2731
128 8285
128 9376
128 2982
128 927
128 2983
128 9466
128 5250
128 8286
128 5251
128 2984
128 2902
128 9349
128 9573
128 5252
128 7111
129 130
129 131
129 132
130 131
130 132
130 8655
131 132
131 8655
133 134
133 135
133 136
133 137
134 279
134 280
134 281
134 282
134 283
134 284
134 285
134 286
135 137
136 282
136 9216
136 137
137 280
137 4309
137 4311
137 9046
138 139
138 140
138 141
138 142
138 143
139 2505
139 2838
139 2058
139 2839
139 3836
139 4337
139 1513
139 2059
139 1306
139 4522
139 4340
139 4523
139 4524
139 2506
139 1515
139 4525
139 141
139 4526
139 4527
139 4528
139 4529
139 4530
139 3800
139 142
139 2446
139 3801
139 4531
139 4532
139 4533
139 143
139 4534
139 3804
139 3806
140 2057
140 2505
140 2058
140 3835
140 3836
140 3793
140 3794
140 1514
140 4364
140 2060
140 3796
140 4365
140 3797
140 6564
140 6565
140 4366
140 3800
140 1307
140 3837
140 2507
140 4367
140 3802
140 143
140 3838
141 3799
141 142
141 143
142 1305
142 5093
142 1306
142 3795
142 4523
142 4524
142 2506
142 4525
142 7688
142 4526
142 4529
142 6566
142 3800
142 9572
142 6754
142 4531
142 6755
142 4533
142 143
142 4534
142 3804
143 1305
143 2464
143 3836
143 5093
143 1306
143 7164
143 4523
143 4524
143 2060
143 2506
143 7165
143 4365
143 4525
143 6564
143 4526
143 7166
143 2467
143 6565
143 4529
143 9226
143 6566
143 8593
143 3800
143 1307
143 3837
143 9572
143 3801
143 6754
143 4531
143 9627
143 8595
143 6755
143 3838
143 4534
144 145
144 146
144 147
144 148
144 149
145 1508
145 2211
145 3175
145 3176
145 3177
145 146
145 2212
145 3178
145 147
145 3179
145 3180
145 1364
145 2618
145 3181
145 3182
145 1755
145 148
145 3183
145 3184
145 2378
145 3185
145 3186
145 3187
145 3188
145 3189
145 3190
145 149
146 1508
146 1361
146 3175
146 2212
146 147
146 1364
146 3184
146 2378
146 7403
146 3186
146 3187
146 3188
146 3190
146 149
147 1508
147 1754
147 3177
147 3179
147 1364
147 3182
147 1365
147 148
147 8410
147 1366
147 1367
147 3184
147 7403
147 3187
147 3189
147 3190
148 1508
148 1754
148 1362
148 2212
148 3178
148 1363
148 3181
148 1755
148 1366
148 8619
148 3187
148 8620
148 3188
148 3190
148 149
149 1360
149 1508
149 1754
149 2211
149 1361
149 3177
149 3179
149 1363
149 7551
149 7552
149 7553
149 1755
149 1366
149 7554
149 3187
149 2213
149 3190
149 8621
149 7555
150 151
150 152
150 153
150 154
150 155
150 156
150 157
150 158
150 159
150 160
150 161
150 162
151 155
151 156
151 157
151 158
151 4135
151 4136
151 159
151 160
151 161
151 162
152 155
152 156
152 160
152 162
153 154
153 155
153 4617
153 158
153 4618
153 4619
153 4620
153 159
153 160
153 161
153 4621
153 162
154 4135
154 159
154 161
155 156
155 157
155 4136
155 159
155 160
155 162
156 158
156 4620
156 4136
156 160
156 161
156 162
157 160
157 162
158 160
159 4617
159 4618
159 4619
159 4135
159 4620
159 4621
159 162
160 4618
160 4619
160 4135
160 4136
160 161
160 162
161 4617
161 4618
161 4619
161 4135
161 4620
161 4621
162 4620
162 4136
163 164
163 165
163 166
163 167
164 9427
164 9428
164 166
164 167
164 9464
164 9465
165 9427
165 9428
165 166
165 167
165 9464
165 9465
166 9428
166 167
166 9464
167 9427
167 9428
167 9464
167 9465
168 169
168 170
168 171
168 172
168 173
169 170
169 171
169 172
169 173
170 171
170 172
170 173
171 9630
171 172
171 173
172 9630
172 9633
172 173
173 9630
173 9633
174 175
174 176
174 177
174 178
174 179
174 180
174 181
174 182
174 183
174 184
174 185
174 186
174 187
174 188
174 189
174 190
175 4336
175 187
176 3568
176 186
176 190
178 186
178 189
178 190
179 2451
179 186
179 190
180 186
180 189
180 190
181 186
181 189
181 190
182 186
182 189
182 190
183 3568
183 2451
183 190
184 187
185 3568
185 5738
185 2451
185 190
186 2450
186 4336
186 3569
186 3572
186 3573
186 3574
186 2451
186 189
186 190
187 4336
187 3570
188 3568
188 3572
188 2451
190 2450
190 3568
190 4336
190 3569
190 3570
190 8788
190 3571
190 3572
190 3573
190 7381
190 3574
190 2451
190 7382
190 3575
191 192
191 193
191 194
191 195
191 196
191 197
191 198
191 199
191 200
192 193
192 195
192 196
192 199
192 200
193 566
193 194
193 567
193 199
193 569
194 196
194 567
194 568
194 199
195 196
195 199
196 199
196 200
197 566
197 567
197 568
197 198
197 199
198 566
198 567
198 199
198 569
199 566
199 567
199 568
199 569
199 200
201 202
201 203
201 204
201 205
201 206
201 207
201 208
201 209
201 210
202 210
203 204
203 209
204 206
204 207
204 210
205 210
206 208
206 209
206 210
207 209
208 9568
209 9568
209 210
210 9568
211 212
211 213
211 214
211 215
211 216
212 4823
212 4824
212 4175
212 4825
212 214
212 215
212 216
212 4826
212 4827
212 4828
213 4173
213 4823
213 6900
213 7267
213 6003
213 7919
213 8119
213 7063
213 4824
213 9087
213 4175
213 6005
213 4825
213 9315
213 9316
213 6006
213 214
213 4176
213 215
213 9317
213 9536
213 8814
213 216
213 4826
213 4827
213 4828
213 9445
213 9319
213 4177
213 9321
214 5125
214 5501
214 4823
214 6900
214 6002
214 6004
214 1438
214 7063
214 8254
214 8702
214 8787
214 4174
214 4824
214 9087
214 9160
214 4175
214 8812
214 4370
214 4825
214 1440
214 9315
214 8255
214 8813
214 9316
214 4176
214 215
214 9317
214 9536
214 9318
214 216
214 9589
214 1442
214 4826
214 4827
214 4828
214 9445
214 4177
215 5501
215 4823
215 7267
215 6002
215 6003
215 7919
215 6004
215 1438
215 7063
215 8702
215 8787
215 4824
215 9087
215 9160
215 4175
215 6005
215 4370
215 4825
215 9314
215 9315
215 8813
215 9316
215 6006
215 4176
215 9536
215 216
215 9589
215 8257
215 4826
215 4827
215 4828
215 5126
215 1443
215 9319
215 4177
215 9320
215 9321
216 4823
216 7267
216 6002
216 6003
216 7919
216 6004
216 7063
216 8702
216 8800
216 4824
216 9087
216 9175
216 4175
216 6005
216 4370
216 9314
216 9316
216 6006
216 9317
216 9536
216 4828
216 5126
216 9319
216 9320
216 9321
217 218
217 219
217 220
217 221
217 222
218 3031
218 220
218 303
218 3032
218 221
218 3033
218 222
218 823
219 820
219 4613
219 5079
219 5080
219 5081
219 3033
219 5082
219 222
219 823
220 221
220 222
221 3033
221 222
221 823
222 820
222 5078
222 4613
222 4508
222 4614
222 2084
222 3032
222 3033
222 8002
222 4615
222 4616
222 823
223 224
223 225
226 227
226 228
226 229
226 230
227 460
227 461
227 462
227 463
227 464
227 465
227 466
227 467
227 468
227 469
227 470
227 230
227 471
228 3628
228 229
228 3828
228 3829
228 2681
228 974
228 3629
228 3830
228 3831
228 465
228 467
228 468
228 3832
228 977
228 230
229 460
229 461
229 3628
229 462
229 4319
229 3829
229 4320
229 2681
229 465
229 467
229 468
229 470
229 4321
229 230
230 461
230 3828
230 462
230 974
230 3830
230 465
230 468
230 977
231 232
231 233
231 234
231 235
232 234
232 3091
232 3092
233 234
233 235
233 3091
233 3092
234 235
234 3091
234 3092
235 3091
236 237
237 2729
237 2730
237 925
237 2981
237 2901
237 927
237 8286
237 5251
237 5252
237 7111
238 239
238 240
238 241
238 242
238 243
238 244
238 245
238 246
238 247
238 248
238 249
239 5364
239 240
239 245
239 248
240 7658
240 241
240 243
240 244
240 245
240 246
240 248
240 249
241 5364
241 245
241 248
242 5364
242 243
242 244
242 248
243 7658
243 244
243 245
243 247
243 248
244 5364
244 7658
244 245
244 247
244 248
244 249
245 246
245 248
246 5364
246 248
247 5364
247 248
248 5364
248 249
250 251
250 252
250 253
251 2014
251 2015
251 252
251 2016
251 253
251 2017
251 2018
252 2014
252 2015
252 253
252 4209
252 2018
253 2014
253 2016
253 2017
253 4209
253 2018
254 255
254 256
254 257
254 258
254 259
255 3876
255 3877
255 256
255 257
255 3878
255 3879
255 259
255 3880
256 5375
256 3876
256 5635
256 5636
256 257
256 3878
256 258
256 8922
256 5376
256 5377
256 7843
256 5378
256 259
256 3880
257 3876
257 5635
257 3878
257 258
257 5376
257 5377
257 7843
257 5378
257 259
258 3876
258 3877
258 5635
258 3879
258 7843
258 259
258 3880
259 5375
259 3876
259 5635
259 3878
259 8922
259 7843
259 5378
260 261
260 262
260 263
260 264
261 2295
261 2296
261 1781
261 2297
261 262
261 263
261 1784
262 2295
262 2296
262 1781
262 2297
263 2295
263 2296
263 1781
264 1780
264 1781
264 1782
264 1783
264 8959
264 1784
265 266
265 267
265 268
265 269
265 270
265 271
265 272
266 267
266 269
266 4997
266 271
266 272
267 269
267 4997
267 7029
267 272
268 270
268 4997
268 271
269 270
269 7029
269 271
269 272
269 6122
270 4997
270 7029
270 272
271 7029
271 272
272 4997
272 7029
273 274
274 3334
274 3335
274 3692
274 5436
274 5690
274 6463
274 7355
274 3336
274 5691
274 3694
274 8898
274 9240
274 5437
274 3337
274 3696
274 8970
274 5438
275 276
275 277
275 278
276 3110
276 3111
276 3576
276 3577
276 6244
276 3578
276 4468
276 6322
276 3579
276 6323
276 3580
276 3581
276 3582
276 6324
276 3583
276 277
276 3584
276 3585
276 6325
276 6326
276 6327
276 278
276 3586
277 3111
277 3576
277 3577
277 6244
277 3580
277 8804
277 3581
277 9252
277 3583
277 3584
277 278
278 3110
278 3111
278 3576
278 3578
278 6322
278 3579
278 6323
278 8804
278 3581
278 3582
278 9252
278 6324
278 3583
278 3584
278 3585
278 6326
278 3586
279 2904
279 282
279 284
279 285
279 2905
280 4309
280 282
280 284
280 4310
280 4311
281 282
281 4314
281 6183
281 6184
281 283
281 6185
281 6186
282 4312
282 6971
282 283
282 6972
282 284
282 285
283 4314
283 6971
283 6184
283 6185
283 6972
283 4315
284 4316
284 4313
284 4314
284 8155
284 6185
284 4315
284 285
284 2905
284 286
285 4314
285 9587
286 7418
286 6183
287 288
287 289
287 290
287 291
287 292
287 293
287 294
288 4967
288 289
288 4968
288 292
288 293
288 294
288 5465
289 4967
289 290
289 291
289 292
289 293
289 6112
289 5465
290 4553
290 291
290 292
290 5465
291 4548
291 7319
291 4549
291 4550
291 4551
291 4553
291 4554
291 294
291 5465
292 3823
292 4279
292 4967
292 4280
292 4281
292 294
292 5465
293 4968
293 4552
293 9601
294 4967
295 296
295 297
295 298
295 299
296 5207
296 5208
296 5209
296 5210
297 5832
297 5833
297 5207
297 298
297 6052
297 5835
297 7061
297 5208
297 5836
297 5209
297 5210
298 5207
298 7061
298 5208
298 299
298 5836
298 5209
298 5210
299 5207
299 7060
299 5208
299 5209
299 5210
300 301
300 302
300 303
301 302
301 303
301 6985
302 303
302 6985
303 820
303 6985
303 3032
304 305
304 306
304 307
304 308
304 309
305 306
305 307
305 308
305 8549
305 8295
305 8550
305 8551
305 309
306 307
306 308
306 8295
306 8550
306 8551
306 309
307 8294
307 308
307 8295
307 8551
307 309
308 8294
308 8549
308 8295
308 8550
308 309
309 8294
309 8549
309 8295
309 8551
310 311
310 312
310 313
310 314
310 315
311 1201
311 1202
311 1203
311 1204
311 1205
311 1206
311 1207
311 1208
311 1209
311 1210
311 1211
311 1212
311 1213
311 312
311 313
311 1214
311 1215
311 1216
311 1217
311 1218
311 1219
311 314
311 1220
311 1221
311 1222
311 1223
311 315
311 1224
312 1201
312 1202
312 5320
312 1203
312 1204
312 1205
312 1206
312 1207
312 1208
312 1209
312 1210
312 1211
312 1212
312 1213
312 313
312 1214
312 1215
312 1216
312 1217
312 1218
312 314
312 9396
312 9397
312 1221
312 1222
312 9398
312 1223
312 315
312 1224
313 1202
313 1203
313 7056
313 1214
313 1216
313 314
313 4137
314 1201
314 1202
314 5320
314 1203
314 1205
314 1206
314 1207
314 1208
314 1209
314 1210
314 1211
314 1213
314 1214
314 1215
314 1216
314 1217
314 1218
314 1219
314 9396
314 9397
314 1220
314 1221
314 1222
314 9398
314 1223
314 315
314 1224
315 1201
315 5320
315 1203
315 1204
315 1205
315 1210
315 1212
315 1214
315 1216
315 1218
315 9396
315 9397
315 9398
315 1223
316 317
316 318
316 319
316 320
316 321
317 2265
317 318
317 319
317 320
317 321
318 2265
318 319
318 320
318 321
319 2265
319 320
319 321
320 2265
320 321
321 2265
322 323
322 324
322 325
322 326
322 327
322 328
322 329
322 330
322 331
322 332
322 333
323 1903
323 1904
323 1905
324 7065
324 5877
324 4248
324 333
325 4756
325 4988
325 7682
325 7683
325 1903
325 4758
325 326
325 328
325 329
325 333
326 4248
326 8675
327 5876
327 5878
327 8681
327 328
327 333
328 7064
328 7682
328 329
328 332
329 4756
329 4758
329 332
330 4757
330 5877
330 7396
330 4250
331 4756
331 7683
331 4758
331 8674
332 4988
332 7396
332 1905
333 4988
333 4247
333 7066
333 5878
333 1904
334 335
334 336
334 337
334 338
335 434
335 4717
335 5430
335 5472
335 4804
335 5473
335 336
335 337
335 605
335 5474
335 5475
335 5476
335 5477
335 338
336 434
336 603
336 4717
336 4802
336 5430
336 604
336 4803
336 8444
336 8577
336 5472
336 7272
336 7564
336 9363
336 4804
336 9391
336 5473
336 2683
336 9392
336 337
336 605
336 5474
336 5475
336 5477
336 338
337 434
337 603
337 2270
337 4802
337 4987
337 5430
337 2271
337 2272
337 604
337 5472
337 7272
337 7513
337 4804
337 9391
337 5473
337 7517
337 9392
337 4716
337 605
337 3911
337 5474
337 5476
337 7522
337 338
338 434
338 4802
338 9391
338 9392
338 605
338 5474
338 5475
338 5476
339 340
339 341
339 342
340 967
340 969
340 341
340 342
340 7254
340 4191
340 7255
340 7256
340 7257
340 4194
341 967
341 2650
341 968
341 969
341 4189
341 342
341 4190
341 7254
341 7255
341 7256
341 7257
342 967
342 969
342 4191
342 7255
342 7256
342 970
343 344
343 345
343 346
343 347
343 348
343 349
343 350
343 351
343 352
343 353
343 354
343 355
343 356
343 357
343 358
343 359
343 360
344 352
344 353
344 360
345 348
345 349
345 352
345 357
345 4542
345 5729
346 347
346 357
346 360
347 4540
347 4795
347 5720
347 6310
347 6588
347 1041
347 4796
347 352
347 353
347 354
347 355
347 356
347 357
347 4542
347 8040
347 359
347 8041
347 8042
348 352
349 352
350 352
350 4541
350 4542
351 352
351 357
351 360
352 5720
352 6588
352 8172
352 8877
352 353
352 354
352 355
352 8878
352 8879
352 357
352 8040
352 8880
352 8041
352 360
353 8172
353 8877
353 354
353 355
353 8878
353 8879
353 4542
353 358
353 8880
353 8041
354 8172
354 8878
356 357
356 360
357 4795
357 5720
357 6310
357 4796
357 8477
357 4541
357 4542
357 5729
357 8040
357 359
357 9533
357 8041
357 360
357 9534
358 360
359 360
360 6588
360 8877
360 8879
360 8880
361 362
361 363
361 364
361 365
362 363
362 364
362 979
362 980
362 365
362 981
362 982
363 2102
363 364
363 979
363 981
363 982
364 2102
364 979
364 365
364 981
365 979
365 982
366 367
366 368
366 369
366 370
367 2926
367 368
367 7414
367 2927
367 369
367 9129
368 2926
368 2927
368 369
368 370
369 3054
369 2926
369 4392
369 7414
369 2927
369 4399
369 9129
369 370
370 3054
370 2926
370 5158
370 3055
370 4392
370 7414
370 2927
370 9129
370 9442
371 372
371 373
371 374
371 375
372 373
372 374
372 375
373 374
373 375
374 375
376 377
376 378
376 379
376 380
376 381
376 382
377 3785
377 3786
377 4710
377 3787
377 378
377 379
377 380
377 381
377 3564
377 382
377 3566
378 4710
378 3787
378 3563
378 379
378 380
378 381
378 8215
378 382
378 3566
379 4710
379 7847
379 380
379 381
379 8215
379 3566
380 2958
380 8510
380 8215
380 7550
381 3785
381 3786
381 4710
381 3787
381 8510
381 7847
381 4711
381 3788
381 4712
381 3566
382 4710
382 3566
383 384
383 385
383 386
383 387
383 388
384 1807
384 5234
384 6677
384 1169
384 1170
384 1172
384 1173
384 5236
384 5237
385 1807
385 5234
385 7863
385 6677
385 1169
385 1170
385 1172
385 5235
385 1173
385 5236
385 7864
385 388
385 5237
385 5239
386 1168
386 1807
386 5234
386 1169
386 1170
386 1172
386 1173
386 7864
386 5237
387 1807
387 5234
387 7863
387 6677
387 1169
387 1170
387 1172
387 1173
387 7864
387 388
387 5237
388 7863
389 390
389 391
389 392
389 393
389 394
389 395
390 4692
390 7205
390 7206
390 395
391 7204
391 7684
391 7685
391 392
391 393
391 395
392 7684
392 7685
392 393
392 395
393 4692
393 7196
393 7204
393 7205
393 7684
393 8006
393 8007
393 7206
393 7599
393 4693
393 7600
393 7601
393 394
393 4695
393 4696
393 395
393 8785
393 7602
394 4692
394 7196
394 7205
394 8006
394 8304
394 8007
394 7206
394 4693
394 7600
394 4694
394 7601
394 4695
394 4696
394 8305
394 8785
395 4692
395 7196
395 7204
395 7205
395 7684
395 7685
395 7206
395 7601
395 8785
396 397
396 398
396 399
397 5403
397 5660
397 5661
397 398
397 5662
397 5663
397 5664
397 5665
397 5666
397 5667
397 5668
397 5669
397 5670
397 5671
397 5672
397 399
397 5673
397 5674
397 5675
397 5676
398 4461
398 5403
398 5431
398 7082
398 5661
398 7692
398 7865
398 5662
398 5664
398 7866
398 5667
398 5432
398 7867
398 7868
398 5668
398 7869
398 7870
398 7871
398 7693
398 399
398 7872
398 7873
398 7874
398 7875
398 7876
398 7877
399 4461
399 5660
399 5661
399 7865
399 5662
399 5663
399 5664
399 5665
399 5666
399 5667
399 5669
399 5670
399 7870
399 5671
399 5672
399 7871
399 7872
399 5673
399 5674
399 7874
399 5675
399 6462
399 5676
399 7877
400 401
400 402
400 403
400 404
400 405
401 5097
401 5098
401 5099
401 3658
401 5100
401 5101
401 5102
401 4683
401 5103
401 5104
401 5105
401 402
401 5106
401 3661
401 5107
401 403
401 5108
401 405
402 5101
402 5106
402 5107
402 403
402 404
402 405
403 5097
403 5099
403 5100
403 5101
403 5107
403 404
403 5108
403 405
404 5097
404 5099
404 5100
404 5101
404 5102
404 5105
404 5107
404 5108
404 405
405 4682
405 5097
405 5098
405 7779
405 5099
405 5100
405 8632
405 5101
405 5102
405 4683
405 5103
405 5104
405 5105
405 5106
405 5107
405 5108
406 407
406 408
406 409
406 410
407 410
408 6541
409 4945
409 6461
409 4948
409 7143
409 4949
409 4950
409 7144
409 4951
409 7145
409 4952
409 4953
409 7146
411 412
411 413
411 414
411 415
411 416
411 417
411 418
411 419
412 2188
412 413
412 3777
412 414
412 415
412 416
412 3778
412 3779
412 3780
412 417
412 419
413 2187
413 2188
413 6806
413 6807
413 417
413 418
413 419
414 2188
414 8511
414 6807
414 419
415 2188
415 3777
415 417
415 419
416 2188
416 2191
416 418
417 2188
417 2189
417 3777
417 2190
417 2191
417 2192
417 418
417 419
419 2187
419 2188
419 3777
419 2191
419 3778
419 3779
419 2192
420 421
420 422
420 423
420 424
420 425
421 424
421 5408
421 425
421 5409
421 5410
422 423
422 424
422 5408
422 425
422 6802
422 2631
422 6803
422 5409
422 6804
422 6805
423 2626
423 7075
423 424
423 5408
423 425
423 6802
423 7076
423 2631
423 6803
423 5409
423 6804
423 6805
424 7075
424 5408
424 7188
424 6802
424 6803
424 2632
424 5409
424 5410
424 6805
425 7188
425 6802
425 2631
425 8884
425 2635
425 6805
426 427
426 428
426 429
426 430
426 431
426 432
426 433
427 1101
427 428
427 5788
427 429
427 5789
427 5790
427 5791
427 5792
427 5793
427 430
427 5794
427 5795
427 431
427 5796
428 1101
428 5788
428 429
428 5791
428 5792
428 5794
428 431
429 1101
429 8910
429 5788
429 5789
429 5790
429 5791
429 5792
429 5793
429 5794
429 5795
429 431
429 9025
429 9026
429 9027
430 5790
430 5794
430 5795
431 1101
431 8910
431 5788
431 5789
431 5790
431 5791
431 5793
431 5795
431 9025
431 5796
431 9026
431 9027
432 5790
432 5791
433 5790
433 5791
435 436
435 437
435 438
435 439
435 440
436 4188
436 6393
436 6394
436 6395
436 4192
436 437
436 6396
436 2652
436 6397
436 438
436 6398
436 440
437 6195
437 6196
437 8754
437 6955
437 9296
437 6396
437 6197
437 438
437 9468
437 439
437 6855
437 440
437 6856
437 6857
438 6394
438 6396
438 2652
438 6397
438 6398
438 9468
438 439
438 440
439 6195
439 6196
439 6878
439 6393
439 6395
439 6854
439 8754
439 6955
439 6396
439 6197
439 6855
439 440
439 6856
440 6195
440 6196
440 6854
440 8754
440 9296
440 6396
440 6197
440 6398
440 9468
440 6856
440 6857
441 442
441 443
441 444
441 445
441 446
441 447
442 443
442 444
442 2566
442 2570
443 606
443 2556
443 607
443 608
443 2830
443 609
443 444
443 4406
443 5471
443 4407
443 445
443 5549
443 610
443 447
443 611
443 4707
443 2570
444 5615
444 4407
444 2831
444 5616
444 447
444 2564
444 5617
444 2570
445 606
445 610
445 800
445 611
446 2734
446 4407
446 610
446 2570
447 607
447 2830
447 2734
447 5615
447 4406
447 5471
447 2831
447 2562
447 5616
447 5549
447 4705
447 2563
447 2564
447 5617
447 2566
447 2567
447 2568
447 2569
447 4706
448 449
448 450
448 451
448 452
449 450
449 451
449 452
450 451
450 452
451 452
453 454
453 455
453 456
453 457
453 458
453 459
454 1459
454 1498
454 1996
454 3500
454 1460
454 1997
454 3501
454 3502
454 457
454 3503
454 459
454 3504
454 3505
454 3506
454 1461
454 3507
454 1462
454 3508
455 456
455 3723
455 3502
455 458
455 459
455 3724
455 1461
455 3507
455 3725
456 457
456 3503
456 459
457 1498
457 1996
457 3500
457 3723
457 1460
457 1997
457 8587
457 3502
457 3503
457 8968
457 458
457 459
457 8969
457 3724
457 3504
457 3505
457 6295
457 3506
457 1461
457 3507
457 1462
457 3725
457 3508
458 1498
458 3503
458 459
458 3507
459 1459
459 1498
459 1996
459 3500
459 3723
459 1460
459 1997
459 3501
459 8587
459 3502
459 3503
459 8968
459 8969
459 3724
459 6295
459 1461
459 3507
459 1462
459 3725
459 8713
459 3508
460 971
460 972
460 973
460 974
460 464
460 975
460 976
460 466
460 469
460 977
460 978
461 2681
462 2681
463 972
463 466
463 469
464 971
464 972
464 973
464 975
464 976
464 466
464 2879
464 469
464 978
465 4319
465 4320
465 467
465 4321
466 971
466 972
466 976
466 2879
466 469
466 470
466 978
466 471
467 3830
469 971
469 976
469 470
469 978
469 471
470 471
471 972
472 473
472 474
472 475
473 6824
473 474
473 475
473 6827
473 6829
473 6830
473 6833
473 6834
474 6824
474 9213
474 6826
474 475
474 6827
474 6828
474 6831
474 6832
474 9287
474 9288
474 6833
474 6834
475 6824
475 6825
475 9213
475 6828
475 6831
475 6832
475 9287
475 6833
476 477
476 478
476 479
477 4725
477 2798
477 6969
477 6970
477 2799
477 478
477 479
478 2797
478 4724
478 4725
478 2798
478 6969
478 6970
478 2799
478 479
479 2797
479 4725
479 2798
479 6970
479 2799
480 481
480 482
480 483
480 484
480 485
480 486
480 487
480 488
480 489
480 490
480 491
480 492
481 482
481 483
481 484
481 485
481 4095
481 487
481 488
481 489
481 490
481 491
481 492
482 483
482 485
482 486
482 490
483 484
483 485
483 4095
483 487
483 488
483 489
483 490
483 491
483 492
484 487
485 486
485 487
485 488
486 489
486 490
487 4095
487 488
487 489
487 490
487 491
488 4095
488 489
488 490
488 492
493 494
493 495
493 496
493 497
493 498
493 499
494 495
494 496
494 497
494 498
494 499
495 496
495 497
495 499
496 497
496 498
497 5583
497 499
500 501
500 502
500 503
500 504
500 505
500 506
500 507
500 508
500 509
501 503
501 504
501 505
501 507
501 1429
501 6117
502 503
502 4114
502 6419
502 507
503 1428
503 5554
503 7154
503 6419
503 7155
503 5555
503 504
503 7156
503 505
503 506
503 507
503 508
503 6117
503 7157
503 509
503 7158
504 1428
504 5554
504 7154
504 505
504 506
504 507
504 6117
504 509
504 7158
505 1428
505 5554
505 5555
505 507
505 509
506 507
506 508
507 5554
507 4114
507 7154
507 6419
507 7155
507 4115
507 7156
507 508
507 4994
507 8196
507 6117
507 7157
507 509
507 7158
508 4112
508 4114
508 6419
508 4994
508 1429
508 509
509 1428
509 5554
509 5555
509 7158
510 511
510 512
510 513
510 514
510 515
511 512
511 513
511 514
511 515
512 513
512 514
512 515
513 514
513 515
514 515
516 517
516 518
516 519
516 520
516 521
517 518
517 519
517 520
517 521
518 519
518 520
518 521
519 520
519 521
520 521
522 523
522 524
522 525
522 526
523 5439
523 524
523 525
523 526
524 5439
524 8855
524 525
524 526
524 8856
525 5439
525 8855
525 8856
526 5439
527 528
527 529
527 530
527 531
527 532
527 533
528 2690
528 2691
528 3404
528 3405
528 2370
528 3406
528 532
528 533
528 2692
528 2693
529 532
529 4347
529 4348
529 4349
529 2693
530 532
530 4348
530 4349
531 2691
531 2372
531 4349
531 2373
531 5837
532 2690
532 2691
532 3406
532 4349
533 2690
533 2692
534 535
534 536
534 537
534 538
535 536
535 1120
535 1121
535 1122
535 1123
536 1242
536 2093
536 3554
536 2094
536 5255
536 6821
536 5256
536 1244
536 1120
536 1121
536 5257
536 7675
536 5258
536 5259
536 2095
536 537
536 1122
536 5260
536 7762
536 7676
536 5261
536 1123
536 538
536 5262
537 1244
537 5257
537 2095
537 1246
537 1123
537 538
538 1242
538 3554
538 2094
538 6821
538 5256
538 1244
538 7674
538 1245
538 1121
538 5257
538 7675
538 5259
538 2095
538 1122
538 5260
538 1246
538 7676
538 5261
538 1123
539 540
539 541
539 542
539 543
539 544
539 545
540 541
540 542
540 543
540 544
540 545
540 3623
540 3624
541 545
541 3623
541 3624
542 6262
542 544
542 545
542 3624
543 544
543 545
544 6262
544 545
544 9091
544 3623
544 3624
544 9092
545 6262
545 9091
545 3623
545 3624
545 9092
546 547
546 548
546 549
546 550
546 551
546 552
546 553
546 554
546 555
546 556
546 557
546 558
546 559
547 549
547 555
547 1547
548 1541
548 5324
548 549
548 1544
548 1545
548 550
548 551
548 6469
548 552
548 6470
548 554
548 555
548 6471
548 1547
548 556
548 6472
548 558
548 559
548 2127
548 6473
549 5324
549 1546
549 551
549 553
549 6471
549 556
549 6472
549 558
549 1550
549 2127
549 6473
550 551
550 6470
550 2127
551 1540
551 5324
551 6470
551 554
551 6471
551 1547
552 555
552 6471
552 557
553 554
553 556
554 5324
554 6469
554 555
554 556
555 6469
555 6471
555 556
555 6472
555 557
555 559
555 6473
556 1546
556 6469
556 6471
556 6472
556 557
556 1550
556 6473
557 6471
557 6472
557 559
558 6471
558 6472
559 6471
560 561
560 562
560 563
560 564
560 565
561 3050
561 4870
561 4871
561 4874
561 4875
561 562
561 4877
561 3051
561 3052
561 7294
561 4878
561 6705
561 7295
561 563
561 4879
561 7296
561 4880
561 4881
561 564
561 4882
561 4883
561 565
562 4879
562 565
563 4879
563 565
564 4879
564 565
565 4870
565 7294
565 7295
566 567
566 568
566 569
567 568
568 7218
570 571
570 572
570 573
570 574
571 3726
571 3727
571 3085
571 3728
571 572
571 3698
571 573
571 9437
571 574
572 3083
572 3727
572 3728
572 3698
572 573
572 9437
572 574
573 3697
573 3726
573 3727
573 3085
573 3728
573 3698
573 3086
573 9437
573 574
574 3697
574 3084
574 7778
574 3698
574 3086
574 8643
575 576
575 577
575 578
575 579
575 580
576 7995
576 7996
576 7997
576 577
576 7998
576 2207
576 7999
576 8000
576 578
576 579
576 8001
576 580
577 7995
577 7997
577 3263
577 7998
577 2207
577 7999
577 578
577 579
577 9004
577 580
578 2206
578 7995
578 8600
578 7996
578 7998
578 2207
578 8000
578 579
578 8001
578 9004
578 580
579 2206
579 7996
579 7997
579 7998
579 2207
579 7999
579 8000
579 8001
579 9004
579 580
580 2206
580 7995
580 7996
580 7997
580 2207
580 7999
580 8000
580 8001
580 9004
581 582
581 583
581 584
581 585
581 586
581 587
582 583
582 7297
582 7298
582 7299
582 7300
582 7301
582 584
582 585
582 586
582 587
583 7297
583 7298
583 7299
583 7301
583 584
583 585
583 587
584 7298
584 585
584 587
585 7297
585 7298
585 7299
585 586
585 587
586 7299
586 587
587 7298
587 7300
587 9614
588 589
588 590
589 590
591 592
591 593
591 594
592 995
592 1124
592 1125
592 1126
592 1127
592 1128
592 1129
592 1130
592 1131
592 1132
592 1174
592 1175
592 3747
592 3748
592 3749
592 3750
592 3751
592 3752
592 4403
592 593
592 4404
592 4405
593 995
593 1124
593 1125
593 1126
593 1127
593 1128
593 1129
593 1130
593 1131
593 1132
593 1174
593 1175
593 3747
593 3748
593 3749
593 3750
593 3751
593 3752
593 4403
593 4404
593 4405
593 594
594 995
594 1124
594 1125
594 1126
594 1127
594 1128
594 1129
594 1130
594 1131
594 1132
594 1174
594 1175
594 1133
594 3747
594 3748
594 3749
594 3750
594 3751
594 3752
594 4403
594 4404
594 4405
594 9630
595 596
595 597
595 598
595 599
595 600
595 601
595 602
596 597
596 2733
596 598
596 599
596 600
596 601
596 602
597 2733
597 598
597 599
597 601
597 4389
597 602
598 2733
598 599
598 600
598 601
598 6054
599 2733
599 600
599 4448
599 4389
599 6054
599 4450
599 602
600 2733
601 2733
601 4448
601 6054
601 4450
601 4453
602 2733
603 604
603 605
604 7836
605 5472
606 607
606 608
606 609
606 610
606 611
607 2734
607 2735
607 2736
607 611
608 2734
608 609
608 4406
608 2735
608 4407
608 2736
608 610
609 2734
609 5615
609 4406
609 2735
609 5616
609 2736
609 610
609 2564
609 5617
609 611
610 797
610 800
610 611
611 797
611 4406
611 2562
611 5549
611 800
612 613
612 614
612 615
612 616
612 617
612 618
613 614
613 615
613 617
613 618
614 9048
614 615
614 9049
614 9050
614 616
614 617
614 618
615 9049
615 9050
615 616
615 617
615 618
616 617
616 618
617 618
619 620
619 621
619 622
619 623
619 624
620 761
620 4362
620 5839
620 7042
620 621
620 622
620 623
620 624
620 9220
620 8309
621 4362
621 7042
621 2962
621 622
621 623
621 624
621 9220
622 4362
622 5839
622 7042
622 2962
622 2963
622 8142
622 623
622 624
622 9220
622 8309
622 9479
622 9480
623 4362
623 624
623 9220
623 8309
623 9479
624 4362
624 5839
624 7042
624 8309
624 9479
625 626
625 627
625 628
625 629
626 1143
626 5509
626 5511
626 6098
626 6100
626 627
626 6101
626 628
626 6102
626 629
626 6103
626 6104
626 6105
627 1143
627 5511
627 6098
627 6099
627 6527
627 5510
627 628
627 6102
627 629
628 1143
628 5509
628 5511
628 6098
628 6099
628 6527
628 8689
628 9429
628 6100
628 6101
628 9621
628 629
628 6103
628 6104
628 6105
629 1143
629 5509
629 5511
629 6098
629 6099
629 8689
629 9429
629 6101
629 9621
629 6102
630 631
630 632
630 633
631 632
631 5715
631 633
632 5715
632 633
633 5715
634 635
634 636
634 637
634 638
634 639
634 640
634 641
634 642
634 643
635 3534
635 640
635 643
636 3534
636 638
636 4713
636 4747
636 4748
636 4749
636 643
637 3534
637 640
637 643
638 4713
638 641
638 642
638 643
639 3534
639 640
639 643
640 2515
640 4713
640 4714
640 641
640 642
640 643
641 3534
641 6843
641 642
641 643
641 6846
642 3534
642 4749
642 643
642 5714
643 3534
643 4713
644 645
644 646
644 647
644 648
644 649
644 650
644 651
645 3998
645 6610
645 646
645 648
645 650
646 3998
646 4431
646 647
646 648
646 649
646 650
646 651
647 3998
647 6610
647 4432
647 9144
647 4434
647 649
647 6612
647 651
648 4430
648 5752
648 649
648 650
649 3998
649 9144
649 9460
649 9531
649 4435
649 650
649 651
651 3998
651 9144
651 9460
651 9531
651 6611
651 4435
651 6612
652 653
652 654
652 655
652 656
652 657
652 658
653 654
653 7469
653 656
653 657
654 655
654 656
654 657
654 9450
654 658
655 7469
655 656
655 657
655 9450
655 658
656 7469
656 657
656 9450
656 658
657 7469
657 9450
657 658
658 9450
659 660
659 661
659 662
659 663
659 664
660 2699
660 7222
660 8201
660 661
660 8202
660 8203
660 8204
660 8205
660 662
660 8206
660 663
660 8207
660 664
661 2699
661 7222
661 8201
661 6149
661 6151
661 8202
661 8203
661 8204
661 8205
661 662
661 8206
661 8207
661 664
662 2699
662 6150
662 6151
662 8202
662 8203
662 8206
662 8207
662 664
663 2699
663 6148
663 8201
663 6149
663 6150
663 6151
663 6152
663 8202
663 8203
663 8451
663 8206
663 8207
663 664
663 8452
664 2699
664 8202
664 8206
664 8207
665 666
665 667
665 668
665 669
665 670
665 671
666 1337
666 1338
666 1339
666 1340
666 1341
666 1342
666 1343
666 670
666 1344
666 1345
666 1346
666 1347
666 671
666 1348
666 1349
666 1350
667 2923
667 2924
668 669
668 4005
668 670
668 1345
669 4005
669 8501
669 838
669 670
669 1345
670 1337
670 1341
670 838
670 1345
670 671
670 1349
670 1350
671 1338
671 1341
671 1343
671 1344
671 1347
671 1349
671 1350
672 673
672 674
672 675
672 676
672 677
672 678
672 679
672 680
672 681
672 682
673 677
673 679
673 680
673 681
674 676
674 677
674 678
674 679
674 680
674 681
675 677
675 679
675 681
675 682
676 679
676 681
677 678
677 679
677 680
677 681
677 682
678 682
679 680
679 681
679 682
681 682
683 684
683 685
683 686
683 687
683 688
683 689
684 685
684 686
684 687
684 688
684 689
685 686
685 688
685 689
686 687
686 688
686 689
687 688
687 689
688 689
690 691
690 692
690 693
690 694
690 695
690 696
691 2006
691 693
691 694
691 4991
691 2013
691 4993
692 2008
692 6950
692 2011
692 695
693 2007
693 2010
693 694
693 4989
693 4991
693 4993
694 2006
694 6343
694 695
694 4989
694 4990
694 696
694 2013
695 6950
696 6343
696 2010
697 698
697 699
697 700
697 701
697 702
698 1833
698 1834
698 1835
698 1836
698 699
698 700
698 1837
698 701
698 1838
698 1839
698 1840
698 1841
698 1842
698 702
698 1843
699 1834
699 700
699 701
699 8678
699 8679
699 1840
699 9135
699 1841
699 702
700 1833
700 1835
700 1836
700 1837
700 701
700 8678
700 8679
700 1838
700 1839
700 1840
700 9135
700 1841
700 1842
700 702
700 1843
701 1833
701 1834
701 1835
701 1836
701 1837
701 8678
701 8679
701 1838
701 1839
701 1840
701 9135
701 1841
701 1842
701 702
701 1843
702 1834
702 1836
702 8678
702 8679
702 1840
702 9135
702 1841
703 704
703 705
704 705
706 707
706 708
706 709
706 710
706 711
706 712
707 708
707 710
707 711
707 712
708 709
708 710
708 711
708 712
709 710
709 711
710 711
710 712
711 712
713 714
713 715
713 716
713 717
713 718
713 719
713 720
713 721
714 715
714 4259
714 716
714 717
714 4260
714 718
714 719
714 720
714 721
714 4261
715 4259
715 4260
715 720
715 721
715 4261
716 719
716 720
716 721
717 718
717 720
717 721
718 719
718 720
718 721
719 4260
719 720
719 721
720 4259
720 4260
720 721
720 4261
721 4259
721 4260
721 4261
722 723
722 724
722 725
723 6784
723 724
723 6785
723 6786
723 6787
723 6788
724 6784
725 726
725 727
725 728
725 6784
725 6789
725 6790
725 729
725 730
725 7358
725 6791
725 6792
725 6793
726 727
726 728
726 729
726 730
727 728
727 729
727 730
728 729
728 730
729 730
731 732
731 733
731 734
731 735
731 736
731 737
731 738
732 2783
732 733
732 2784
732 735
732 737
733 847
733 2783
733 6757
733 2784
733 735
733 737
734 6757
734 2784
734 735
734 737
734 738
735 6757
735 848
735 736
735 737
736 847
737 2783
737 6757
737 848
737 738
738 6757
739 740
739 741
739 742
739 743
739 744
740 741
740 742
740 1673
740 6558
740 4333
740 6559
740 4334
740 6560
740 6561
740 6562
740 743
740 4335
740 744
741 1672
741 742
741 4333
741 6559
741 6561
741 743
742 1672
742 4332
742 1673
742 6558
742 4333
742 6559
742 1674
742 4334
742 6560
742 7720
742 6561
742 7721
742 6562
742 743
742 4335
742 7722
742 1675
742 744
743 3912
743 4332
743 7767
743 7896
743 1673
743 8333
743 4333
743 6559
743 1674
743 4334
743 7897
743 7720
743 7721
743 6562
743 3913
743 4335
743 7722
743 1675
743 744
744 3912
744 7767
744 7896
744 8333
744 6558
744 4333
744 7897
744 6560
744 3913
745 746
745 747
745 748
745 749
745 750
746 5858
746 747
746 5859
746 5860
746 5861
746 5862
746 5863
746 5864
746 748
746 749
746 5865
746 5866
746 750
747 5859
747 748
747 749
747 5865
748 5858
748 5859
748 5860
748 5861
748 5862
748 5864
748 8533
748 749
748 5865
748 5866
748 750
749 5859
749 5860
749 5861
749 5862
749 5863
749 5864
749 8533
749 5866
749 750
750 5858
750 5859
750 5860
750 5861
750 5863
750 8533
750 5866
751 752
751 753
751 754
751 755
752 1845
752 1846
752 754
752 755
752 1848
753 755
754 1844
754 1845
754 1846
754 755
754 1847
754 1848
755 1844
755 1847
756 757
756 758
756 759
756 760
757 6895
757 758
757 759
758 6895
758 759
758 760
759 6895
759 760
760 6895
761 762
761 763
761 764
762 2959
762 2960
762 2961
762 2962
762 763
762 2963
762 764
762 2964
763 2959
763 2961
763 8142
763 764
763 2964
763 8309
764 2959
764 2963
764 8142
764 8143
764 2964
764 9480
765 766
765 767
765 768
765 769
765 770
765 771
765 772
765 773
765 774
765 775
765 776
765 777
765 778
765 779
766 767
766 770
766 772
766 773
766 5959
766 5960
766 776
766 777
766 778
767 3300
767 5831
767 6406
767 7022
767 768
767 769
767 770
767 771
767 7231
767 772
767 773
767 774
767 5959
767 775
767 5960
767 776
767 777
767 7232
767 778
767 7233
767 779
768 770
768 778
769 770
769 778
770 2892
770 3300
770 5831
770 6406
770 7022
770 771
770 7231
770 9163
770 772
770 773
770 774
770 775
770 776
770 777
770 7232
770 778
770 779
771 778
774 2892
774 3300
774 5831
774 6406
774 7022
774 7719
774 8951
774 7231
774 9547
774 9548
774 7232
774 7233
775 778
778 6406
778 7231
778 5959
778 5960
778 779
780 781
780 782
780 783
781 6642
781 6643
781 783
782 6642
782 6643
782 9580
782 783
783 6642
783 6643
783 9580
784 785
784 786
784 787
784 788
784 789
785 1916
785 786
785 1917
785 1918
785 1919
785 787
785 1920
785 1921
785 1922
785 788
785 1923
785 1924
785 789
785 1925
785 1926
786 1918
786 787
786 1920
786 1921
786 788
786 1924
787 1918
787 1919
787 1920
787 1921
787 1924
787 789
787 1926
788 1917
788 1918
788 1919
788 1920
788 1921
788 1922
788 1923
788 1924
788 1926
789 1916
789 1918
789 1920
789 1924
789 1925
790 791
790 792
790 793
790 794
790 795
790 796
791 1402
791 5297
791 792
791 793
791 794
791 5298
791 5299
791 795
791 796
792 5297
792 793
792 794
792 5299
792 796
793 1402
793 5297
793 794
793 5298
793 795
793 796
794 5297
794 5298
794 5299
794 795
794 796
795 5298
795 796
796 1402
796 5297
796 5298
796 5299
797 798
797 799
797 800
798 6149
798 6150
798 7223
799 7222
799 8772
799 7223
800 2736
801 802
801 803
801 804
801 805
801 806
801 807
802 4251
802 804
802 805
802 806
802 7275
802 7276
802 7277
803 805
803 807
804 4251
804 805
804 7965
804 806
804 7275
804 807
804 7277
805 4251
805 7965
805 806
805 7275
805 807
805 7276
805 7277
806 7275
806 807
807 4251
807 7965
807 7277
808 809
808 810
808 811
808 812
809 2802
809 4371
809 810
809 811
809 1445
809 812
810 1444
810 2802
810 6750
810 6751
810 6752
810 8335
810 6679
810 811
810 6753
810 8336
810 1445
810 1446
810 1447
810 8337
810 2820
811 2801
811 2802
811 2804
811 812
811 2820
812 2801
812 2802
812 4371
812 2803
812 2805
812 2820
812 2821
813 814
813 815
813 816
813 817
813 818
814 3567
814 5581
814 5917
814 2045
814 5918
814 5919
814 815
814 5920
814 5921
814 5922
814 816
814 5923
814 5924
814 5925
814 5926
814 5927
814 817
814 5928
814 5929
814 818
814 5930
814 5931
815 3567
815 5581
815 2045
815 5918
815 5919
815 5920
815 5921
815 5922
815 5923
815 5924
815 5926
815 6780
815 6995
815 817
815 5928
815 6997
815 5929
815 818
815 5930
815 5931
815 6782
816 5581
816 5918
816 5919
816 5920
816 5922
816 5923
816 5924
816 5926
816 6780
816 6995
816 817
816 5928
816 6997
816 5929
816 818
816 5930
816 6782
817 5581
817 5917
817 5918
817 5920
817 5922
817 5925
817 5926
817 5927
817 5928
817 818
817 5931
818 5581
818 5917
818 5918
818 5920
818 5922
818 5924
818 5925
818 5926
818 6995
818 5928
818 6997
819 820
819 821
819 822
819 823
820 4507
820 4612
820 821
820 4613
820 4508
820 3031
820 4614
820 822
820 4615
820 4616
820 823
821 4507
821 5078
821 4612
821 4613
821 822
821 823
822 5078
822 4508
822 823
823 2082
823 5078
823 4613
823 4508
823 5079
823 3031
823 4614
823 5080
823 5081
823 3032
823 8002
823 5082
823 4615
823 4616
824 825
824 826
824 827
824 828
824 829
825 1769
825 5696
825 5697
825 5698
825 5699
825 5700
825 1711
825 828
825 829
826 1709
826 1769
826 1710
826 2410
826 2414
826 827
826 3121
826 1712
826 828
826 829
826 2426
827 1769
827 1770
827 3120
827 9033
827 5698
827 9034
827 829
828 1709
828 1769
828 1710
828 2407
828 2409
828 2410
828 2411
828 2414
828 9019
828 5697
828 2417
828 5698
828 2419
828 3121
828 9034
828 1711
828 1712
828 2426
829 1769
829 1770
829 3120
829 9033
829 3121
830 831
830 832
830 833
830 834
830 835
830 836
831 832
831 2208
831 2209
831 834
831 2210
831 836
832 3074
832 833
832 2209
832 3075
832 3076
832 835
832 3077
832 2210
832 836
833 3074
833 2208
833 2209
833 3076
833 2210
833 836
834 3074
834 835
834 3077
835 2208
835 2209
835 2210
835 836
836 3074
836 2208
836 3075
836 3076
836 3077
837 838
837 839
837 840
837 841
838 839
838 840
838 841
839 4005
839 8501
839 8578
839 8579
839 9601
839 840
839 841
840 1345
841 4005
841 8501
841 9601
842 843
842 844
842 845
842 846
843 5828
843 5829
843 844
843 845
843 846
844 5828
844 5829
844 845
845 5828
845 5829
845 846
846 1383
846 5828
847 848
847 849
848 849
850 851
850 852
850 853
850 854
850 855
850 856
850 857
850 858
850 859
850 860
850 861
850 862
851 4454
851 3232
851 4222
851 853
851 1874
851 6137
851 5039
851 3233
851 3807
851 2489
851 2490
851 6138
851 859
851 3234
851 3235
851 2491
851 3236
851 6139
851 3237
851 3808
851 6140
851 5041
851 3809
851 5042
851 862
851 3240
851 3810
853 1872
853 854
853 5043
854 1872
854 7888
854 5039
854 8408
854 859
854 6139
854 862
854 7891
854 5043
855 856
855 857
855 862
856 857
856 8989
856 862
857 4221
857 3232
857 3233
857 7889
857 862
857 7851
858 1871
858 1873
858 2489
858 859
858 1875
858 862
858 5043
859 1871
859 2488
859 1872
859 1873
859 5039
859 8408
859 2489
859 1875
859 860
859 7701
859 6139
859 8840
859 861
859 5042
859 862
859 5043
860 1872
860 862
860 5043
861 7701
861 862
862 1872
862 5039
862 2490
862 6139
862 5041
862 8570
862 5043
863 864
863 865
863 866
863 867
863 868
863 869
863 870
863 871
863 872
863 873
863 874
863 875
863 876
864 3252
864 3904
864 7945
864 866
864 867
864 868
864 869
864 870
864 3905
864 872
864 873
864 7946
864 7947
865 5902
865 3904
865 7945
865 867
865 3905
865 873
865 7946
865 7947
866 3252
866 3904
867 3904
867 7945
867 3905
867 3906
867 873
867 874
867 7946
867 3907
867 3253
867 7947
868 3252
868 3904
869 3252
869 3904
870 3252
870 3904
871 3252
871 3906
871 872
871 873
872 3252
872 3904
872 7945
872 875
872 7946
872 876
872 7947
873 3251
873 3252
873 3901
873 3902
873 5902
873 3904
873 7945
873 5426
873 3905
873 3906
873 874
873 875
873 7946
873 876
873 3907
873 3253
873 7947
873 5428
874 3904
874 3905
875 3252
875 3906
876 3251
877 878
877 879
877 880
877 881
877 882
877 883
877 884
878 5321
878 879
878 880
878 881
878 5322
878 884
879 5321
879 880
879 881
879 882
879 883
879 5322
879 884
880 881
880 5322
881 5321
881 5679
881 6500
881 882
881 8732
881 883
881 5322
881 6501
882 5321
882 884
883 5321
883 884
884 5321
884 6501
885 886
885 887
885 888
885 889
885 890
885 891
885 892
885 893
885 894
886 889
886 891
886 3391
886 892
886 3392
886 3393
886 893
887 889
887 891
887 3393
887 893
888 4514
888 4678
888 4515
888 889
888 891
888 4516
888 3391
888 5068
888 6822
888 892
888 6823
888 8200
888 4679
888 4517
888 893
888 3548
888 894
889 4514
889 4515
889 890
889 8281
889 3391
889 5068
889 892
889 6823
889 8200
889 4679
889 893
889 894
890 4515
890 893
890 894
891 3393
891 893
892 5063
893 5063
893 4515
893 3391
893 6822
893 6823
893 3393
893 894
894 4514
894 4678
894 4515
894 4516
894 3391
894 6822
894 6823
894 8200
894 4679
894 4517
895 896
895 897
895 898
895 899
895 900
896 5655
896 897
896 5844
896 898
896 899
896 900
897 5844
897 898
897 899
897 900
898 5844
898 899
898 900
899 5844
899 900
900 5844
901 902
901 903
901 904
901 905
901 906
901 907
902 5998
902 903
902 904
902 905
903 8940
903 5998
903 904
903 905
903 906
903 907
904 8940
904 5998
904 905
904 906
904 907
905 8940
905 5998
905 906
905 907
906 5998
907 8940
907 5998
908 909
908 910
908 911
908 912
908 913
908 914
908 915
908 916
908 917
908 918
908 919
908 920
908 921
908 922
909 910
909 913
909 914
909 917
909 918
909 920
909 922
910 912
910 915
910 917
910 918
910 3516
910 919
910 920
910 921
910 922
911 912
911 915
911 921
911 922
912 915
912 916
912 918
912 3516
912 919
912 921
913 914
913 917
913 922
914 921
914 922
915 918
915 919
915 920
915 921
916 922
917 922
919 3516
919 921
921 3516
921 922
922 3516
923 924
923 925
923 926
923 927
923 928
925 926
925 927
925 7111
927 2900
927 2982
927 7111
928 2729
928 4277
928 2730
928 2731
928 7990
928 9376
928 7991
928 4278
928 2985
928 7992
929 930
929 931
929 932
929 933
929 934
929 935
929 936
929 937
929 938
929 939
929 940
929 941
929 942
929 943
929 944
929 945
929 946
929 947
929 948
930 931
930 932
930 935
930 936
930 937
930 938
930 3417
930 945
930 948
931 935
931 936
931 939
931 940
931 3417
931 942
931 944
931 946
931 947
932 933
932 935
932 937
932 938
932 6680
932 942
932 943
932 944
932 6681
932 945
932 946
932 947
932 6682
933 935
933 936
933 943
933 945
934 1512
934 936
935 936
935 937
935 938
935 941
935 942
935 944
935 6681
935 945
935 946
935 947
935 6682
935 948
936 939
936 940
936 3417
936 941
936 942
936 6681
936 6682
936 948
937 942
938 942
939 3417
940 3417
941 942
941 945
942 3417
942 943
942 945
943 945
944 945
945 3417
945 6680
945 6681
945 946
945 947
945 6682
949 950
949 951
949 952
949 953
949 954
949 955
949 956
949 957
949 958
950 951
950 952
950 953
950 6181
950 954
950 955
950 957
951 952
951 953
952 6125
952 6126
952 953
952 6127
952 6181
952 7954
952 954
952 7955
952 955
952 6129
952 6130
952 6131
952 6133
952 956
952 957
952 958
953 6181
953 954
953 955
953 956
953 958
955 6125
955 6126
955 6181
955 7954
955 7955
955 6129
955 6130
955 6131
955 6132
955 6133
955 956
955 957
955 958
956 6125
956 6127
956 6181
956 7954
956 6131
956 6132
956 6133
956 957
959 960
959 961
959 962
959 963
959 964
959 965
959 966
960 4546
960 963
960 964
960 4547
960 965
960 966
961 4546
961 5601
961 6686
961 2262
961 6687
961 6688
961 2263
961 965
962 4546
962 5601
962 2262
962 963
962 2263
962 4547
962 965
963 5601
963 6686
963 2262
963 6687
963 6688
963 2263
963 4547
963 1969
964 5601
964 6686
964 2262
964 6687
964 6688
964 2263
965 4206
965 4546
965 5601
965 966
966 4206
966 4546
966 5601
967 968
967 969
967 970
968 4188
968 4189
968 4190
968 2651
968 4191
968 4192
968 2652
968 4193
968 4194
969 4189
969 4190
969 7254
969 7255
969 7256
969 7257
969 970
969 4194
970 7256
972 2878
972 975
972 976
972 2879
972 978
973 2878
973 975
973 978
974 2681
975 8161
975 9326
975 2879
975 8560
977 2681
978 2879
979 2102
979 980
979 9490
980 9490
980 982
981 2102
983 984
983 985
983 986
983 987
984 8978
984 9313
984 8979
984 986
984 987
985 8978
985 9313
985 986
985 987
986 6502
986 8978
986 9313
986 8979
986 9574
986 9606
986 987
987 6502
987 8978
987 9313
987 8979
987 9574
987 9606
988 989
988 990
988 991
988 992
988 993
988 994
989 990
989 992
989 993
989 994
990 991
990 992
990 993
990 994
991 992
991 994
992 994
993 994
996 997
996 998
996 999
996 1000
996 1001
996 1002
996 1003
996 1004
996 1005
996 1006
996 1007
996 1008
996 1009
996 1010
996 1011
996 1012
996 1013
996 1014
996 1015
996 1016
996 1017
996 1018
997 999
997 1003
997 1017
997 1018
998 999
998 1003
998 1005
998 1010
998 1011
998 1017
998 1018
999 1000
999 1589
999 1006
999 1010
999 1011
999 1013
999 1017
999 1018
1000 1018
1001 1017
1001 1018
1002 1018
1003 1589
1003 7195
1003 1009
1003 1018
1004 7195
1005 1017
1005 1018
1006 1018
1007 1016
1007 1017
1007 1018
1008 1017
1010 1017
1011 1018
1012 1018
1013 1018
1014 1018
1015 1018
1016 1018
1017 1589
1017 1018
1018 1589
1019 1020
1019 1021
1019 1022
1019 1023
1020 5820
1020 5821
1020 5822
1020 1021
1020 1022
1020 1023
1021 5822
1021 1022
1021 1023
1022 6405
1022 1023
1023 8931
1024 1025
1024 1026
1024 1027
1024 1028
1025 1026
1025 1980
1025 1981
1025 1982
1025 1983
1026 1027
1026 6525
1026 1980
1026 1982
1026 1983
1027 1980
1027 1982
1027 1983
1029 1030
1029 1031
1029 1032
1029 1033
1030 1794
1030 2326
1030 5759
1030 6260
1030 6728
1030 6729
1030 1795
1030 6730
1030 1796
1030 6731
1030 6732
1030 6733
1030 1031
1030 6734
1030 6735
1030 6736
1030 2327
1030 1033
1031 2326
1031 5759
1031 6260
1031 6729
1031 1795
1031 1796
1031 6731
1031 6733
1031 6736
1031 2327
1031 1033
1032 5759
1032 8659
1032 1795
1032 8660
1032 6733
1032 6483
1032 2327
1032 8861
1033 1794
1033 5759
1033 6728
1033 6730
1033 1796
1033 6732
1033 6733
1033 6734
1033 2327
1034 1035
1034 1036
1034 1037
1034 1038
1034 1039
1035 7885
1035 8136
1035 8906
1035 9070
1035 8137
1035 8138
1035 7886
1035 1036
1035 1037
1035 7887
1035 1038
1035 9071
1035 9072
1035 1039
1035 9073
1036 8136
1036 8140
1036 1037
1036 7887
1036 8141
1036 1038
1036 1039
1037 8136
1037 8906
1037 8139
1037 7887
1037 1038
1037 1039
1038 7885
1038 8136
1038 8906
1038 9070
1038 8137
1038 8138
1038 7886
1038 8140
1038 7887
1038 8141
1038 9071
1038 1039
1038 9073
1039 7885
1039 8136
1039 8906
1039 9070
1039 8138
1039 7886
1039 8140
1039 7887
1039 8141
1039 9071
1039 9072
1039 9073
1040 1041
1040 1042
1040 1043
1041 4795
1041 6310
1041 1042
1041 4796
1041 7068
1041 4542
1041 1043
1042 4541
1042 1043
1043 4796
1043 4542
1044 1045
1044 1046
1045 1046
1047 1048
1047 1049
1047 1050
1047 1051
1047 1052
1047 1053
1047 1054
1047 1055
1047 1056
1047 1057
1047 1058
1048 1050
1048 1051
1048 5144
1048 5145
1048 5146
1048 1052
1048 1053
1048 5147
1048 5148
1048 5149
1048 5150
1049 1053
1049 6222
1049 5150
1050 5806
1050 6632
1050 1051
1050 5144
1050 5807
1050 5146
1050 5808
1050 1052
1050 5809
1050 1053
1050 1054
1050 6870
1050 1055
1050 1056
1050 5147
1050 5810
1050 1057
1050 6222
1050 5149
1050 6871
1050 1058
1051 5806
1051 1053
1052 5806
1052 6632
1052 5807
1052 5146
1052 5808
1052 9528
1052 1053
1052 1054
1052 1055
1052 5147
1052 8456
1052 6222
1052 5811
1052 5149
1052 6871
1052 5150
1052 1058
1053 5806
1053 6632
1053 5144
1053 5807
1053 5145
1053 5146
1053 5808
1053 5809
1053 1054
1053 6870
1053 1055
1053 1056
1053 5147
1053 5810
1053 1057
1053 8456
1053 6222
1053 5811
1053 5148
1053 5149
1053 6871
1053 5150
1053 1058
1054 5806
1055 5806
1055 6632
1055 5146
1055 6870
1055 1056
1055 1057
1055 5811
1055 5148
1056 5806
1057 5806
1058 5806
1059 1060
1059 1061
1059 1062
1060 3811
1060 1061
1060 3812
1061 3811
1061 4969
1061 9560
1061 7568
1061 3812
1061 9561
1061 1062
1062 3811
1062 4969
1062 9560
1062 7568
1062 3812
1063 1064
1063 1065
1063 1066
1063 1067
1063 1068
1063 1069
1063 1070
1063 1071
1063 1072
1063 1073
1064 1069
1064 1071
1064 1072
1064 1073
1065 4232
1065 1068
1065 1071
1065 1072
1065 1073
1065 4233
1066 1067
1066 1071
1066 1073
1067 4232
1067 1071
1068 1071
1068 1072
1068 1073
1068 4233
1069 1071
1069 1072
1069 1073
1070 4232
1070 1071
1071 4232
1071 1073
1071 4233
1072 4232
1072 1073
1072 4233
1073 4232
1073 4233
1074 1075
1074 1076
1074 1077
1074 1078
1074 1079
1074 1080
1075 1076
1075 1079
1075 1080
1076 1077
1076 1078
1076 1079
1076 1080
1077 1078
1077 1079
1077 1080
1078 1079
1078 1080
1079 1080
1081 1082
1081 1083
1081 1084
1081 1085
1081 1086
1081 1087
1082 1608
1082 1602
1082 1616
1082 1603
1082 1085
1082 1617
1082 4442
1082 1615
1083 1623
1083 6369
1084 1607
1084 1619
1084 1622
1084 1609
1084 1623
1084 1603
1084 1086
1085 1602
1085 1616
1085 1604
1085 1618
1086 6369
1086 1618
1087 1624
1087 1625
1087 8181
1087 6366
1088 1089
1088 1090
1088 1091
1088 1092
1088 1093
1089 3308
1089 1090
1089 1092
1089 1093
1089 3309
1089 2449
1090 3308
1090 6770
1090 1092
1090 2448
1090 1093
1090 3309
1090 7390
1090 7391
1090 7392
1090 6774
1091 2064
1091 2447
1091 7582
1091 6769
1091 6770
1091 6771
1091 8971
1091 2449
1091 8972
1091 6772
1091 7391
1091 2067
1091 8973
1091 7392
1091 6773
1091 6774
1092 3308
1092 1093
1092 3309
1092 9300
1093 3309
1094 1095
1094 1096
1094 1097
1094 1098
1094 1099
1094 1100
1095 1762
1095 1096
1095 5598
1095 1097
1095 5599
1095 5600
1095 1099
1095 1100
1095 1764
1096 1763
1096 5598
1096 1097
1096 5600
1096 5985
1096 1099
1096 1100
1096 1764
1097 1762
1097 1763
1097 5598
1097 6328
1097 1098
1097 5599
1097 4553
1097 6329
1097 5600
1097 1099
1097 1100
1097 1764
1098 1099
1098 1100
1098 1764
1099 1763
1099 5598
1099 6328
1099 5599
1099 6329
1099 5600
1099 1100
1099 1764
1100 1762
1100 1763
1100 5598
1100 6328
1100 5599
1100 1344
1100 5985
1102 1103
1102 1104
1102 1105
1102 1106
1103 1495
1103 1496
1103 1497
1104 6258
1105 8534
1107 1108
1107 1109
1107 1110
1107 1111
1107 1112
1107 1113
1108 9505
1108 1111
1108 9506
1108 1112
1109 3302
1109 9596
1109 1110
1109 9505
1109 1111
1109 1112
1109 1113
1109 3305
1110 3301
1110 3302
1110 3303
1110 9562
1110 9596
1110 1111
1110 9506
1110 1112
1110 9597
1110 3304
1110 1113
1110 3305
1111 3303
1111 9562
1111 9505
1111 9603
1111 9506
1111 1112
1111 9597
1111 1113
1112 3302
1112 9562
1112 9596
1112 9506
1112 3304
1112 1113
1112 3305
1113 3303
1113 9505
1113 9603
1113 9506
1113 3304
1113 3305
1114 1115
1114 1116
1114 1117
1114 1118
1114 1119
1115 1117
1115 6922
1115 1118
1115 6923
1115 1119
1116 1118
1117 8428
1117 9014
1117 1119
1118 9014
1118 1119
1119 6922
1120 1242
1120 2094
1120 7674
1120 1245
1120 8165
1120 5261
1120 5262
1121 2094
1121 1244
1121 1122
1122 5256
1122 1244
1122 7676
1122 1123
1123 2093
1123 3554
1123 2094
1123 5255
1123 1243
1123 6821
1123 1244
1123 7674
1123 1245
1123 3555
1123 7675
1123 5258
1123 2095
1123 5260
1123 7676
1123 8165
1123 5261
1123 5262
1132 1133
1134 1135
1135 3607
1135 3608
1135 3609
1135 3610
1135 3611
1135 3612
1135 3613
1135 3614
1135 3615
1135 3616
1135 3617
1135 3618
1136 1137
1136 1138
1136 1139
1136 1140
1136 1141
1137 1138
1137 1139
1137 1140
1137 1141
1137 1142
1138 1139
1138 1140
1138 2965
1138 1141
1138 1142
1139 1140
1139 1142
1140 1142
1141 2965
1141 1142
1144 1145
1144 1146
1144 1147
1144 1148
1144 1149
1144 1150
1144 1151
1148 1151
1151 6292
1152 1153
1152 1154
1152 1155
1152 1156
1152 1157
1152 1158
1152 1159
1152 1160
1153 4085
1153 1154
1153 1156
1153 1158
1153 4086
1153 1159
1153 4087
1153 4088
1153 4089
1153 4090
1153 4091
1154 1155
1154 6874
1154 1159
1155 6874
1155 1156
1155 1158
1155 1159
1155 1160
1155 4090
1156 6874
1156 1157
1156 1158
1156 1159
1156 4090
1157 4085
1157 1159
1157 4091
1158 4091
1159 4090
1159 4091
1160 6874
1160 7734
1160 7735
1160 9233
1160 4090
1161 1162
1161 1163
1161 1164
1161 1165
1161 1166
1161 1167
1162 1946
1162 1163
1162 1165
1162 1947
1162 1166
1163 1946
1163 1165
1163 1947
1163 1167
1164 1946
1164 1165
1164 1947
1164 1166
1165 1947
1165 1167
1166 1947
1166 1167
1167 1946
1168 1169
1168 1170
1168 1171
1168 1172
1168 1173
1169 8553
1169 5239
1170 8553
1170 1172
1171 8554
1171 9015
1171 8555
1172 1173
1173 8553
1176 1177
1176 1178
1176 1179
1176 1180
1176 1181
1177 3078
1177 1178
1177 4730
1177 1179
1177 1180
1177 3080
1177 4731
1177 4732
1178 3078
1178 5423
1178 6992
1178 4730
1178 1179
1178 1180
1178 3080
1178 1181
1178 3082
1179 6992
1179 1180
1179 3080
1179 1181
1180 3078
1180 5423
1180 6992
1180 3080
1180 1181
1180 3082
1181 3080
1181 3082
1182 1183
1182 1184
1182 1185
1182 1186
1182 1187
1182 1188
1183 6106
1183 6107
1183 1184
1183 6108
1183 1185
1183 6109
1183 6110
1183 1187
1183 1188
1184 6106
1184 6107
1184 7893
1184 6108
1184 1185
1184 6109
1184 1186
1184 6110
1184 7894
1184 1187
1184 1188
1185 6106
1185 7893
1185 6108
1185 1186
1185 1187
1185 1188
1186 6106
1186 6107
1186 7893
1186 6108
1186 1188
1187 6108
1188 6106
1188 6107
1188 7893
1188 6108
1188 6109
1188 7894
1189 1190
1189 1191
1189 1192
1189 1193
1189 1194
1189 1195
1190 1191
1190 1192
1190 1193
1190 1194
1191 6644
1191 8580
1191 8821
1191 9083
1191 1192
1191 1193
1191 6645
1191 1194
1191 1195
1192 6644
1192 8580
1192 8821
1192 9083
1192 1193
1192 6645
1192 1194
1192 1195
1193 5498
1193 6644
1193 8580
1193 7241
1193 8821
1193 9083
1193 9483
1193 1194
1193 1195
1194 6644
1194 8580
1194 8821
1194 9083
1194 6645
1194 1195
1195 6644
1195 8580
1195 8821
1195 9083
1195 6645
1196 1197
1196 1198
1196 1199
1196 1200
1197 9399
1197 1198
1197 1199
1197 1200
1198 9399
1198 1199
1198 1200
1199 9399
1199 1200
1200 9399
1201 1202
1202 1204
1202 1205
1202 1208
1202 1210
1202 1211
1202 1212
1202 1214
1202 1217
1202 1218
1202 1219
1202 4137
1202 1221
1204 1214
1206 1214
1206 1217
1207 1214
1207 1223
1208 1214
1209 1214
1209 1223
1211 1214
1212 1214
1213 1214
1213 1217
1214 5320
1214 1215
1214 1217
1214 9396
1214 9397
1214 4137
1214 1220
1214 1221
1214 1222
1214 9398
1214 1223
1214 1224
1215 1223
1217 7056
1217 1219
1217 1224
1219 1220
1220 1223
1222 1223
1223 5320
1223 9396
1223 9397
1223 4137
1223 9398
1225 1226
1225 1227
1225 1228
1225 1229
1225 1230
1225 1231
1225 1232
1225 1233
1225 1234
1225 1235
1225 1236
1225 1237
1226 1229
1226 1230
1226 1232
1227 1230
1227 1231
1227 1232
1228 4377
1228 1229
1228 1230
1228 1231
1229 4376
1229 4377
1229 1230
1229 1231
1229 1232
1229 1233
1229 8489
1229 8302
1229 1234
1229 8490
1229 8491
1229 1235
1229 1236
1229 1237
1229 8492
1230 4376
1230 4377
1230 1231
1230 1232
1230 1233
1230 8489
1230 8302
1230 8490
1230 8491
1230 8492
1231 4377
1231 1232
1231 1233
1231 8489
1231 1234
1231 8490
1231 8491
1231 1235
1231 1236
1231 1237
1231 8492
1232 4377
1232 8489
1232 8490
1233 4377
1234 4377
1234 1236
1235 4377
1235 1236
1236 4377
1236 8491
1236 8492
1237 4377
1238 1239
1238 1240
1238 1241
1239 5166
1239 1240
1239 5167
1239 5168
1239 5169
1239 5170
1239 1241
1239 5171
1240 5166
1240 8841
1240 4437
1240 5167
1240 5168
1240 5169
1240 1241
1240 5171
1241 5166
1241 8841
1241 4437
1241 5169
1241 5170
1241 5171
1242 1243
1242 1244
1242 1245
1242 1246
1243 3554
1243 1245
1243 5262
1244 2093
1244 3554
1244 2094
1244 6821
1244 5256
1244 7674
1244 1245
1244 7675
1244 5258
1244 5259
1244 2095
1244 5260
1244 7676
1244 5261
1244 5262
1245 3554
1245 7674
1245 3555
1245 8165
1246 2094
1246 2095
1247 1248
1247 1249
1247 1250
1247 1251
1248 1252
1248 1254
1248 1255
1248 1249
1248 1250
1248 1251
1248 1253
1249 1254
1249 1255
1249 1250
1249 1251
1249 1253
1250 1252
1250 1254
1250 1255
1250 1251
1250 1253
1251 1252
1251 1254
1251 1255
1251 1253
1252 1253
1254 1255
1256 1257
1256 1258
1256 1259
1256 1260
1256 1261
1256 1262
1256 1263
1256 1264
1256 1265
1256 1266
1256 1267
1257 1261
1257 1263
1257 1265
1257 1266
1258 1260
1258 1261
1258 1262
1258 1263
1258 1265
1258 5232
1258 1266
1258 1267
1259 6544
1259 6545
1259 1261
1259 1263
1259 1265
1259 1266
1260 1261
1260 1263
1260 1266
1261 1262
1261 1263
1261 1264
1261 1265
1261 5232
1261 1266
1261 7253
1262 1265
1262 1266
1263 6544
1263 1264
1263 1265
1263 1266
1263 1267
1264 1265
1264 1266
1265 5232
1265 1266
1265 1267
1265 7253
1266 6544
1266 1267
1268 1269
1268 1270
1268 1271
1268 1272
1268 1273
1268 1274
1268 1275
1268 1276
1269 1270
1269 1271
1269 1272
1269 5859
1269 1273
1269 1274
1269 1276
1270 1271
1270 1272
1270 5859
1270 1273
1270 1274
1270 1275
1270 1276
1271 1273
1271 1276
1272 1273
1272 1276
1273 1274
1273 1275
1273 1276
1274 1276
1275 5859
1277 1278
1277 1279
1277 1280
1277 1281
1278 3112
1278 6946
1278 7303
1278 6947
1278 7628
1278 1279
1278 1280
1278 6948
1278 7629
1278 7630
1278 6949
1278 7631
1278 1281
1279 3112
1279 7303
1279 7628
1279 1280
1279 6948
1279 7630
1279 6949
1279 1281
1280 3112
1280 7303
1280 7628
1280 6948
1280 8167
1280 6949
1280 1281
1281 3112
1281 7303
1281 6948
1282 1283
1282 1284
1282 1285
1282 1286
1282 1287
1282 1288
1282 1289
1282 1290
1282 1291
1282 1292
1282 1293
1283 1286
1283 1289
1283 1290
1283 1291
1284 1288
1284 1289
1284 1290
1285 1286
1285 6111
1285 1288
1285 1291
1286 6516
1286 2739
1286 1288
1286 2740
1286 1289
1286 2741
1286 6517
1286 6518
1286 2742
1286 1290
1286 1293
1286 6519
1287 1288
1287 1289
1287 1290
1288 1289
1288 1290
1288 1291
1288 1293
1288 6519
1289 6111
1289 1291
1289 1292
1289 6519
1290 6516
1290 8111
1290 6111
1290 5045
1290 2739
1290 9289
1290 2741
1290 9290
1290 1291
1290 9291
1290 6519
1291 1292
1291 9568
1291 1293
1291 6519
1292 7174
1292 7203
1293 6111
1294 1295
1294 1296
1294 1297
1294 1298
1294 1299
1295 2061
1295 3897
1295 4701
1295 2062
1295 7493
1295 8430
1295 5331
1295 3426
1295 8503
1295 8504
1295 8505
1295 5333
1295 8506
1295 5335
1295 5336
1295 1296
1295 1297
1295 1298
1295 8507
1295 1299
1296 2061
1296 3394
1296 3425
1296 4701
1296 2062
1296 5325
1296 5326
1296 5327
1296 7493
1296 5328
1296 5329
1296 5330
1296 8430
1296 5331
1296 3426
1296 6569
1296 5332
1296 8503
1296 8504
1296 8506
1296 5334
1296 5336
1296 1297
1296 6574
1296 1298
1296 8507
1296 5337
1296 1299
1297 3394
1297 3425
1297 3898
1297 2062
1297 5325
1297 6567
1297 5326
1297 5327
1297 7493
1297 5328
1297 6568
1297 5329
1297 5330
1297 8430
1297 3426
1297 6569
1297 5332
1297 8503
1297 8504
1297 6570
1297 6571
1297 8505
1297 5333
1297 6572
1297 8506
1297 5334
1297 5335
1297 6574
1297 1298
1297 3899
1297 3427
1297 8507
1297 5337
1297 1299
1298 2061
1298 3394
1298 3425
1298 4701
1298 3898
1298 2062
1298 5325
1298 6567
1298 5326
1298 5327
1298 7493
1298 5328
1298 6568
1298 5329
1298 5330
1298 8430
1298 5331
1298 3426
1298 5332
1298 8503
1298 8504
1298 6570
1298 6571
1298 8505
1298 5333
1298 6572
1298 8506
1298 5334
1298 5335
1298 5336
1298 6573
1298 3899
1298 3427
1298 8507
1298 5337
1298 1299
1299 2061
1299 4701
1299 2062
1299 5326
1299 5327
1299 8430
1299 5331
1299 3426
1299 5332
1299 8503
1299 8505
1299 5333
1299 8506
1299 5334
1299 5335
1299 5336
1300 1301
1300 1302
1301 5385
1302 6918
1302 6919
1303 1304
1304 4187
1304 5323
1304 9348
1304 9349
1305 1306
1305 1307
1306 3795
1306 4524
1306 2506
1306 3799
1306 6754
1306 6755
1306 4533
1307 2059
1307 3800
1307 9572
1307 3838
1308 1309
1308 1310
1308 1311
1308 1312
1308 1313
1308 1314
1308 1315
1308 1316
1308 1317
1308 1318
1308 1319
1309 1310
1309 1312
1309 1313
1309 1315
1309 1316
1309 1317
1309 1318
1310 1311
1310 1313
1310 1314
1310 1315
1310 1316
1310 1318
1310 1319
1310 8930
1311 1313
1311 1316
1311 1319
1312 1313
1312 1315
1312 1316
1313 1314
1313 1315
1313 1316
1313 1317
1313 1319
1313 8930
1314 1316
1314 1317
1314 1319
1314 8930
1315 1316
1315 1318
1316 1318
1316 1319
1316 8930
1317 1319
1319 8930
1320 1321
1320 1322
1320 1323
1320 1324
1320 1325
1320 1326
1320 1327
1320 1328
1320 1329
1320 1330
1320 1331
1321 2156
1321 1323
1321 1324
1321 1329
1321 1331
1321 2157
1322 3229
1322 2156
1322 1323
1322 1324
1322 3230
1322 1325
1322 1326
1322 1328
1322 1329
1322 1331
1323 3229
1323 2156
1323 1324
1323 3230
1323 1325
1323 1326
1323 1329
1323 1331
1323 2157
1324 3230
1324 1325
1324 1329
1324 1331
1325 1331
1326 3229
1326 2156
1326 1327
1326 1328
1326 1329
1326 1330
1326 1331
1326 2157
1327 2156
1327 1329
1327 1331
1327 2157
1328 3229
1328 3230
1329 1330
1329 1331
1330 1331
1331 3229
1331 2157
1332 1333
1332 1334
1332 1335
1332 1336
1333 1335
1334 1335
1335 1336
1337 1341
1337 1342
1337 1349
1338 1341
1338 1344
1338 1348
1339 6190
1339 4243
1339 2924
1339 6551
1340 4241
1340 4243
1340 2924
1340 8095
1341 1342
1341 1344
1341 1347
1341 1348
1341 1349
1341 1350
1342 1347
1343 1763
1343 1344
1344 1763
1344 5985
1344 1350
1345 4005
1346 6190
1346 4243
1346 2924
1346 6551
1351 1352
1351 1353
1351 1354
1351 1355
1351 1356
1351 1357
1351 1358
1351 1359
1352 1353
1352 1354
1352 1355
1352 1356
1352 1357
1353 4702
1353 8192
1353 1354
1353 1355
1353 8193
1353 1356
1353 1357
1353 1358
1353 1359
1353 4703
1353 4704
1354 8192
1354 1355
1354 1357
1355 8193
1355 1356
1355 1357
1355 1359
1355 9052
1355 4703
1355 4704
1356 8192
1356 8193
1356 1358
1356 1359
1356 4703
1356 4704
1357 1359
1357 9052
1358 4702
1358 1359
1358 4704
1359 4702
1359 8193
1359 9052
1359 4703
1359 4704
1360 1361
1360 1362
1360 1363
1360 1364
1360 1365
1360 1366
1360 1367
1361 2617
1361 5947
1361 2375
1361 2618
1362 1754
1362 1363
1362 7551
1362 7552
1362 7553
1362 1755
1362 1366
1362 7554
1362 7555
1363 3178
1363 7551
1363 7552
1363 3181
1363 7553
1363 1755
1363 7554
1363 8619
1363 8620
1363 2213
1363 8621
1363 7555
1364 3175
1364 3176
1364 2212
1364 3180
1364 7551
1364 7552
1364 5723
1364 7553
1364 3182
1364 1365
1364 1367
1364 3183
1364 8811
1364 2378
1364 7403
1364 7554
1364 3186
1364 3188
1364 3189
1364 2213
1364 8621
1364 7555
1365 7551
1365 2213
1366 3178
1366 7551
1366 7552
1366 3181
1366 7553
1366 1755
1366 7554
1366 8619
1366 8620
1366 2213
1366 8621
1366 7555
1367 7551
1367 2213
1368 1369
1368 1370
1368 1371
1368 1372
1368 1373
1368 1374
1368 1375
1368 1376
1368 1377
1368 1378
1369 4368
1369 6528
1369 1370
1369 1371
1369 5415
1369 1372
1369 1373
1369 7400
1369 7401
1369 1374
1369 1376
1369 1377
1369 1378
1370 4368
1370 5414
1370 1371
1370 7492
1370 5415
1370 1372
1370 1373
1370 7400
1370 7401
1370 1374
1370 1375
1370 1376
1370 1377
1370 1378
1371 5414
1371 1373
1371 1375
1372 1373
1372 1377
1373 4368
1373 5414
1373 6528
1373 5415
1373 7400
1373 7401
1373 1374
1373 1375
1373 1376
1373 1377
1373 5416
1374 4368
1374 6528
1374 7492
1374 5415
1374 7400
1374 7401
1374 1375
1374 1377
1374 1378
1374 5416
1376 5414
1377 4368
1377 6528
1377 7400
1377 7401
1377 1378
1379 1380
1379 1381
1379 1382
1380 8188
1380 8189
1380 1381
1380 6298
1380 1382
1381 8188
1381 8189
1381 8190
1381 6297
1381 6298
1381 1382
1381 9128
1382 8188
1382 8189
1382 6297
1382 6298
1382 9128
1383 1384
1383 1385
1383 1386
1383 1387
1383 1388
1384 1385
1384 1386
1384 1387
1384 1388
1385 1386
1385 1387
1385 1388
1386 1387
1387 1388
1389 1390
1389 1391
1389 1392
1389 1393
1389 1394
1389 1395
1389 1396
1389 1397
1389 1398
1389 1399
1389 1400
1390 6431
1390 7175
1390 1391
1390 1392
1390 7176
1390 1394
1390 1395
1390 6432
1390 1396
1390 1397
1390 7177
1390 1398
1390 1399
1390 1400
1390 7178
1391 6431
1391 1392
1391 1395
1391 1398
1391 7178
1392 6431
1392 7176
1392 1393
1392 1394
1392 1395
1392 6432
1392 1396
1392 7177
1392 1398
1392 1400
1393 7175
1393 1399
1394 6431
1394 7176
1394 1397
1395 6431
1395 7175
1395 7176
1395 1398
1395 7178
1396 1400
1397 6431
1397 1400
1398 6431
1398 7175
1398 7176
1398 6432
1398 7667
1398 7177
1398 1400
1398 7178
1399 7667
1399 1400
1400 7175
1400 6432
1400 7667
1400 7177
1400 7178
1401 1402
1401 1403
1401 1404
1401 1405
1402 1403
1402 1404
1402 1405
1403 1404
1403 1405
1404 1405
1405 8941
1406 1407
1406 1408
1406 1409
1406 1410
1406 1411
1406 1412
1407 1409
1407 3173
1407 3174
1407 1411
1408 3173
1408 1410
1408 1411
1409 3173
1409 3174
1409 1411
1410 1411
1410 1412
1411 3173
1411 3174
1411 1412
1412 3173
1413 1414
1413 1415
1413 1416
1414 1415
1414 1416
1415 1416
1417 1418
1417 1419
1417 1420
1417 1421
1417 1422
1417 1423
1417 1424
1417 1425
1417 1426
1417 1427
1418 1424
1418 1426
1418 1427
1419 1422
1419 1424
1420 1421
1420 1422
1420 1424
1420 1425
1420 1426
1420 1427
1421 1422
1421 1424
1421 1426
1422 1423
1422 1424
1422 1426
1422 1427
1423 1424
1424 1425
1424 1426
1424 1427
1425 1426
1426 1427
1428 1429
1429 4114
1429 7157
1430 1431
1430 1432
1430 1433
1430 1434
1430 1435
1431 3494
1431 7525
1431 1432
1431 1433
1431 1434
1431 1435
1431 4907
1432 3495
1432 7525
1432 4902
1432 3496
1432 4904
1432 3497
1432 3498
1433 1434
1433 1435
1434 1435
1436 1437
1436 1438
1436 1439
1436 1440
1436 1441
1436 1442
1436 1443
1437 4369
1437 4370
1437 1440
1437 1443
1438 8254
1438 1439
1438 8255
1438 8256
1438 4176
1438 8257
1438 5126
1438 1443
1438 8258
1439 7063
1439 8254
1439 1442
1440 6900
1440 4370
1440 1441
1440 1442
1440 1443
1441 4369
1441 4370
1441 8256
1441 1443
1442 4823
1442 4369
1442 8254
1442 8255
1442 8256
1442 9557
1442 1443
1442 4177
1442 8258
1443 5125
1443 4175
1443 8812
1443 4370
1443 9314
1443 8256
1443 9589
1443 5126
1443 8258
1444 1445
1444 1446
1444 1447
1445 2802
1445 6751
1445 8335
1445 6753
1445 1446
1445 8337
1446 6750
1446 8335
1446 6679
1446 1447
1447 6751
1447 8335
1448 1449
1448 1450
1448 1451
1448 1452
1449 4299
1449 4300
1449 4301
1449 1450
1449 4302
1449 1451
1449 4303
1449 4304
1449 4305
1449 4306
1449 4307
1450 4299
1450 4302
1450 4305
1451 4300
1451 7464
1451 1452
1451 4304
1451 4305
1451 9244
1451 4306
1451 4307
1452 4302
1452 7464
1452 4303
1452 4304
1452 9244
1453 1454
1453 1455
1453 1456
1453 1457
1453 1458
1454 1456
1454 1457
1454 1458
1455 1456
1455 1457
1455 1458
1456 1457
1456 1458
1457 1458
1459 1460
1459 1461
1459 1462
1460 1996
1460 3500
1460 1997
1460 3501
1460 3504
1460 3505
1460 6295
1460 3506
1460 1461
1460 1462
1460 3508
1461 3723
1461 3501
1461 8587
1461 3502
1461 8968
1461 8969
1461 3724
1461 3505
1461 3506
1461 3725
1461 8713
1462 1498
1462 3500
1462 3723
1462 1997
1462 3501
1462 8587
1462 3503
1462 8968
1462 8969
1462 3724
1462 3504
1462 6295
1462 3725
1462 8713
1463 1464
1463 1465
1463 1466
1463 1467
1463 1468
1463 1469
1463 1470
1463 1471
1463 1472
1463 1473
1463 1474
1463 1475
1463 1476
1463 1477
1463 1478
1463 1479
1463 1480
1463 1481
1463 1482
1463 1483
1463 1484
1463 1485
1463 1486
1463 1487
1463 1488
1463 1489
1463 1490
1463 1491
1463 1492
1463 1493
1463 1494
1464 1655
1464 3587
1464 1465
1464 3588
1464 1467
1464 1470
1464 1472
1464 1895
1464 1473
1464 3589
1464 1474
1464 3590
1464 3591
1464 3592
1464 3593
1464 3594
1464 3595
1464 1475
1464 3596
1464 1896
1464 1478
1464 1480
1464 1481
1464 1657
1464 1483
1464 1484
1464 3597
1464 1658
1464 1486
1464 1487
1464 3598
1464 1489
1464 3599
1464 1659
1464 1900
1464 1493
1464 1901
1464 3600
1464 3601
1464 1494
1465 1474
1465 1657
1465 1659
1466 1472
1466 1474
1467 1470
1467 1472
1467 1473
1467 3589
1467 1474
1467 3591
1467 1475
1467 1483
1467 3600
1468 1474
1468 1481
1468 1487
1468 1488
1469 1474
1469 1480
1469 1658
1469 1659
1470 3589
1471 1472
1471 1474
1472 3587
1472 3589
1472 3592
1472 3594
1472 3596
1472 1478
1472 1479
1472 1484
1472 1485
1472 3598
1472 1489
1472 3599
1472 1492
1472 1493
1472 1494
1473 3589
1474 1656
1474 3587
1474 3588
1474 5689
1474 3589
1474 3592
1474 3594
1474 3596
1474 1479
1474 1480
1474 1481
1474 1485
1474 1658
1474 1486
1474 1487
1474 3598
1474 1488
1474 3599
1474 1659
1474 7526
1474 1492
1474 1493
1474 3600
1475 3589
1476 8466
1476 1479
1477 1482
1478 1479
1479 3587
1479 5689
1479 3592
1479 3594
1479 3596
1479 8730
1479 8466
1479 1482
1479 1484
1479 8731
1479 3598
1479 1489
1479 1490
1479 3599
1479 1491
1479 1494
1480 1656
1480 3588
1480 3589
1480 3593
1480 3595
1480 1657
1480 1659
1480 7526
1480 3601
1481 1488
1482 8466
1483 3589
1483 1659
1486 1657
1486 1659
1487 1488
1490 7879
1491 7879
1493 3589
1495 4752
1495 1496
1495 4755
1495 8534
1495 1497
1496 4750
1496 4752
1496 8601
1496 8602
1496 4753
1496 8965
1496 4754
1496 4755
1496 9243
1496 8966
1496 8967
1499 1500
1499 1501
1499 1502
1500 1501
1500 1502
1501 1502
1503 1504
1503 1505
1503 1506
1503 1507
1504 1505
1504 1506
1506 1507
1509 1510
1509 1511
1510 4069
1510 1511
1511 4065
1511 8392
1512 1513
1512 1514
1512 1515
1512 1516
1512 1517
1513 1515
1513 2465
1513 2466
1513 1517
1514 2057
1514 2058
1514 3794
1514 2060
1514 3796
1514 3797
1514 2507
1514 4533
1515 7164
1515 1516
1515 1517
1516 2838
1516 4337
1516 7164
1516 4340
1516 1517
1517 8432
1518 1519
1518 1520
1518 1521
1518 1522
1518 1523
1519 1520
1519 2813
1519 2814
1519 1521
1519 2815
1519 1523
1520 2813
1520 2814
1520 1521
1520 1522
1521 2813
1521 2814
1521 2815
1521 1522
1521 1523
1522 2813
1522 1523
1523 2813
1523 2814
1523 2815
1524 1525
1524 1526
1524 1527
1524 1528
1524 1529
1524 1530
1525 1527
1525 1528
1526 1527
1526 1528
1526 1529
1526 1530
1527 1528
1527 1529
1527 1530
1528 1530
1529 1530
1531 1532
1531 1533
1531 1534
1531 1535
1531 1536
1531 1537
1531 1538
1531 1539
1532 1533
1532 1534
1532 1535
1532 1536
1532 1538
1533 1534
1533 1535
1533 1536
1533 1537
1533 1538
1533 1539
1534 1535
1534 1538
1535 1536
1535 1537
1535 1539
1536 1537
1536 1538
1537 1538
1538 1539
1540 1541
1540 1542
1540 1543
1540 1544
1540 1545
1540 1546
1540 1547
1540 1548
1540 1549
1540 1550
1540 1551
1541 1542
1541 1543
1541 1544
1541 1545
1541 1549
1541 2127
1542 1545
1542 1549
1542 1550
1543 1545
1543 1549
1544 1545
1545 5324
1545 1546
1545 6470
1545 1547
1545 1548
1545 1549
1545 1550
1545 1551
1546 1549
1547 5324
1547 1548
1547 1551
1548 1549
1549 1550
1549 1551
1552 1553
1552 1554
1552 1555
1552 1556
1553 5218
1553 1554
1553 1555
1554 5218
1555 5218
1555 1556
1556 5218
1557 1558
1557 1559
1557 1560
1557 1561
1558 1559
1558 1560
1558 1561
1559 1560
1559 1561
1560 1561
1562 1563
1562 1564
1562 1565
1562 1566
1563 3328
1563 3329
1563 1564
1563 3330
1563 3331
1563 3332
1563 1566
1563 3333
1564 5973
1564 3328
1564 3329
1564 3330
1564 3332
1564 1566
1564 3333
1565 5973
1565 3328
1565 9258
1565 3331
1565 5974
1565 3332
1565 5975
1566 5973
1566 3328
1566 3330
1566 3331
1566 5974
1566 3332
1566 3333
1566 5975
1567 1568
1567 1569
1567 1570
1567 1571
1567 1572
1567 1573
1568 1569
1568 2732
1568 1572
1569 1571
1569 1572
1570 1571
1570 1572
1570 1573
1571 1572
1571 1573
1572 1573
1574 1575
1574 1576
1574 1577
1574 1578
1575 1576
1575 1577
1575 1578
1576 8024
1576 6268
1576 1577
1576 1578
1577 1578
1579 1580
1579 1581
1579 1582
1579 1583
1579 1584
1579 1585
1579 1586
1579 1587
1579 1588
1580 1581
1580 1582
1580 1583
1580 2081
1580 1585
1580 1586
1580 1587
1581 4408
1581 5282
1581 5353
1581 8080
1581 8081
1581 8082
1581 1582
1581 1583
1581 8083
1581 5354
1581 8084
1581 1586
1581 1587
1581 8085
1581 5355
1581 1588
1582 1584
1583 5830
1583 5354
1583 1584
1584 5282
1584 5353
1584 8649
1584 8907
1584 8081
1584 8082
1584 9094
1584 2081
1584 8083
1584 5354
1584 8084
1584 1585
1584 1586
1584 1587
1584 1588
1585 8649
1585 8907
1585 5354
1586 5282
1587 8085
1587 1588
1588 5282
1588 8080
1588 2081
1588 5354
1588 8085
1588 5355
1590 1591
1590 1592
1590 1593
1590 1594
1590 1595
1590 1596
1590 1597
1590 1598
1590 1599
1590 1600
1591 1592
1591 1593
1591 1595
1591 1596
1591 1597
1591 1598
1591 1599
1591 1600
1592 1594
1592 1596
1592 1597
1592 1600
1593 1596
1593 1599
1593 1600
1594 1596
1594 1597
1594 1600
1595 1596
1595 1598
1595 1600
1596 1597
1596 1598
1596 1599
1596 1600
1597 1598
1597 1600
1598 1599
1598 1600
1599 1600
1601 1602
1601 1603
1601 1604
1601 1605
1601 1606
1602 1613
1602 1620
1602 1617
1602 1606
1603 1611
1603 1608
1603 1612
1603 4442
1603 1621
1603 1606
1604 1619
1604 5637
1604 1620
1604 1615
1605 1624
1606 1622
1606 1620
1606 4441
1606 1614
1606 4442
1606 1621
1606 8181
1607 1608
1607 1609
1607 1610
1608 1616
1608 1610
1608 1617
1608 1618
1609 1622
1609 1623
1609 1624
1609 1625
1610 1616
1611 1612
1611 1613
1611 1614
1611 1615
1612 1613
1612 1620
1612 4441
1612 4442
1612 4443
1613 1620
1613 4441
1613 1625
1613 4443
1613 6366
1614 1619
1614 1617
1614 1621
1614 1615
1615 8180
1615 4442
1615 1621
1616 1617
1616 1618
1617 1618
1619 1620
1619 1621
1620 4441
1621 8181
1621 4443
1622 1623
1623 1624
1625 5637
1625 6367
1625 6366
1626 1627
1626 1628
1626 1629
1626 1630
1626 1631
1627 1676
1627 1628
1627 1677
1627 1678
1627 1679
1627 2545
1627 1682
1627 1683
1627 1630
1627 1631
1627 1686
1627 2546
1628 1676
1628 1678
1628 1629
1628 4084
1628 1682
1628 1630
1628 1686
1628 1687
1629 1676
1629 1677
1629 1679
1629 4084
1629 2545
1629 1683
1629 1685
1629 1630
1629 1631
1629 1686
1630 1676
1630 1677
1630 6158
1630 1678
1630 1682
1630 1683
1630 1684
1630 1685
1630 1631
1630 1686
1630 2546
1631 1676
1631 1677
1631 1678
1631 1679
1631 1680
1631 1683
1631 1684
1631 1685
1632 1633
1632 1634
1632 1635
1632 1636
1632 1637
1633 1634
1633 1635
1633 1636
1634 8908
1634 1636
1635 8908
1635 1636
1635 1637
1635 4323
1636 1637
1636 4323
1638 1639
1638 1640
1639 3395
1639 3645
1639 5968
1639 4925
1639 7023
1639 7640
1639 4927
1639 8062
1639 4929
1639 3396
1639 8662
1639 8716
1639 8753
1639 4931
1639 8771
1639 3397
1639 5395
1639 5396
1639 3646
1639 4932
1639 9117
1639 8406
1639 8457
1639 3398
1639 9118
1639 7641
1639 8763
1639 7927
1639 9120
1639 3400
1639 7024
1639 8458
1639 3401
1639 8459
1639 5969
1639 1640
1639 3402
1639 9137
1639 6914
1639 8460
1640 5394
1640 7023
1640 4926
1640 4928
1640 8753
1640 5395
1640 3646
1640 7780
1640 9119
1640 7641
1640 3400
1640 4934
1640 5969
1640 3402
1641 1642
1641 1643
1641 1644
1641 1645
1641 1646
1641 1647
1641 1648
1641 1649
1641 1650
1641 1651
1642 1644
1642 3403
1642 1647
1642 1648
1642 1649
1642 1650
1642 1651
1643 1644
1643 7386
1643 1645
1643 7387
1643 7388
1643 1651
1643 7389
1644 1645
1644 7387
1644 1649
1645 7387
1645 1649
1645 1651
1645 7389
1646 1648
1646 1649
1646 1650
1647 1648
1647 1650
1648 7845
1648 7846
1648 3403
1648 8372
1648 8373
1648 2944
1648 1649
1648 1650
1649 3403
1649 7943
1649 1650
1649 1651
1650 7845
1650 7846
1650 3403
1650 8372
1650 8373
1650 2944
1650 1651
1652 1653
1652 1654
1653 1654
1655 1656
1655 1657
1655 1658
1655 1659
1656 1893
1656 1894
1656 1895
1656 1896
1656 1897
1656 1657
1656 1658
1656 1898
1656 1899
1656 1659
1656 1900
1656 1901
1656 1902
1657 4733
1657 3588
1657 1893
1657 1894
1657 1895
1657 6945
1657 3593
1657 3595
1657 1896
1657 1897
1657 1658
1657 1898
1657 1899
1657 1659
1657 1900
1657 7526
1657 1901
1657 1902
1657 3601
1658 3588
1658 1893
1658 1894
1658 3590
1658 3593
1658 3595
1658 1896
1658 1897
1658 1898
1658 1659
1658 7526
1658 1902
1658 3600
1658 3601
1659 4733
1659 6945
1659 3593
1659 3595
1659 1896
1659 1897
1659 1898
1659 7526
1659 1902
1659 3600
1659 3601
1660 1661
1660 1662
1660 1663
1660 1664
1660 1665
1661 4890
1661 1662
1661 1663
1661 1664
1661 1665
1662 4890
1662 1663
1662 1664
1662 1665
1663 4890
1663 1664
1663 1665
1664 4890
1664 1665
1665 4890
1666 1667
1666 1668
1666 1669
1666 1670
1666 1671
1667 3010
1667 3424
1667 3493
1667 4234
1667 4235
1667 3011
1667 4236
1667 4237
1667 4238
1667 1670
1667 1732
1667 4239
1667 1671
1667 1733
1667 4240
1667 1734
1668 3010
1668 3493
1668 3208
1668 5202
1668 1669
1668 4235
1668 3011
1668 5818
1668 4237
1668 1670
1668 3213
1668 1671
1668 5204
1668 4240
1668 3216
1669 3205
1669 3207
1669 3208
1669 5202
1669 4235
1669 5203
1669 3011
1669 5819
1669 3212
1669 3213
1669 1671
1669 5204
1669 3215
1669 3216
1669 5205
1669 5206
1670 1731
1670 3424
1670 4234
1670 4235
1670 3011
1670 4236
1670 5819
1670 4238
1670 9345
1670 1732
1670 4239
1670 1733
1670 1734
1671 1731
1671 3424
1671 4234
1671 4235
1671 3011
1671 5818
1671 4236
1671 5819
1671 4238
1671 9345
1671 1732
1671 4239
1671 1733
1671 4240
1671 1734
1672 1673
1672 1674
1672 1675
1673 4332
1673 4334
1673 7720
1673 7721
1673 4335
1673 7722
1676 1677
1676 1678
1676 1679
1676 1680
1676 1681
1676 1682
1676 1683
1676 1684
1676 1685
1676 1686
1676 1687
1678 4084
1678 2545
1678 1682
1678 1684
1678 1687
1679 6158
1679 1680
1679 1681
1679 1684
1679 1685
1680 8943
1681 6158
1681 1684
1681 1685
1682 1686
1682 2546
1684 6158
1685 6158
1686 4084
1686 2545
1686 1687
1687 8943
1688 1689
1688 1690
1688 1691
1688 1692
1688 1693
1688 1694
1688 1695
1689 1832
1689 1690
1689 1691
1689 1693
1689 1695
1690 1832
1690 1691
1690 1692
1690 1693
1690 1694
1690 1695
1691 1692
1691 1694
1691 1695
1692 1832
1692 1695
1693 1694
1693 1695
1694 1832
1694 1695
1695 1832
1696 1697
1696 1698
1696 1699
1696 1700
1696 1701
1696 1702
1697 1698
1697 1699
1697 1700
1697 2431
1697 1701
1697 1702
1698 1700
1698 1701
1698 1702
1699 2430
1699 1700
1699 2431
1699 1701
1699 1702
1700 9540
1700 9541
1700 2431
1700 9542
1700 1701
1700 1702
1700 9543
1701 2430
1701 9540
1701 9541
1701 2431
1701 9542
1701 1702
1701 9543
1702 2430
1702 9540
1702 9541
1702 9542
1703 1704
1703 1705
1703 1706
1703 1707
1703 1708
1704 4100
1704 1707
1704 1708
1705 4099
1705 4100
1705 4101
1705 1706
1705 1707
1705 4105
1706 4099
1706 5587
1706 4100
1706 4101
1706 4102
1706 4103
1706 1707
1706 4105
1706 4106
1706 1708
1707 4099
1707 4100
1707 4102
1707 4106
1707 1708
1708 4100
1709 1710
1709 1711
1709 1712
1710 2407
1710 2408
1710 2409
1710 2410
1710 2411
1710 2412
1710 2413
1710 2414
1710 2415
1710 2416
1710 2417
1710 2418
1710 2419
1710 2420
1710 2421
1710 2422
1710 2423
1710 1711
1710 2424
1710 2425
1710 2426
1711 1769
1711 2407
1711 2409
1711 2410
1711 5696
1711 6161
1711 9019
1711 5697
1711 1771
1711 2417
1711 5698
1711 6162
1711 5699
1711 5700
1711 2422
1711 1712
1711 2425
1711 2426
1712 2410
1712 2411
1712 2414
1712 5696
1712 5697
1712 5698
1712 2419
1712 5699
1712 5700
1712 2422
1712 2426
1713 1714
1713 1715
1713 1716
1713 1717
1713 1718
1713 1719
1713 1720
1714 1715
1714 1717
1714 1719
1714 1720
1714 7732
1714 7733
1715 4633
1715 1716
1715 1717
1715 1718
1715 1719
1715 1720
1715 7733
1715 8939
1716 1717
1716 1719
1716 1720
1717 4633
1717 1718
1717 1719
1717 1720
1717 7732
1717 7733
1717 8939
1719 4633
1719 1720
1719 7732
1719 7733
1719 8939
1720 4633
1720 7732
1720 7733
1720 8939
1721 1722
1721 1723
1721 1724
1721 1725
1722 1723
1722 1724
1722 2019
1722 2020
1722 1725
1722 2021
1723 2019
1723 2020
1723 1725
1723 2021
1723 2205
1724 2020
1724 1725
1724 2021
1724 2205
1725 2019
1725 2020
1725 2021
1725 5569
1725 2205
1726 1727
1726 1728
1726 1729
1726 1730
1727 1728
1727 1729
1727 6960
1727 6961
1727 6962
1727 6963
1728 1729
1728 1730
1728 6962
1729 6960
1729 6961
1729 1730
1729 6962
1729 6963
1730 6960
1730 6961
1730 6962
1730 6963
1731 1732
1731 1733
1731 1734
1732 3010
1732 3424
1732 3493
1732 4234
1732 4237
1732 4238
1732 9345
1732 1733
1732 4240
1732 1734
1733 3010
1733 3424
1733 3493
1733 4234
1733 4236
1733 4237
1733 9345
1733 4239
1733 1734
1734 4236
1734 4238
1734 9345
1734 4239
1735 1736
1735 1737
1735 1738
1735 1739
1735 1740
1735 1741
1735 1742
1735 1743
1735 1744
1735 1745
1735 1746
1735 1747
1735 1748
1735 1749
1735 1750
1735 1751
1735 1752
1735 1753
1736 1738
1736 3958
1736 3959
1737 1744
1737 1746
1737 1747
1738 4471
1738 1739
1738 1740
1738 1741
1738 1744
1738 4789
1738 1747
1738 4790
1738 3959
1738 1749
1738 1750
1739 6287
1739 1742
1739 1744
1739 3959
1739 1752
1740 1741
1740 3959
1741 1744
1741 1750
1742 1747
1742 1752
1743 3959
1744 6703
1744 1747
1744 6704
1744 1751
1748 3959
1749 6287
1749 6703
1749 3958
1749 6704
1750 3959
1751 3959
1752 3959
1753 3959
1754 1755
1755 2211
1755 3177
1755 3179
1755 3185
1755 8619
1755 8620
1755 2213
1755 3190
1755 8621
1756 1757
1756 1758
1756 1759
1756 1760
1756 1761
1757 1758
1757 4850
1757 1759
1757 4851
1757 1760
1757 1761
1758 4850
1758 5367
1758 1759
1758 4851
1758 6053
1758 1760
1758 1761
1759 5365
1759 4850
1759 4851
1759 6053
1759 1760
1759 1761
1760 4850
1760 5367
1760 4851
1760 6053
1760 1761
1761 5365
1761 5366
1761 4850
1761 5367
1761 4851
1762 1763
1762 1764
1763 6328
1763 5599
1763 6329
1763 5985
1765 1766
1765 1767
1765 1768
1766 5525
1766 1767
1766 7320
1766 3222
1766 6666
1766 6668
1767 5525
1767 7030
1767 3220
1767 5526
1767 3221
1767 7626
1767 3222
1767 6666
1767 1768
1767 7627
1767 6667
1767 6668
1768 7626
1768 3222
1768 6666
1768 7627
1768 6667
1769 1770
1769 1771
1770 3120
1770 3121
1770 3122
1770 2425
1771 2407
1771 2410
1771 2412
1772 1773
1772 1774
1772 1775
1772 1776
1772 1777
1772 1778
1773 1774
1773 1775
1773 2822
1773 1776
1773 1777
1773 1778
1774 1775
1774 1776
1774 1778
1775 2822
1775 7987
1775 1776
1775 1777
1775 1778
1775 7988
1776 2822
1776 7987
1776 1777
1776 1778
1776 7988
1777 2822
1777 7987
1777 1778
1778 7988
1779 1780
1779 1781
1779 1782
1779 1783
1779 1784
1780 1781
1780 1782
1780 1783
1780 1784
1781 2296
1781 1782
1781 2297
1781 1783
1781 8959
1781 1784
1782 2297
1782 1783
1782 8959
1782 1784
1783 2297
1783 8959
1783 1784
1784 2296
1784 2297
1784 8959
1785 1786
1785 1787
1785 1788
1785 1789
1785 1790
1785 1791
1785 1792
1785 1793
1786 2398
1786 1789
1786 2399
1786 2400
1786 2401
1786 2402
1787 2398
1787 2624
1787 2625
1788 3968
1788 3969
1788 3970
1788 3971
1788 2398
1788 3972
1788 1790
1788 1791
1788 3973
1788 3974
1788 3975
1788 1793
1788 3976
1788 2402
1789 1791
1789 2400
1789 8098
1790 1791
1791 3968
1791 3970
1791 3973
1791 1793
1792 8164
1792 2402
1793 3968
1793 6514
1794 1795
1794 1796
1795 8659
1795 8860
1795 6728
1795 6730
1795 6732
1795 6734
1795 6735
1795 6483
1795 2327
1795 8861
1796 2326
1796 6260
1796 6728
1796 6729
1796 6730
1796 6731
1796 6732
1796 6734
1796 6735
1797 1798
1797 1799
1797 1800
1798 2591
1798 2592
1798 2593
1798 2595
1798 2596
1798 2597
1798 2598
1798 6177
1798 2599
1798 7083
1798 2601
1798 1799
1798 1800
1798 2604
1798 2606
1798 2607
1798 2609
1798 7084
1798 7085
1798 2611
1798 7086
1799 2591
1799 3087
1799 2592
1799 3088
1799 7385
1799 8829
1799 8830
1799 3089
1799 8512
1799 8831
1799 2602
1799 2605
1799 9512
1799 3090
1799 2607
1799 2608
1799 2609
1799 8832
1800 3149
1800 4265
1800 2594
1800 2595
1800 2596
1800 2600
1800 2601
1800 2603
1800 2606
1800 8513
1800 7085
1800 2610
1801 1802
1801 1803
1801 1804
1801 1805
1801 1806
1802 5638
1802 5639
1802 7025
1802 5640
1802 1804
1802 7026
1802 5641
1802 1806
1802 7027
1803 5638
1803 7025
1803 1805
1803 1806
1803 7027
1804 5638
1804 7025
1804 5640
1804 7026
1804 5641
1804 7027
1805 5638
1805 7025
1805 7026
1805 1806
1805 7027
1806 5638
1806 7025
1806 5641
1806 7027
1808 1809
1808 1810
1808 1811
1808 1812
1809 6225
1809 6226
1809 6228
1809 1810
1809 1811
1809 1812
1809 6229
1809 8153
1810 6225
1810 6226
1810 6227
1810 6228
1810 1811
1810 1812
1810 6229
1811 6225
1811 6226
1811 6228
1811 1812
1811 6229
1812 6225
1812 6226
1812 6227
1812 6228
1812 8152
1812 6229
1812 8153
1812 8154
1813 1814
1813 1815
1813 1816
1813 1817
1814 5190
1814 8025
1814 8043
1814 8044
1814 8045
1814 4862
1814 4863
1814 5191
1814 4864
1814 1816
1814 8046
1814 1817
1814 8047
1814 8048
1815 4862
1815 5191
1815 8046
1815 1817
1816 8409
1816 8044
1816 8045
1816 4862
1816 4863
1816 5191
1816 8046
1816 1817
1817 5190
1817 8025
1817 8043
1817 8044
1817 4862
1817 5191
1817 8046
1817 8047
1817 8048
1818 1819
1818 1820
1818 1821
1818 1822
1818 1823
1818 1824
1818 1825
1819 3250
1819 1823
1820 1821
1820 1822
1820 1823
1820 1824
1820 1825
1821 1822
1821 1824
1821 1825
1822 3250
1822 1824
1822 1825
1823 3250
1824 1825
1826 1827
1826 1828
1826 1829
1826 1830
1826 1831
1827 1967
1827 1968
1827 1969
1827 1970
1827 1971
1828 1967
1828 1968
1828 2264
1828 1969
1828 1829
1829 2261
1829 2262
1829 6688
1829 1967
1829 1968
1829 1970
1829 1971
1829 1830
1830 2263
1830 2264
1830 1969
1831 1967
1831 1968
1831 1970
1831 1971
1833 1839
1835 1839
1836 8678
1836 8679
1837 1839
1838 1839
1839 1842
1839 1843
1844 1845
1844 1846
1844 1847
1844 1848
1845 1846
1845 1847
1845 1848
1846 1847
1847 1914
1847 1848
1849 1850
1849 1851
1849 1852
1849 1853
1849 1854
1849 1855
1849 1856
1849 1857
1849 1858
1850 1851
1850 1852
1850 1854
1850 1856
1851 6190
1851 1852
1851 1854
1851 1855
1851 1856
1851 1857
1851 1858
1852 1854
1852 1855
1852 1856
1852 1857
1853 2786
1853 6190
1853 5840
1853 2789
1853 2790
1853 8483
1853 6551
1853 2792
1854 6190
1854 1855
1854 1856
1854 1857
1854 6551
1854 1858
1855 1856
1855 1858
1856 6190
1856 1857
1856 6551
1856 1858
1859 1860
1859 1861
1859 1862
1859 1863
1860 4956
1860 4958
1860 4959
1860 4960
1860 1861
1860 1862
1860 4961
1860 4962
1860 1863
1860 4963
1860 4964
1860 4965
1860 4966
1861 4956
1861 4957
1861 4958
1861 4959
1861 4960
1861 1862
1861 4961
1861 4962
1861 1863
1861 4963
1861 4964
1861 4965
1861 4966
1862 4957
1862 4962
1862 1863
1863 4956
1863 4957
1863 4960
1863 4962
1863 4964
1863 9251
1864 1865
1864 1866
1864 1867
1864 1868
1864 1869
1864 1870
1865 1867
1865 3932
1865 1868
1865 1869
1865 1870
1866 1867
1866 1870
1867 7559
1867 1868
1867 1869
1867 1870
1867 6655
1868 1869
1868 1870
1869 1870
1870 7556
1870 6647
1870 7557
1870 7558
1870 7559
1870 6654
1870 6655
1871 1872
1871 1873
1871 1874
1871 1875
1872 2488
1872 5039
1872 2489
1872 2490
1872 5040
1872 5041
1872 5042
1872 5043
1873 7701
1873 5043
1874 2491
1874 3808
1874 8570
1875 7701
1875 5043
1876 1877
1876 1878
1876 1879
1876 1880
1876 1881
1876 1882
1876 1883
1877 4107
1877 1878
1877 1879
1877 4108
1877 1880
1877 1881
1877 1882
1877 4980
1878 4107
1878 1879
1878 1881
1878 1882
1879 1880
1879 1881
1879 1882
1879 1883
1879 4980
1880 4107
1880 1881
1880 1882
1880 4109
1881 4107
1881 1882
1881 4109
1881 1883
1881 4980
1882 1964
1882 4107
1882 4108
1882 4980
1884 1885
1884 1886
1885 2043
1885 2164
1885 5463
1885 2166
1885 2167
1885 2168
1885 2169
1885 2171
1885 2172
1885 2173
1885 2174
1885 2175
1885 2178
1885 2179
1885 2180
1885 1886
1885 5464
1885 2181
1885 2185
1885 2186
1886 4186
1886 2166
1886 2167
1886 7766
1886 8233
1886 8234
1886 8235
1886 2173
1886 8236
1886 8237
1886 2181
1886 2184
1887 1888
1887 1889
1887 1890
1887 1891
1887 1892
1888 5162
1888 5165
1888 7434
1888 1889
1888 1890
1888 1891
1888 7590
1888 7591
1888 4605
1888 7592
1888 7593
1888 7594
1888 7595
1888 7596
1888 7597
1888 7598
1889 4603
1889 5165
1889 5185
1889 5362
1889 5470
1889 5956
1889 6701
1889 7644
1889 7435
1889 4604
1889 1890
1889 1891
1889 7645
1889 5186
1889 7590
1889 7591
1889 7646
1889 7647
1889 4605
1889 7648
1889 7649
1889 5363
1889 7438
1889 7650
1889 7651
1889 7652
1889 7653
1889 7654
1889 7593
1889 7594
1889 1892
1889 5187
1889 7655
1889 7441
1889 7442
1889 7656
1889 7598
1889 7657
1889 5188
1890 5162
1890 5165
1890 6043
1890 7434
1890 7435
1890 4604
1890 1891
1890 7590
1890 8170
1890 7436
1890 7591
1890 7647
1890 7437
1890 4605
1890 7592
1890 7649
1890 7438
1890 7439
1890 8171
1890 7650
1890 7651
1890 7652
1890 7653
1890 7593
1890 7594
1890 1892
1890 7441
1890 7595
1890 7442
1890 7596
1890 7597
1890 7598
1890 7443
1891 4603
1891 5162
1891 5165
1891 6043
1891 6701
1891 7434
1891 7644
1891 7435
1891 4604
1891 8170
1891 7647
1891 4605
1891 7592
1891 7649
1891 7438
1891 8171
1891 7650
1891 7440
1891 7651
1891 7652
1891 7653
1891 7594
1891 1892
1891 7441
1891 7595
1891 7442
1891 7596
1891 7597
1892 4603
1892 5165
1892 5185
1892 5362
1892 5470
1892 5956
1892 6043
1892 6701
1892 7644
1892 4604
1892 7645
1892 5186
1892 7590
1892 8170
1892 7591
1892 7646
1892 4605
1892 7648
1892 5363
1892 8171
1892 7650
1892 7440
1892 7651
1892 7653
1892 7654
1892 7593
1892 7594
1892 5187
1892 7655
1892 7656
1892 7598
1892 7657
1892 5188
1893 4733
1893 3590
1894 4733
1894 3590
1894 3597
1895 6945
1895 3593
1895 1899
1897 3593
1898 6945
1898 3593
1898 1899
1899 3593
1900 6945
1900 3593
1901 6945
1901 3593
1902 3600
1903 7682
1903 1905
1903 4250
1904 4247
1905 4756
1905 4988
1905 4247
1905 6513
1905 5497
1905 9598
1905 8674
1905 4250
1906 1907
1906 1908
1906 1909
1906 1910
1907 1908
1907 2345
1907 2346
1907 1910
1908 1909
1908 2345
1908 2346
1908 1910
1909 2345
1909 2346
1909 1910
1910 2345
1910 2346
1911 1914
1912 6174
1912 6175
1913 6174
1913 6175
1914 6174
1914 1915
1914 6175
1915 7477
1916 1918
1916 1921
1916 1926
1918 1919
1918 1925
1919 1921
1921 1923
1921 1925
1921 1926
1922 1923
1922 1926
1923 1926
1925 1926
1927 1928
1927 1929
1927 1930
1927 1931
1928 1929
1928 1930
1928 1932
1928 1933
1929 1930
1929 6526
1929 1932
1929 1933
1929 1931
1930 6526
1930 1932
1930 1933
1930 1931
1931 1932
1932 6526
1933 6526
1934 1935
1934 1936
1934 1937
1934 1938
1935 1936
1935 1937
1935 7984
1935 1938
1936 1937
1936 7984
1936 1938
1937 7984
1937 1938
1938 7984
1939 1940
1939 1941
1939 1942
1939 1943
1939 1944
1939 1945
1940 1941
1940 2823
1940 2824
1940 2825
1940 2826
1940 1945
1940 2827
1940 2828
1941 1944
1941 1945
1941 2827
1941 2828
1942 8050
1942 3154
1942 5764
1942 3158
1942 5765
1943 2824
1943 2825
1943 6583
1943 1944
1943 1945
1943 2827
1943 2828
1944 2824
1944 2825
1944 2826
1944 2827
1944 2828
1945 2823
1945 2824
1945 2826
1945 7451
1945 2828
1946 1947
1948 1949
1948 1950
1949 1950
1951 1952
1951 1953
1951 1954
1951 1955
1952 2333
1952 1954
1952 2334
1952 1955
1952 2335
1953 1954
1953 1955
1953 2335
1953 8622
1954 2333
1954 6250
1954 2334
1954 1955
1954 2335
1954 9173
1954 8622
1955 6250
1955 2334
1955 2335
1955 9173
1955 8622
1956 1957
1956 1958
1956 1959
1956 1960
1956 1961
1956 1962
1956 1963
1957 7147
1957 7148
1957 7149
1957 1959
1957 6294
1957 7150
1957 1961
1957 7151
1957 1962
1957 1963
1958 2992
1958 4096
1958 4865
1958 6293
1958 7067
1958 7216
1958 7147
1958 5133
1958 4866
1958 7148
1958 7149
1958 1959
1958 7501
1958 7502
1958 7503
1958 6294
1958 7504
1958 7150
1958 7505
1958 2993
1958 1961
1958 7151
1958 7506
1959 2992
1959 4096
1959 4865
1959 5132
1959 6293
1959 7067
1959 7216
1959 7147
1959 5133
1959 4866
1959 7148
1959 7149
1959 7501
1959 7502
1959 7503
1959 6294
1959 7504
1959 5135
1959 7150
1959 7505
1959 1960
1959 2993
1959 1961
1959 7151
1959 7506
1959 1962
1959 5136
1959 1963
1960 6294
1960 1961
1960 1962
1961 2992
1961 4096
1961 4865
1961 5132
1961 6293
1961 7067
1961 7216
1961 7147
1961 5133
1961 4866
1961 5134
1961 7148
1961 7149
1961 7501
1961 7502
1961 7503
1961 6294
1961 7504
1961 5135
1961 7150
1961 7505
1961 2993
1961 7151
1961 7506
1961 5136
1962 5132
1962 7147
1962 5133
1962 5134
1962 7148
1962 7149
1962 7503
1962 6294
1962 7150
1962 7151
1962 5136
1963 7503
1963 6294
1964 1965
1964 1966
1965 2298
1965 2299
1965 2300
1965 1966
1966 2300
1967 2264
1968 2264
1969 2261
1969 6686
1969 6687
1969 2263
1969 1970
1969 1971
1970 2262
1970 2264
1971 2264
1972 1973
1972 1974
1972 1975
1972 1976
1972 1977
1972 1978
1972 1979
1973 1974
1973 1975
1973 1976
1973 1977
1973 1978
1973 1979
1974 1975
1974 1977
1974 1979
1975 1979
1976 1977
1976 1979
1977 1978
1977 1979
1978 1979
1980 6015
1980 6525
1980 1981
1980 1983
1981 6525
1981 1983
1982 6015
1982 6525
1982 6016
1982 1983
1983 6525
1984 1985
1984 1986
1984 1987
1984 1988
1984 1989
1984 1990
1984 1991
1984 1992
1985 1986
1985 1990
1985 1991
1985 1992
1986 6527
1986 1988
1986 1989
1986 1990
1986 6798
1986 1991
1986 1992
1987 1989
1987 6798
1987 1991
1987 1992
1988 6902
1988 7046
1988 6905
1988 7047
1988 1989
1988 7048
1988 1990
1988 1992
1988 6908
1988 6909
1989 1991
1989 1992
1990 6798
1990 1991
1990 1992
1991 6798
1991 1992
1992 6798
1993 1994
1993 1995
1994 1995
1996 1997
1997 3505
1997 6295
1997 3506
1997 3508
1998 1999
1998 2000
1998 2001
1998 2002
1998 2003
1998 2004
1998 2005
1999 2000
1999 2002
1999 2003
1999 2005
2000 2001
2000 2002
2000 2003
2000 2004
2000 2005
2001 2003
2001 2004
2001 2005
2002 2003
2002 2004
2002 2005
2003 2004
2003 2005
2004 2005
2006 2007
2006 2008
2006 2009
2006 2010
2006 2011
2006 2012
2006 2013
2007 2009
2007 2011
2007 4989
2007 4990
2007 4991
2007 4992
2007 4993
2008 6950
2008 2009
2008 2010
2009 6343
2009 2010
2009 2011
2009 4990
2009 4991
2009 2012
2009 4992
2010 6343
2010 2011
2010 4989
2010 4991
2010 2012
2010 4992
2010 2013
2011 6343
2011 2012
2012 4989
2014 2015
2014 2016
2014 2017
2014 4209
2014 2018
2015 2018
2017 2018
2019 2020
2019 2021
2019 2205
2020 2021
2020 5569
2020 2205
2022 2023
2022 2024
2022 2025
2022 2026
2022 2027
2023 3020
2023 3021
2023 2035
2023 3022
2023 3023
2023 3024
2023 3025
2023 3026
2023 2036
2023 3027
2023 3028
2023 3029
2023 2027
2023 3030
2024 2034
2024 2382
2024 2743
2024 2829
2024 5286
2024 3020
2024 6768
2024 3021
2024 7822
2024 7823
2024 7824
2024 2035
2024 3022
2024 3023
2024 2025
2024 3024
2024 3026
2024 7825
2024 7826
2024 7827
2024 2036
2024 2026
2024 7828
2024 3027
2024 3028
2024 3029
2024 7829
2024 7830
2024 2027
2024 3030
2025 2034
2025 2382
2025 2743
2025 5286
2025 3020
2025 3021
2025 7822
2025 7824
2025 2035
2025 3022
2025 3023
2025 3024
2025 3026
2025 7825
2025 7826
2025 7827
2025 2036
2025 2026
2025 7828
2025 3027
2025 3028
2025 8921
2025 2027
2026 2743
2026 2829
2026 3020
2026 6768
2026 3021
2026 7822
2026 7823
2026 7824
2026 2035
2026 3022
2026 3023
2026 3024
2026 3025
2026 3026
2026 7825
2026 7826
2026 8920
2026 7827
2026 2036
2026 7828
2026 3027
2026 3028
2026 3029
2026 8921
2026 7829
2026 7830
2026 2027
2026 3030
2027 2034
2027 2382
2027 2743
2027 2829
2027 5286
2027 5429
2027 5568
2027 3020
2027 6768
2027 3021
2027 7270
2027 8479
2027 7823
2027 7824
2027 2035
2027 3022
2027 3023
2027 3024
2027 3025
2027 3026
2027 7827
2027 8864
2027 2036
2027 3027
2027 3028
2027 3029
2027 8921
2027 7829
2027 7830
2027 3030
2028 2029
2028 2030
2028 2031
2028 2032
2028 2033
2029 2030
2029 6956
2029 6957
2029 2940
2029 6958
2029 2032
2029 6959
2030 2501
2030 2939
2030 6220
2030 6614
2030 7603
2030 6956
2030 6673
2030 7604
2030 7605
2030 7606
2030 6957
2030 2031
2030 7607
2030 7608
2030 7609
2030 3001
2030 2940
2030 2941
2030 6674
2030 7610
2030 7611
2030 3003
2030 6958
2030 7612
2030 2033
2030 6959
2031 2501
2031 2502
2031 4634
2031 7603
2031 6956
2031 6673
2031 4635
2031 7604
2031 6957
2031 7607
2031 2940
2031 4636
2031 2941
2031 2504
2031 6674
2031 7610
2031 7611
2031 6958
2031 2032
2031 3004
2031 4637
2031 4638
2031 4639
2031 7612
2031 4640
2031 6959
2031 3008
2031 3009
2032 2938
2032 2994
2032 2939
2032 2997
2032 6220
2032 6614
2032 7603
2032 6956
2032 7605
2032 7606
2032 6957
2032 7607
2032 7608
2032 7609
2032 3001
2032 2941
2032 3003
2032 6958
2032 3005
2032 7612
2032 2033
2032 6959
2033 2501
2033 2939
2033 6220
2033 6614
2033 4634
2033 7603
2033 6956
2033 6673
2033 7604
2033 7605
2033 6957
2033 7607
2033 7608
2033 2940
2033 4636
2033 2941
2033 2504
2033 6674
2033 7610
2033 7611
2033 6958
2033 3004
2033 4637
2033 4639
2033 7612
2033 4640
2033 6959
2033 3008
2033 3009
2034 2035
2034 2036
2035 2382
2035 2829
2035 5286
2035 5429
2035 6768
2035 7822
2035 7823
2035 3025
2035 7825
2035 7826
2035 8920
2035 8864
2035 7828
2035 8921
2035 7830
2036 2382
2036 2829
2036 5286
2036 5429
2036 7822
2036 7823
2036 7825
2036 7826
2036 8864
2036 7828
2036 8921
2036 7830
2037 2038
2037 2039
2037 2040
2037 2041
2037 2042
2038 2039
2038 2843
2038 2844
2038 2040
2038 2845
2038 2041
2038 2042
2038 2846
2039 2843
2039 2040
2039 2041
2040 2843
2040 2844
2040 2845
2040 2041
2040 2042
2040 2846
2041 2843
2041 2844
2041 2845
2041 2042
2041 2846
2042 2843
2044 2045
2044 2046
2044 2047
2044 2048
2044 2049
2045 3567
2045 5918
2045 6780
2045 2047
2045 6781
2045 5929
2045 6782
2045 6783
2046 3567
2046 5918
2046 6780
2046 2047
2046 9354
2046 2048
2046 6781
2046 5929
2046 6782
2046 6783
2047 3567
2047 5918
2047 7476
2047 6994
2047 8016
2047 5921
2047 6780
2047 6996
2047 9354
2047 2048
2047 5929
2047 6782
2047 2049
2047 6783
2048 7476
2048 6994
2048 8016
2048 9161
2048 6996
2048 6781
2048 2049
2048 6783
2049 7476
2049 9161
2049 9354
2049 6783
2050 2051
2050 2052
2050 2053
2051 2052
2051 2053
2051 3269
2051 3270
2051 3271
2052 4557
2052 2053
2053 8872
2053 9013
2054 2055
2054 2056
2055 3706
2055 6444
2055 6447
2055 2056
2056 5466
2056 3705
2056 3706
2057 2058
2057 2059
2057 2060
2058 3793
2058 3794
2058 2059
2058 3795
2058 2060
2058 3796
2058 3797
2058 3798
2058 3799
2058 3800
2058 2507
2058 3801
2058 3802
2058 3803
2058 3804
2058 3805
2058 3806
2059 2444
2059 2464
2059 4199
2059 2839
2059 4574
2059 3794
2059 4338
2059 4339
2059 4522
2059 4341
2059 4342
2059 6563
2059 3797
2059 4343
2059 6564
2059 3798
2059 4528
2059 6565
2059 6566
2059 3800
2059 4200
2059 2507
2059 4532
2059 4344
2059 3803
2059 3805
2059 3806
2060 3793
2060 3794
2060 3796
2060 3797
2060 3800
2060 2507
2060 3801
2060 3802
2061 2062
2062 3394
2062 4701
2062 5325
2062 5326
2062 5327
2062 5328
2062 5329
2062 5330
2062 5331
2062 3426
2062 5332
2062 5333
2062 5334
2062 5335
2062 5336
2062 5337
2063 2064
2063 2065
2063 2066
2063 2067
2064 2447
2064 2448
2064 2449
2064 2066
2064 2067
2065 7703
2065 2066
2065 2067
2066 2067
2067 2447
2067 6770
2067 2448
2068 2069
2068 2070
2068 2071
2068 2072
2068 2073
2069 2709
2069 5889
2069 5890
2069 5891
2069 5892
2069 2071
2069 5893
2069 5894
2069 5895
2069 5896
2069 5304
2069 5897
2069 2072
2069 2073
2069 5898
2069 5899
2069 5900
2070 3813
2070 3861
2070 6392
2070 6493
2070 5890
2070 5300
2070 6928
2070 5892
2070 2071
2070 5893
2070 6929
2070 6930
2070 6931
2070 6932
2070 6933
2070 5304
2070 6934
2070 6935
2070 2072
2070 5306
2070 6936
2070 5308
2070 6937
2070 2073
2070 6938
2070 6939
2070 6940
2071 2709
2071 5386
2071 6493
2071 5889
2071 5890
2071 6927
2071 5891
2071 5892
2071 5893
2071 6930
2071 5894
2071 6932
2071 5896
2071 5304
2071 7423
2071 2072
2071 7424
2071 7425
2071 6936
2071 7426
2071 2073
2071 5898
2071 6938
2071 7427
2071 6939
2071 5899
2071 5900
2071 7428
2072 3813
2072 2709
2072 5386
2072 6392
2072 6493
2072 5890
2072 6927
2072 6928
2072 5891
2072 5892
2072 3814
2072 5893
2072 2710
2072 5302
2072 8642
2072 6929
2072 6930
2072 5894
2072 6931
2072 6932
2072 5895
2072 9035
2072 5896
2072 6933
2072 9036
2072 5304
2072 6934
2072 6935
2072 9037
2072 7423
2072 5897
2072 7424
2072 5307
2072 7425
2072 6936
2072 7426
2072 6937
2072 5310
2072 2073
2072 9038
2072 7804
2072 5898
2072 6938
2072 7427
2072 6939
2072 5899
2072 7428
2073 3813
2073 5386
2073 6392
2073 5889
2073 5890
2073 6927
2073 6928
2073 5891
2073 5892
2073 3814
2073 5893
2073 8642
2073 6929
2073 5894
2073 6931
2073 5895
2073 9035
2073 5896
2073 6933
2073 9036
2073 5304
2073 6934
2073 6935
2073 9037
2073 7423
2073 5897
2073 7424
2073 7425
2073 7426
2073 6937
2073 9038
2073 7804
2073 5898
2073 7427
2073 5899
2073 5900
2073 7428
2074 2075
2074 2076
2074 2077
2074 2078
2074 2079
2074 2080
2075 2076
2075 2077
2075 2078
2075 2079
2075 2080
2076 2077
2076 2078
2076 2079
2076 2080
2077 2078
2077 2079
2077 2080
2078 2079
2078 2080
2079 2080
2081 8080
2081 8082
2081 9094
2081 5354
2081 8085
2081 5355
2082 2083
2082 2084
2082 2085
2083 8259
2083 8260
2083 2084
2083 2085
2083 8261
2084 8259
2084 8260
2084 2085
2084 8261
2085 8259
2085 8260
2085 8261
2086 2087
2086 2088
2086 2089
2086 2090
2086 2091
2086 2092
2087 3306
2087 2089
2087 2090
2087 2091
2087 2092
2088 2089
2088 2090
2088 2091
2089 3306
2089 2090
2089 2091
2090 3306
2090 2091
2091 3306
2091 2092
2092 3306
2093 2094
2093 2095
2094 5255
2094 5256
2094 5257
2094 5258
2094 5259
2094 5260
2094 5261
2094 5262
2095 6821
2095 5259
2095 8165
2096 2097
2096 2098
2096 2099
2096 2100
2096 2101
2097 9029
2097 2098
2097 2099
2097 2100
2097 2101
2098 9029
2098 2099
2098 2100
2098 2101
2099 9029
2099 2100
2099 2101
2100 9029
2100 2101
2101 9029
2101 9030
2103 2104
2103 2105
2103 2106
2103 2107
2103 2108
2103 2109
2103 2110
2104 2105
2104 2106
2104 2107
2104 2109
2104 2110
2104 3307
2105 2106
2105 2108
2105 3307
2106 9168
2106 2108
2106 3722
2106 2110
2107 2108
2107 2109
2107 3722
2107 2110
2107 3307
2108 2110
2109 2110
2109 3307
2110 3722
2110 3307
2111 2112
2111 2113
2111 2114
2111 2115
2111 2116
2111 2117
2111 2118
2111 2119
2111 2120
2111 2121
2111 2122
2111 2123
2111 2124
2111 2125
2111 2126
2112 2310
2112 4665
2112 2113
2112 2114
2112 4666
2112 2115
2112 4667
2112 4668
2112 4669
2112 2116
2112 2117
2112 2118
2112 2119
2112 4670
2112 2120
2112 2121
2112 4671
2112 2311
2112 2122
2112 2123
2112 4672
2112 4673
2112 2312
2112 4674
2112 2125
2112 4675
2112 4676
2112 2126
2112 4677
2113 4669
2113 2125
2113 4676
2114 4669
2114 2118
2114 2124
2115 4669
2115 2118
2115 2124
2116 4669
2116 2118
2116 2124
2117 4669
2117 2125
2117 4676
2118 4665
2118 4666
2118 4669
2118 4674
2118 2125
2118 4676
2119 4669
2119 2125
2119 4676
2120 4668
2120 4669
2120 4671
2120 4672
2120 4673
2121 4669
2121 2126
2122 4669
2122 2125
2122 4676
2123 4669
2123 2125
2123 4676
2124 2310
2124 4665
2124 4666
2124 4668
2124 4669
2124 4670
2124 4671
2124 4672
2124 4673
2124 4674
2124 2125
2124 4675
2124 4676
2124 4677
2125 4669
2125 4670
2125 2126
2126 2310
2126 4665
2126 4666
2126 4667
2126 4668
2126 4669
2126 4670
2126 4671
2126 4672
2126 4673
2126 4674
2126 4675
2126 4676
2126 4677
2127 6470
2128 2129
2128 2130
2128 2131
2128 2132
2128 2133
2129 2130
2129 2132
2129 2133
2130 2132
2130 2133
2131 2133
2132 2133
2134 2135
2134 2136
2134 2137
2134 2138
2134 2139
2135 2336
2135 2337
2135 2338
2135 2136
2135 2339
2135 2137
2135 2340
2135 2341
2135 2342
2135 2343
2135 2344
2135 2138
2135 2139
2136 2337
2136 2338
2136 2339
2136 2137
2136 2340
2136 2341
2136 2342
2136 2343
2136 2344
2136 2138
2136 2139
2136 9051
2137 2336
2137 2339
2137 2344
2137 2138
2137 2139
2138 2336
2138 2337
2138 2338
2138 2339
2138 2340
2138 2341
2138 2342
2138 2343
2138 2344
2138 2139
2138 9051
2139 2336
2139 2337
2139 2338
2139 2339
2139 2340
2139 2341
2139 2343
2139 2344
2139 9051
2140 2141
2141 6835
2141 6836
2141 6837
2141 6838
2141 6839
2141 6840
2141 6841
2142 2143
2142 2144
2142 2145
2142 2146
2142 2147
2143 2278
2143 2144
2143 2279
2143 2280
2143 2281
2143 2282
2143 2145
2143 2283
2143 2146
2143 2284
2143 2285
2143 2286
2143 2287
2143 2288
2143 2147
2143 2289
2143 2290
2143 2291
2143 2292
2144 2278
2144 2279
2144 2280
2144 2281
2144 2282
2144 2145
2144 2283
2144 2146
2144 2284
2144 2285
2144 2286
2144 2287
2144 2147
2144 2290
2144 2291
2144 2292
2145 2279
2145 2280
2145 2281
2145 2282
2145 2283
2145 2146
2145 2284
2145 2285
2145 2286
2145 2287
2145 2288
2145 2147
2145 2289
2145 2290
2145 2291
2146 2278
2146 2280
2146 2281
2146 2282
2146 2283
2146 2284
2146 2285
2146 2286
2146 2287
2146 2288
2146 2147
2146 2289
2146 2290
2146 2291
2146 2292
2147 2279
2147 2286
2147 2290
2148 2149
2148 2150
2148 2151
2148 2152
2148 2153
2148 2154
2148 2155
2149 2152
2149 8581
2149 2153
2149 2154
2150 4852
2150 5570
2150 4854
2150 2152
2150 8581
2150 2153
2150 2154
2150 8687
2150 8688
2150 4858
2151 2152
2151 2153
2151 2154
2151 8687
2151 2155
2152 4854
2152 8581
2152 2153
2152 2154
2152 8687
2152 8688
2152 2155
2152 4858
2153 4854
2153 8213
2153 8581
2153 2154
2153 8214
2153 8688
2153 2155
2153 4858
2154 4853
2154 4854
2154 8581
2154 8687
2154 4855
2154 8688
2154 2155
2154 4856
2154 4857
2154 4858
2155 8581
2155 8687
2155 8688
2158 2159
2158 2160
2158 2161
2159 6758
2159 6759
2159 6761
2159 5435
2159 6762
2159 6763
2160 6465
2160 8963
2160 9174
2160 8064
2160 6467
2160 5435
2160 2161
2160 6763
2161 6759
2161 6466
2161 8963
2161 9174
2161 8064
2161 6468
2161 5435
2161 6763
2167 2184
2167 2185
2168 2184
2168 2185
2169 2184
2171 2184
2171 2185
2172 2184
2172 2185
2173 2184
2173 2185
2174 2184
2175 2184
2178 2184
2178 2185
2181 2184
2181 2185
2184 4186
2184 5463
2184 7766
2184 8233
2184 8234
2184 5464
2184 8237
2184 2186
2185 4186
2185 5463
2185 7766
2185 8233
2185 8234
2185 8235
2185 8236
2185 5464
2185 8237
2185 2186
2187 2188
2187 2189
2187 2190
2187 2191
2187 2192
2188 3777
2188 2191
2188 3778
2188 3779
2188 2192
2189 8063
2189 6807
2189 3780
2190 6806
2190 8063
2190 8511
2190 6807
2190 3780
2191 3778
2191 3779
2192 3779
2193 2194
2193 2195
2193 2196
2193 2197
2193 2198
2194 2195
2194 2196
2194 2197
2194 2198
2195 2196
2195 2197
2195 2198
2196 2197
2196 2198
2197 2198
2199 2200
2199 2201
2199 2202
2199 2203
2199 2204
2200 2201
2200 2202
2200 2203
2200 2204
2201 2203
2201 2204
2202 2203
2202 2204
2203 2204
2206 2207
2207 7995
2207 8600
2207 7996
2207 7997
2207 7998
2207 7999
2207 8000
2207 8001
2207 9004
2209 3074
2209 3075
2209 3076
2209 3077
2209 2210
2210 3077
2211 2212
2211 2213
2212 3175
2212 3176
2212 3180
2212 7236
2212 3183
2212 3184
2212 2378
2212 7403
2212 3186
2212 5724
2214 2215
2214 2216
2214 2217
2214 2218
2214 2219
2214 2220
2214 2221
2215 2217
2215 2219
2215 2221
2215 2294
2216 2293
2216 6452
2216 2218
2216 2221
2216 2294
2217 2220
2217 2221
2217 2294
2218 2294
2220 2221
2220 2294
2221 2294
2222 2223
2222 2224
2222 2225
2222 2226
2222 2227
2222 2228
2222 2229
2222 2230
2222 2231
2222 2232
2222 2233
2223 2224
2223 2325
2223 2225
2223 2230
2224 2325
2224 2225
2224 2226
2224 2228
2224 2229
2224 2230
2224 3123
2224 2231
2224 2232
2224 3124
2224 2233
2225 2325
2225 2226
2225 2227
2225 2228
2225 2230
2225 3123
2226 2227
2226 2228
2226 2229
2226 2230
2226 2231
2226 2232
2226 3124
2227 2228
2227 2230
2228 2230
2228 2231
2228 2232
2228 3124
2229 2230
2229 2231
2230 2325
2230 3123
2230 2231
2230 2232
2230 3124
2230 2233
2231 3124
2233 2325
2233 3123
2234 2235
2234 2236
2234 2237
2234 2238
2234 2239
2234 2240
2234 2241
2235 2236
2235 2239
2235 2240
2235 2241
2236 2237
2236 2240
2236 2241
2237 6747
2237 2238
2237 2240
2238 6746
2238 6747
2238 6748
2238 6749
2238 9545
2238 2240
2239 6747
2239 2240
2239 2241
2240 2241
2241 6747
2241 6748
2242 2243
2242 2244
2242 2245
2242 2246
2242 2247
2242 2248
2242 2249
2242 2250
2242 2251
2242 2252
2242 2253
2242 2254
2243 4886
2243 2245
2243 2248
2243 2251
2244 2248
2244 2251
2245 4884
2245 4886
2245 2246
2245 2247
2245 2248
2245 7639
2245 2249
2245 2250
2245 2251
2245 2252
2245 2253
2245 4887
2245 4888
2245 7632
2245 2254
2246 2248
2246 2253
2247 2248
2247 2251
2248 4884
2248 5498
2248 4885
2248 4886
2248 7241
2248 7639
2248 2249
2248 2250
2248 2251
2248 2252
2248 2253
2248 4887
2248 4888
2248 4889
2248 7242
2248 7632
2249 4886
2249 2251
2250 2251
2251 4884
2251 4885
2251 4886
2251 7241
2251 7639
2251 2252
2251 2253
2251 4887
2251 4888
2251 4889
2251 7632
2251 2254
2253 4884
2253 4885
2253 4886
2253 7639
2253 4888
2253 4889
2253 7632
2253 2254
2255 2256
2255 2257
2255 2258
2255 2259
2255 2260
2256 4092
2256 4146
2256 4093
2256 4147
2256 4148
2256 4149
2256 4150
2256 2258
2256 2259
2256 2260
2256 4151
2256 4152
2256 4153
2257 4092
2257 4093
2257 4149
2257 2258
2257 2259
2258 4092
2258 4093
2258 4148
2258 5368
2258 4149
2258 4150
2258 2259
2258 2260
2259 4092
2259 4093
2259 4147
2259 5368
2259 4149
2259 4150
2259 2260
2260 4146
2260 4093
2260 4147
2260 4148
2260 5368
2260 4149
2260 4151
2260 4152
2260 4153
2261 2262
2261 2263
2261 2264
2262 6686
2262 6687
2262 2263
2262 2264
2263 2264
2264 6688
2266 2267
2266 2268
2266 2269
2267 2478
2267 2479
2267 2268
2267 2480
2267 2269
2267 2481
2268 2478
2268 2479
2268 2847
2268 2480
2268 2269
2268 2481
2269 2478
2269 2479
2269 2847
2269 2481
2270 2271
2270 2272
2271 4987
2271 2272
2271 7513
2271 7514
2271 3910
2271 7515
2271 7516
2271 7517
2271 7518
2271 4716
2271 7519
2271 7520
2271 7521
2271 7522
2272 3668
2272 4717
2272 4987
2272 5943
2272 7258
2272 7537
2272 7583
2272 3946
2272 2757
2272 7584
2272 7585
2272 7513
2272 2548
2272 2549
2272 7517
2272 2655
2272 4716
2272 3949
2272 7586
2272 5945
2272 2656
2272 5401
2272 7521
2272 5477
2272 7522
2273 2274
2273 2275
2273 2276
2273 2277
2274 8666
2274 8990
2274 2275
2274 2276
2274 2277
2275 8666
2275 8990
2275 2276
2275 2277
2276 8666
2276 8990
2276 2277
2277 8666
2277 8990
2278 2283
2278 2287
2279 2287
2280 2283
2281 2287
2282 2287
2283 2284
2283 2285
2283 2287
2283 2288
2283 2289
2283 2292
2287 2288
2287 2289
2287 2292
2290 2291
2293 2294
2294 6452
2295 2297
2298 2299
2298 2300
2299 2300
2299 6256
2300 6256
2301 2302
2301 2303
2301 2304
2301 2305
2301 2306
2301 2307
2301 2308
2301 2309
2302 2303
2302 4985
2302 4986
2302 2304
2302 2305
2302 2307
2302 2308
2302 2309
2303 2304
2303 2306
2303 2307
2303 2308
2304 4985
2304 4986
2304 2307
2304 2308
2304 2309
2305 2306
2305 8919
2305 2308
2305 2309
2306 2308
2306 2309
2307 4985
2307 4986
2307 2308
2308 4985
2308 4986
2308 8919
2308 2309
2309 4985
2309 4986
2310 2311
2310 2312
2311 4669
2311 4670
2312 4669
2312 4670
2313 2314
2313 2315
2313 2316
2313 2317
2313 2318
2313 2319
2313 2320
2313 2321
2313 2322
2313 2323
2313 2324
2314 2315
2314 2316
2314 2317
2314 2319
2314 2321
2314 2322
2314 2324
2315 2317
2315 2318
2315 2319
2315 2320
2315 2321
2315 2322
2315 2323
2315 2324
2316 2317
2316 2319
2316 2321
2317 2319
2317 2320
2317 2321
2317 2322
2317 2323
2317 2324
2318 2319
2318 2320
2318 2322
2318 7967
2319 2320
2319 2321
2319 2323
2319 7967
2319 2324
2320 2322
2320 7967
2320 2324
2321 2324
2322 7967
2325 3123
2326 2327
2327 6260
2327 8659
2327 8860
2327 6729
2327 6730
2327 8660
2327 6731
2327 6732
2327 6734
2327 6735
2327 6483
2327 8861
2328 2329
2328 2330
2328 2331
2328 2332
2329 2330
2329 2331
2329 2332
2330 2331
2330 2332
2331 2332
2333 6250
2333 2334
2333 2335
2334 6250
2334 9173
2334 8622
2335 6250
2335 9173
2336 2341
2337 2341
2338 2341
2339 2340
2339 2341
2339 2342
2339 9051
2341 2342
2341 2343
2341 9051
2345 9098
2345 2346
2347 2348
2347 2349
2347 2350
2347 2351
2347 2352
2348 4606
2348 4607
2348 5240
2348 4775
2348 2349
2348 2350
2348 4777
2348 2352
2348 4778
2349 4606
2349 4607
2349 5240
2349 5546
2349 5751
2349 5760
2349 2350
2349 4776
2349 3865
2349 5547
2349 5548
2349 5761
2349 3872
2349 3873
2349 2352
2349 8371
2349 4778
2350 4607
2350 5240
2350 5751
2350 4776
2350 3866
2350 2351
2350 5548
2350 5761
2350 3868
2350 3871
2350 3873
2350 2352
2351 3862
2351 3863
2351 5952
2351 3864
2351 5953
2351 3866
2351 3867
2351 3868
2351 3869
2351 3871
2351 3873
2351 3874
2351 3875
2352 4606
2352 4607
2352 5751
2352 4775
2352 5760
2352 4776
2352 5548
2352 4777
2352 8371
2352 4778
2353 2354
2353 2355
2353 2356
2353 2357
2353 2358
2353 2359
2353 2360
2353 2361
2354 2355
2354 2356
2354 2358
2354 2359
2354 2360
2354 2361
2355 2358
2355 2361
2356 2359
2356 2360
2356 2361
2357 2358
2357 2359
2357 2360
2357 2361
2358 2359
2358 2360
2358 2361
2359 2360
2359 2361
2360 2361
2362 2363
2362 2364
2362 2365
2362 2366
2362 2367
2363 2364
2363 2365
2363 6223
2363 2366
2363 6224
2363 2367
2364 2365
2364 2366
2364 9235
2364 6224
2364 2367
2365 6223
2365 2366
2365 9235
2365 6224
2365 2367
2366 6224
2366 2367
2367 6223
2367 9235
2367 6224
2368 2369
2368 2370
2368 2371
2368 2372
2368 2373
2369 8657
2369 3954
2369 3955
2369 5140
2369 5141
2369 8658
2369 2372
2369 3527
2370 3952
2370 3953
2370 3405
2370 4348
2370 2372
2370 3956
2370 2373
2370 5837
2371 8825
2371 3954
2371 5140
2371 5141
2371 5142
2371 2372
2371 3527
2371 8826
2372 3952
2372 3404
2372 4345
2372 3953
2372 4346
2372 5141
2372 4347
2372 4348
2372 3527
2372 3956
2372 8826
2373 3404
2373 4345
2373 3953
2373 3405
2373 8825
2373 8826
2373 5837
2374 2375
2374 2376
2374 2377
2374 2378
2374 2379
2374 2380
2374 2381
2375 5946
2375 7225
2375 5947
2375 7302
2375 6633
2375 2618
2375 7285
2375 2379
2375 6634
2375 5950
2375 2381
2375 5951
2375 7286
2376 2379
2376 5724
2376 7286
2377 5946
2377 7225
2377 7285
2377 2379
2377 5949
2377 5950
2377 2381
2377 5951
2377 7286
2378 7225
2378 3176
2378 3180
2378 3182
2378 7236
2378 3183
2378 8811
2378 3184
2378 5724
2378 3188
2378 3189
2379 7225
2379 2380
2379 5950
2379 2381
2379 7286
2380 7285
2380 5724
2380 7286
2381 5722
2381 7225
2381 5947
2381 7302
2381 5948
2381 5950
2381 5951
2383 2384
2383 2385
2383 2386
2383 2387
2384 4036
2384 4037
2384 4038
2384 2385
2384 2386
2384 4039
2384 4040
2384 4041
2384 2387
2385 4036
2385 4037
2385 2386
2385 4039
2385 4040
2385 2387
2386 4036
2386 4037
2386 4038
2386 4040
2386 4041
2386 2387
2387 4036
2387 4037
2388 2389
2388 2390
2388 2391
2388 2392
2388 2393
2388 2394
2388 2395
2388 2396
2388 2397
2389 2390
2389 2391
2389 2392
2389 2393
2389 2394
2389 2395
2389 2396
2389 2397
2390 2391
2390 2393
2390 2394
2390 2396
2390 2397
2391 2392
2391 2393
2391 2394
2391 2395
2391 2397
2392 2393
2392 2394
2392 2397
2393 2395
2394 2396
2394 2397
2395 2396
2396 2397
2398 3968
2398 2400
2399 5094
2399 3969
2399 3970
2399 3971
2399 8717
2400 2401
2402 5462
2403 2404
2403 2405
2403 2406
2404 5266
2404 2405
2404 5267
2405 5265
2405 3972
2405 8164
2405 5266
2405 5267
2406 5265
2406 2624
2406 5267
2407 2410
2407 2417
2408 2413
2408 2416
2408 2417
2408 2418
2409 2424
2410 2411
2410 2414
2410 6161
2410 2419
2410 6162
2410 2422
2410 2425
2411 2414
2412 2413
2412 2416
2412 2418
2412 2421
2412 6990
2412 2425
2413 2415
2413 2416
2413 2420
2413 6990
2413 2423
2413 2424
2414 2419
2415 2416
2415 2418
2415 6990
2416 2418
2416 2420
2416 2421
2416 6990
2416 2423
2416 2424
2417 6161
2417 6162
2417 2423
2417 2424
2418 6161
2418 6162
2418 2420
2418 2421
2418 6990
2418 2423
2418 9034
2418 2424
2418 2425
2420 6990
2421 6990
2421 3122
2422 5697
2424 6161
2424 6162
2424 6990
2425 3120
2427 2428
2427 2429
2429 4202
2429 7489
2429 7491
2430 2431
2431 9540
2431 9541
2431 9542
2432 2433
2432 2434
2432 2435
2432 2436
2432 2437
2432 2438
2432 2439
2432 2440
2432 2441
2432 2442
2432 2443
2433 2434
2433 2435
2433 4294
2433 4295
2433 4296
2433 2437
2433 4297
2433 2439
2433 2440
2433 2441
2433 4298
2433 2442
2433 2443
2434 2435
2434 6552
2434 4295
2434 4296
2434 2437
2434 4297
2434 2439
2434 2440
2434 2441
2434 4298
2434 2442
2434 2443
2435 4295
2435 4297
2436 8557
2436 4374
2436 4297
2436 2443
2437 4294
2437 6552
2437 4295
2437 4296
2437 9566
2437 2442
2438 8557
2438 4297
2438 2443
2439 4294
2439 6552
2439 4295
2439 6236
2439 4296
2439 9386
2439 9566
2439 2442
2440 4295
2440 2442
2441 4375
2442 4294
2442 6552
2442 4295
2442 4296
2442 4297
2442 4298
2443 4372
2443 4294
2443 8557
2443 4375
2444 2445
2444 2446
2445 4097
2445 5992
2445 7087
2445 6563
2445 7165
2445 8591
2445 4527
2445 8592
2445 2467
2445 7689
2445 5995
2445 9226
2445 8593
2445 7690
2445 8595
2445 7691
2445 7905
2446 7687
2446 6563
2446 2465
2446 7689
2447 6769
2447 6770
2447 6771
2447 2448
2447 2449
2447 6772
2447 6773
2447 6774
2448 7582
2448 6770
2448 6771
2448 9340
2448 8971
2448 7703
2448 2449
2448 8972
2448 6772
2448 8973
2448 6773
2448 6774
2449 7582
2449 6769
2449 6770
2449 6771
2449 9340
2449 6772
2449 6773
2449 6774
2450 2451
2451 2782
2451 3568
2451 3569
2451 3570
2451 3571
2451 3572
2451 3573
2451 3574
2452 2453
2452 2454
2452 2455
2452 2456
2452 2457
2453 4496
2453 4497
2453 4498
2453 4499
2453 5782
2453 2454
2453 4500
2453 4501
2453 4502
2453 5783
2453 4503
2453 4504
2453 5785
2453 2455
2453 2456
2453 4505
2453 2457
2454 4496
2454 4498
2454 5785
2454 2456
2455 4496
2455 5783
2456 4496
2456 4498
2456 2457
2457 4496
2457 4498
2457 5782
2457 5783
2458 2459
2458 2460
2458 2461
2458 2462
2458 2463
2459 2460
2459 5151
2459 5152
2459 4004
2459 5153
2459 5154
2459 5155
2460 7194
2460 7982
2460 8245
2460 8246
2460 8548
2460 8682
2460 8683
2460 2461
2460 5284
2460 5151
2460 8684
2460 8685
2460 8247
2460 8248
2460 5152
2460 5285
2460 2462
2460 8604
2460 8686
2460 5153
2460 5154
2460 5155
2460 2463
2461 5151
2461 8685
2461 2462
2461 5155
2461 2463
2462 7194
2462 8737
2462 5151
2462 8684
2462 8248
2462 4004
2462 8604
2462 8686
2462 5155
2462 2463
2463 5283
2463 7194
2463 7982
2463 8246
2463 8548
2463 8683
2463 5151
2463 8685
2463 8604
2463 8686
2463 5155
2464 2465
2464 2466
2464 2467
2465 4574
2465 6563
2465 2466
2466 4574
2466 3800
2467 4097
2467 4574
2467 7087
2467 7687
2467 7165
2467 8591
2467 4527
2467 8592
2467 9226
2467 8594
2467 7690
2467 7691
2467 4098
2468 2469
2468 2470
2468 2471
2468 2472
2469 2474
2469 2470
2469 2471
2469 2472
2470 2474
2470 2471
2470 2472
2470 2475
2471 2473
2471 2474
2471 2472
2471 7415
2471 2475
2472 2474
2472 2475
2473 2474
2473 2475
2474 7415
2474 2475
2475 7415
2476 2477
2477 9343
2477 9344
2477 6777
2477 6635
2477 7172
2478 2847
2478 2480
2479 2847
2479 2480
2482 2483
2482 2484
2482 2485
2482 2486
2482 2487
2483 6459
2483 2484
2483 6503
2483 2485
2483 6504
2483 6505
2483 6506
2483 6507
2483 6508
2483 4463
2483 6509
2483 6460
2483 6510
2483 4465
2483 6511
2483 6512
2484 6459
2484 6503
2484 6221
2484 2485
2484 6504
2484 6505
2484 6506
2484 7191
2484 6507
2484 6508
2484 4463
2484 2486
2484 6509
2484 7192
2484 7193
2484 6460
2484 6510
2484 4465
2484 6511
2485 6459
2485 6503
2485 6504
2485 6505
2485 6506
2485 7191
2485 6507
2485 6508
2485 4463
2485 6509
2485 7192
2485 6460
2485 4465
2485 6511
2486 4462
2486 8318
2486 4463
2486 9063
2486 9064
2486 4464
2486 2487
2486 4465
2486 8319
2486 6512
2487 4462
2487 6505
2487 4463
2487 9063
2487 9064
2487 7193
2487 4464
2487 4465
2487 8319
2488 2489
2488 2490
2488 2491
2489 8989
2489 8857
2489 8570
2489 5043
2490 8839
2490 5042
2490 8570
2490 5043
2491 4221
2491 3232
2491 4222
2491 6138
2491 3237
2491 3808
2491 6140
2491 3810
2492 2493
2492 2494
2492 2495
2492 2496
2493 2767
2493 3853
2493 6891
2493 2795
2493 7252
2493 2768
2493 8514
2493 8515
2493 2494
2493 8516
2493 2495
2493 2496
2493 8517
2493 8518
2493 8519
2493 8520
2493 8521
2493 8522
2493 7045
2493 2796
2493 2769
2494 3853
2494 4185
2494 6891
2494 2795
2494 7252
2494 2768
2494 8514
2494 8515
2494 8516
2494 8897
2494 2495
2494 2496
2494 7044
2494 8517
2494 8518
2494 8519
2494 6892
2494 8520
2494 8521
2494 8522
2494 2769
2495 2768
2495 8519
2495 2769
2496 2767
2496 3853
2496 6891
2496 2795
2496 7252
2496 8514
2496 8516
2496 8518
2496 8519
2496 6892
2496 8520
2496 2769
2497 2498
2497 2499
2498 2926
2498 9215
2498 9284
2498 2927
2498 9285
2498 9286
2498 2928
2499 2926
2499 9215
2499 7414
2499 9284
2499 2927
2499 9285
2499 9286
2499 2928
2500 2501
2500 2502
2500 2503
2500 2504
2501 2938
2501 2994
2501 2995
2501 2939
2501 2996
2501 2997
2501 2998
2501 2502
2501 2999
2501 3000
2501 3001
2501 3002
2501 3003
2501 3004
2501 3005
2501 3006
2501 3007
2501 3008
2501 3009
2502 2995
2502 2939
2502 2996
2502 5766
2502 5767
2502 5768
2502 6673
2502 5769
2502 5770
2502 2999
2502 2503
2502 5771
2502 3000
2502 2941
2502 6674
2502 5772
2502 5773
2502 5774
2502 3006
2502 4639
2502 4640
2502 5775
2503 2995
2503 2996
2503 2998
2503 5767
2503 4635
2503 5770
2503 2999
2503 5771
2503 3000
2503 2504
2503 3002
2503 5774
2503 3006
2503 4638
2503 3007
2504 2995
2504 2939
2504 2996
2504 2998
2504 5766
2504 5768
2504 6673
2504 5769
2504 2999
2504 3000
2504 3001
2504 2941
2504 6674
2504 3002
2504 5772
2504 3003
2504 5773
2504 3006
2504 3007
2504 5775
2505 2506
2505 2507
2506 3795
2506 4525
2506 4526
2506 3799
2506 3800
2506 6754
2506 6755
2506 4533
2506 3804
2507 3835
2507 4199
2507 2839
2507 3793
2507 4338
2507 4364
2507 4339
2507 4522
2507 4341
2507 4342
2507 4343
2507 3798
2507 4528
2507 4366
2507 4200
2507 4367
2507 3802
2507 4532
2507 4344
2507 3803
2507 3805
2507 3806
2508 2509
2508 2510
2508 2511
2508 2512
2509 4229
2509 4230
2509 2510
2509 4231
2509 2511
2510 4229
2510 4230
2510 4231
2510 2511
2510 2512
2511 4229
2511 4230
2513 2514
2513 2515
2513 2516
2513 2517
2513 2518
2513 2519
2513 2520
2513 2521
2514 2517
2514 2518
2514 3622
2514 2521
2515 5503
2515 4747
2515 5504
2515 5505
2515 5506
2515 4749
2515 5507
2515 5508
2515 2521
2516 2517
2516 6253
2516 2518
2516 3622
2516 2520
2516 2521
2517 6252
2517 6253
2517 6844
2517 2518
2517 2519
2517 3622
2517 5507
2517 6847
2517 2520
2518 6252
2518 6843
2518 2519
2518 3622
2518 6846
2518 2520
2519 3622
2519 2521
2520 6252
2520 6253
2520 3622
2521 4747
2521 4714
2521 4748
2521 5506
2521 4749
2521 5714
2521 6847
2522 2523
2522 2524
2522 2525
2522 2526
2522 2527
2522 2528
2522 2529
2522 2530
2522 2531
2522 2532
2522 2533
2522 2534
2522 2535
2522 2536
2522 2537
2522 2538
2523 4622
2523 8484
2523 2531
2523 8485
2523 2532
2523 2533
2523 2534
2523 7311
2523 7312
2523 2535
2523 2537
2523 2538
2524 2526
2524 2527
2524 2528
2524 2530
2524 2535
2525 4623
2525 2530
2525 2531
2526 4622
2526 2531
2526 2532
2526 7311
2527 4623
2527 2531
2527 7311
2528 4623
2528 2531
2528 7311
2529 2531
2529 7311
2530 8484
2530 2531
2530 7310
2530 8485
2530 7311
2530 2536
2530 2538
2531 4622
2531 4623
2531 4624
2531 2533
2531 7311
2531 7312
2531 2537
2532 4624
2532 7311
2533 4623
2533 8484
2533 8485
2533 7311
2533 7312
2534 2538
2535 2538
2536 4623
2536 4624
2536 7310
2536 2538
2537 4623
2537 7311
2538 4624
2538 7310
2538 7311
2539 2540
2539 2541
2539 2542
2539 2543
2539 2544
2540 5137
2540 5867
2540 5868
2540 5869
2540 5138
2540 2541
2540 2542
2540 5139
2540 2543
2541 5137
2541 5867
2541 5868
2541 9176
2541 5869
2541 5138
2541 2542
2541 5139
2541 2543
2541 2544
2542 5867
2542 5868
2542 5869
2542 5138
2542 9347
2542 5139
2542 2543
2542 2544
2543 5137
2543 5867
2543 5868
2543 9176
2543 5869
2543 5138
2543 9347
2543 5139
2543 2544
2544 9176
2544 5869
2544 5138
2545 8943
2545 9346
2546 9619
2547 2548
2547 2549
2548 4715
2548 5397
2548 8709
2548 9372
2548 2549
2548 5400
2548 9373
2549 5397
2549 5944
2549 5400
2549 5401
2549 9373
2550 2551
2550 2552
2550 2553
2550 2554
2550 2555
2551 2552
2551 2553
2551 2554
2551 2555
2552 2553
2552 2554
2552 2555
2553 2554
2553 2555
2554 2555
2556 2557
2556 2558
2556 2559
2556 2560
2556 2561
2556 2562
2556 2563
2556 2564
2556 2565
2556 2566
2556 2567
2556 2568
2556 2569
2556 2570
2557 2830
2557 2831
2557 2562
2557 2564
2557 2566
2557 2568
2558 2831
2558 6550
2558 2570
2559 2831
2559 6550
2559 2570
2560 2831
2560 6550
2560 2570
2561 2831
2561 6550
2561 7351
2561 2570
2562 4705
2563 2830
2563 2566
2564 4406
2564 2570
2565 2831
2565 6550
2565 2570
2566 2830
2566 2734
2566 5471
2566 2831
2566 2567
2566 2569
2566 4707
2566 2570
2567 2830
2568 2830
2568 4705
2569 2830
2570 2830
2570 5615
2570 2831
2570 6663
2570 5616
2570 4705
2570 5617
2570 4706
2570 4707
2571 2572
2571 2573
2571 2574
2571 2575
2571 2576
2571 2577
2572 2573
2572 7051
2572 7052
2572 2574
2572 2577
2573 6153
2573 7051
2573 6154
2573 8690
2573 7052
2573 6155
2573 2574
2573 2575
2573 8691
2573 8692
2573 8693
2573 2576
2573 2577
2574 6153
2574 6154
2574 6155
2574 2575
2574 8691
2574 8692
2574 8693
2574 2577
2575 6153
2575 6154
2575 8690
2575 7052
2575 6155
2575 8691
2575 8692
2575 8693
2575 2576
2575 2577
2576 7051
2576 8690
2576 2577
2577 7051
2577 6154
2577 8690
2577 7052
2577 6155
2577 8691
2577 8692
2578 2579
2578 2580
2578 2581
2578 2582
2578 2583
2579 5229
2579 5230
2579 2580
2579 5231
2579 2581
2579 2582
2579 2583
2580 5901
2580 6993
2580 5229
2580 5230
2580 7224
2580 7642
2580 5231
2580 2581
2580 2582
2580 2583
2580 8121
2581 5901
2581 6993
2581 5229
2581 7224
2581 7642
2581 5231
2581 2582
2581 2583
2581 8121
2582 5901
2582 6993
2582 5229
2582 5230
2582 7224
2582 7642
2582 2583
2583 5901
2583 6993
2583 5229
2583 5230
2583 7224
2583 7642
2583 5231
2583 8121
2584 2585
2585 4631
2585 4632
2585 5954
2585 5556
2585 7050
2585 7384
2585 7560
2585 5557
2585 5558
2585 5559
2585 5560
2585 8803
2585 7561
2585 7562
2585 5561
2585 5562
2585 5563
2585 5564
2585 9523
2585 5955
2585 5565
2585 5566
2585 5567
2585 9524
2586 2587
2586 2588
2586 2589
2586 2590
2587 3675
2587 3676
2587 3677
2587 3678
2587 3679
2587 3680
2587 2588
2587 3681
2587 3682
2587 3683
2587 3684
2587 3685
2587 3686
2587 2590
2587 3687
2587 3688
2587 3689
2587 3690
2588 6263
2588 3679
2588 2589
2588 2590
2589 6263
2589 2590
2590 6263
2590 3677
2590 3678
2590 3680
2590 7902
2590 3681
2590 3682
2590 3683
2590 3687
2590 6765
2591 2592
2591 2593
2591 2594
2591 2595
2591 2596
2591 2597
2591 2598
2591 2599
2591 2600
2591 2601
2591 2602
2591 2603
2591 2604
2591 2605
2591 2606
2591 2607
2591 2608
2591 2609
2591 2610
2591 2611
2592 2594
2592 2602
2593 6177
2593 2611
2594 7385
2594 2596
2594 8512
2594 2602
2594 2606
2594 8513
2594 3090
2594 2607
2594 2608
2594 2609
2595 3149
2595 2600
2595 2603
2596 7385
2596 8512
2596 2602
2596 3090
2596 2610
2597 2604
2597 2607
2597 2609
2598 2602
2598 2607
2598 2609
2599 2604
2599 2607
2599 2609
2600 3149
2600 3150
2600 2601
2600 2611
2601 3149
2602 5659
2602 8830
2602 9302
2602 2606
2602 2607
2602 2609
2602 2610
2603 3149
2603 2611
2604 3149
2604 4265
2604 3150
2604 6177
2604 7083
2604 2608
2604 7085
2604 2611
2604 7086
2605 8829
2605 8830
2605 8831
2605 8832
2607 5659
2607 7385
2607 9302
2607 8512
2607 8831
2607 9512
2607 3090
2607 2610
2607 8832
2608 3087
2608 2609
2609 3087
2609 5659
2609 3088
2609 7385
2609 3089
2609 9302
2609 8512
2609 3090
2611 3149
2611 4265
2611 3150
2611 6177
2611 7083
2611 7086
2612 2613
2612 2614
2612 2615
2612 2616
2613 2615
2613 5512
2613 2616
2614 2615
2614 5512
2615 2616
2616 7471
2616 5512
2617 2618
2618 4456
2618 5722
2618 6634
2619 2620
2619 2621
2619 2622
2619 2623
2620 7805
2620 7806
2620 2621
2620 2622
2620 7807
2620 7808
2620 7809
2620 7810
2620 7811
2620 7812
2620 2623
2621 7805
2621 7806
2621 8599
2621 2622
2621 7807
2621 7808
2621 7809
2621 7810
2621 7811
2621 7812
2621 2623
2622 7805
2622 8599
2622 7807
2622 7810
2622 7811
2622 7812
2622 2623
2623 7805
2623 7806
2623 8599
2623 7807
2623 7808
2623 7809
2623 7810
2623 7811
2623 7812
2624 5462
2625 5094
2625 3970
2625 5095
2626 2627
2626 2628
2626 2629
2626 2630
2626 2631
2626 2632
2626 2633
2626 2634
2626 2635
2626 2636
2627 2628
2627 2629
2627 2630
2627 2636
2628 2629
2628 2630
2628 2633
2628 2636
2629 2630
2629 8096
2629 2633
2629 8097
2629 2634
2629 2635
2629 2636
2630 7076
2630 8096
2630 8227
2630 8097
2630 9100
2630 2634
2630 2636
2631 7075
2631 2632
2631 2633
2631 5409
2631 6804
2631 8884
2631 6805
2632 2633
2632 7189
2632 2635
2633 8227
2633 9100
2633 2636
2634 8096
2634 2636
2635 8884
2636 8096
2636 8097
2636 9100
2637 2638
2637 2639
2637 2640
2638 2639
2638 2640
2638 8767
2639 2640
2640 8765
2640 8766
2641 2642
2641 2643
2642 5521
2642 5523
2642 5524
2642 2643
2643 5521
2643 5522
2643 5523
2643 8052
2643 5524
2644 2645
2644 2646
2644 2647
2644 2648
2644 2649
2645 2747
2645 4708
2645 2646
2645 2647
2645 2771
2645 2648
2645 2649
2645 2748
2645 4709
2646 2770
2646 4708
2646 2647
2646 2771
2646 2772
2646 2648
2646 2649
2646 8351
2646 2773
2646 4709
2647 2772
2647 2648
2647 2649
2647 8351
2647 2748
2647 4709
2648 2771
2648 2649
2648 2773
2648 4709
2649 2747
2649 2770
2649 4708
2649 2772
2649 2748
2650 2651
2650 2652
2651 4188
2651 6393
2651 6395
2651 4189
2651 4190
2651 6955
2651 4192
2651 2652
2651 6397
2651 8976
2652 4188
2652 6393
2652 6394
2652 6395
2652 4192
2652 4193
2653 2654
2653 2655
2653 2656
2654 6998
2654 6999
2654 7000
2654 7001
2654 7002
2654 7003
2655 5943
2655 7258
2655 7583
2655 3945
2655 6998
2655 6999
2655 7585
2655 7586
2655 5945
2655 2656
2656 5943
2656 7258
2656 3945
2656 6998
2656 6999
2656 7585
2656 5945
2657 2658
2657 2659
2657 2660
2658 2659
2658 2660
2658 5981
2659 2660
2659 5981
2662 2663
2662 2664
2662 2665
2662 2666
2662 2667
2662 2668
2662 2669
2663 2664
2663 2665
2663 2667
2663 3499
2664 2665
2664 2667
2664 2669
2664 3499
2665 3530
2665 2666
2665 2667
2665 2668
2666 3530
2666 3532
2666 2668
2666 2669
2667 2669
2668 3530
2668 3531
2668 3532
2668 2669
2668 3533
2669 3530
2669 3532
2670 2671
2670 2672
2670 2673
2670 2674
2670 2675
2670 2676
2670 2677
2670 2678
2670 2679
2670 2680
2671 2966
2671 2967
2671 2673
2671 2970
2671 2674
2671 5888
2671 2679
2671 2975
2671 2976
2671 2977
2672 2969
2672 2675
2672 2676
2672 2677
2672 8112
2672 2678
2673 2966
2673 8486
2673 2674
2673 5888
2673 2680
2673 2977
2674 2966
2674 2967
2674 2970
2674 5888
2674 2679
2674 2975
2674 2976
2674 2977
2675 2677
2675 2678
2675 2978
2676 2677
2676 2678
2676 2978
2677 8486
2677 8112
2677 2678
2678 2966
2678 2968
2678 2969
2678 2972
2678 2973
2678 8112
2678 2974
2678 2978
2679 2966
2679 8486
2679 2975
2679 2680
2679 2977
2680 8486
2680 2975
2681 3833
2681 4363
2681 3828
2681 3607
2681 4319
2681 5589
2681 4320
2681 3611
2681 3629
2681 3630
2681 3830
2681 3831
2681 3832
2681 5590
2681 4321
2682 2683
2683 4803
2683 8509
2683 5474
2684 2685
2684 2686
2684 2687
2684 2688
2684 2689
2685 3354
2685 3355
2685 3356
2685 3357
2685 3358
2685 3359
2685 3360
2685 3361
2685 3362
2685 2686
2685 2687
2685 3363
2685 3364
2685 3365
2685 3366
2685 3367
2685 3368
2685 3369
2685 3370
2685 3371
2685 3372
2685 2689
2685 3373
2685 3374
2686 3631
2686 4207
2686 3354
2686 3355
2686 7308
2686 3357
2686 3359
2686 3360
2686 3361
2686 8790
2686 4556
2686 2687
2686 8791
2686 3363
2686 3364
2686 8792
2686 8793
2686 3365
2686 3367
2686 3368
2686 2688
2686 3370
2686 3371
2686 9088
2686 8795
2686 8796
2686 8797
2686 3633
2686 3372
2686 9089
2686 2689
2686 4208
2686 8798
2686 8799
2687 3355
2687 3356
2687 3358
2687 3359
2687 3361
2687 3362
2687 3364
2687 3366
2687 3368
2687 3369
2687 8795
2687 8796
2687 8797
2687 3372
2687 2689
2687 3373
2687 8799
2687 3374
2688 3361
2688 3363
2688 8793
2688 3370
2688 3371
2688 3633
2688 2689
2688 4208
2689 3631
2689 4207
2689 4555
2689 3354
2689 7308
2689 3356
2689 3358
2689 3361
2689 3362
2689 8790
2689 4556
2689 3632
2689 8791
2689 3363
2689 3366
2689 8794
2689 3369
2689 3370
2689 3371
2689 9088
2689 8795
2689 8796
2689 8797
2689 9089
2689 3373
2689 8798
2689 8799
2689 3374
2690 2691
2690 2692
2690 2693
2691 4345
2691 4346
2691 4347
2691 4348
2691 4349
2691 2692
2693 4345
2694 2695
2694 2696
2694 2697
2694 2698
2695 8355
2695 2696
2695 8356
2695 2697
2695 2698
2696 8355
2696 8356
2696 2697
2696 2698
2697 8356
2697 2698
2698 8355
2698 8356
2700 2701
2700 2702
2700 2703
2700 2704
2701 4680
2701 8946
2701 8948
2701 4681
2701 2702
2701 2704
2702 4680
2702 8946
2702 8947
2702 8949
2702 4681
2702 2703
2702 2704
2703 8948
2703 2704
2704 4680
2704 8946
2704 8947
2704 8948
2704 8949
2704 4681
2705 2706
2705 2707
2706 4430
2706 7092
2706 8173
2706 8412
2706 5752
2706 7093
2706 8413
2706 8923
2706 2707
2706 7094
2706 5753
2707 7092
2707 8412
2707 7093
2707 8413
2707 8923
2707 8924
2707 7094
2708 2709
2708 2710
2708 2711
2708 2712
2708 2713
2709 3861
2709 5300
2709 5301
2709 2710
2709 5302
2709 5303
2709 2711
2709 5304
2709 5305
2709 5306
2709 5307
2709 2712
2709 5308
2709 5309
2709 5310
2709 5311
2709 5312
2709 5313
2710 3814
2710 5301
2710 5302
2710 5303
2710 2711
2710 8017
2710 5305
2710 5307
2710 2712
2710 5309
2710 2713
2710 5311
2710 5312
2710 5313
2710 8008
2711 5301
2711 5303
2711 5305
2711 2712
2711 5309
2711 5310
2711 2713
2711 8008
2711 6940
2712 5301
2712 5309
2712 2713
2712 8008
2713 5301
2713 5309
2714 2715
2714 2716
2714 2717
2714 2718
2714 2719
2714 2720
2714 2721
2714 2722
2715 3167
2715 2716
2715 3169
2715 2717
2715 2718
2715 2719
2715 6745
2715 3171
2715 2720
2715 2722
2716 2718
2716 2719
2716 3171
2716 3172
2716 2722
2717 3166
2717 3167
2717 3168
2717 3169
2717 2719
2717 9535
2717 6745
2717 3171
2718 2719
2718 2720
2718 2722
2720 2721
2720 2722
2721 2722
2723 2724
2723 2725
2723 2726
2723 2727
2723 2728
2724 8101
2724 8102
2724 8103
2724 8104
2725 8100
2725 8101
2725 8102
2725 8103
2725 8104
2726 7121
2726 2727
2726 2728
2727 7119
2727 7121
2727 2728
2728 7121
2729 2730
2729 2731
2731 4277
2731 5249
2733 4389
2734 4406
2734 5471
2734 2735
2734 4407
2734 2831
2734 2736
2735 4406
2736 4406
2737 2738
2737 2739
2737 2740
2737 2741
2737 2742
2738 4981
2738 5044
2738 5421
2738 6458
2738 6690
2738 6702
2738 7057
2738 5422
2738 4982
2738 7173
2738 7202
2738 8262
2738 5045
2738 8374
2738 7174
2738 7126
2738 7127
2738 8375
2738 7128
2738 4983
2738 2739
2738 8376
2738 2740
2738 8377
2738 8378
2738 8379
2738 2741
2738 7131
2738 7132
2738 8380
2738 7133
2738 7142
2738 8381
2738 7134
2738 7135
2738 2742
2738 8382
2738 4984
2738 8383
2738 7136
2738 7203
2738 7138
2739 5044
2739 6458
2739 6702
2739 8111
2739 6111
2739 8262
2739 5045
2739 7016
2739 8478
2739 8375
2739 8376
2739 7141
2739 8378
2739 9289
2739 2741
2739 8380
2739 8381
2739 9290
2739 6517
2739 6518
2739 2742
2739 8383
2739 9291
2739 7203
2740 4981
2740 5044
2740 5421
2740 6458
2740 6690
2740 6702
2740 7057
2740 5422
2740 4982
2740 7202
2740 8111
2740 6111
2740 8262
2740 5045
2740 8374
2740 7174
2740 7125
2740 7016
2740 7126
2740 7127
2740 8375
2740 7128
2740 4983
2740 8376
2740 7129
2740 7141
2740 8378
2740 9289
2740 8379
2740 2741
2740 7130
2740 7132
2740 8380
2740 7133
2740 7142
2740 8381
2740 9290
2740 7134
2740 7135
2740 2742
2740 8382
2740 4984
2740 8383
2740 9291
2740 7137
2741 5044
2741 6702
2741 6516
2741 7173
2741 7202
2741 8111
2741 6111
2741 8262
2741 5045
2741 8374
2741 7174
2741 7125
2741 7016
2741 8478
2741 7129
2741 8377
2741 8378
2741 9289
2741 8379
2741 7130
2741 7131
2741 8380
2741 8381
2741 9290
2741 6517
2741 6518
2741 2742
2741 8382
2741 7136
2741 9291
2741 7137
2741 7203
2741 7138
2742 6458
2742 7173
2742 7202
2742 8111
2742 6111
2742 5045
2742 8374
2742 7174
2742 7125
2742 8478
2742 8375
2742 8376
2742 7129
2742 7141
2742 8377
2742 9289
2742 8379
2742 7130
2742 7131
2742 8380
2742 8381
2742 9290
2742 8382
2742 8383
2742 7136
2742 9291
2742 7137
2742 7203
2742 7138
2744 2745
2745 2746
2747 2748
2748 8351
2748 2773
2749 2750
2749 2751
2749 2752
2749 2753
2749 2754
2750 2751
2750 2752
2751 4786
2751 8863
2751 6276
2751 2752
2751 2753
2752 6273
2752 4080
2752 4081
2752 2753
2752 2754
2753 6277
2754 4786
2754 8863
2755 2756
2755 2757
2755 2758
2755 2759
2756 3668
2756 3945
2756 3946
2756 2757
2756 2758
2756 3947
2756 3948
2756 3949
2756 2759
2756 3950
2756 3951
2757 7537
2757 5398
2757 8891
2757 7584
2757 3947
2757 9210
2757 9211
2757 9212
2757 2759
2757 3950
2757 5402
2758 8891
2758 3947
2758 3948
2758 9211
2758 9212
2758 2759
2758 3950
2759 3668
2759 7537
2759 8891
2759 3946
2759 7584
2759 3947
2759 9210
2759 9211
2759 3949
2759 9212
2759 3951
2760 2761
2760 2762
2760 2763
2760 2764
2760 2765
2760 2766
2761 2762
2761 4425
2761 4426
2761 2764
2761 2765
2761 2766
2761 4427
2761 4428
2762 2763
2762 2764
2762 2766
2762 4427
2762 4428
2763 2765
2763 4427
2763 4428
2764 2765
2764 2766
2765 2766
2766 4425
2766 4426
2766 4427
2767 2768
2767 2769
2768 4185
2768 2795
2768 8897
2768 7044
2768 8519
2768 7045
2769 6891
2769 7252
2769 8514
2769 8519
2769 8521
2770 2771
2770 2772
2770 2773
2771 2773
2772 4709
2773 8351
2774 2775
2774 2776
2774 2777
2774 2778
2774 2779
2775 7916
2775 7917
2775 2777
2775 7918
2775 2778
2775 2779
2776 2780
2776 2781
2776 2777
2776 2778
2777 2780
2777 7013
2777 7014
2777 7917
2777 2781
2777 7918
2777 2778
2777 2779
2777 7015
2778 2780
2778 7916
2778 7917
2778 2781
2778 7918
2779 2780
2779 7014
2779 5425
2779 7916
2779 7917
2779 2781
2779 7918
2780 2781
2781 7013
2781 9496
2781 7918
2781 7015
2783 2784
2786 2787
2786 2788
2786 2789
2786 2790
2786 2791
2786 2792
2786 2793
2787 5840
2787 5841
2787 2789
2787 2790
2787 5842
2787 5843
2788 5840
2788 5841
2788 2789
2788 2790
2788 5842
2788 2791
2788 2793
2789 5840
2789 5842
2789 8483
2789 2791
2789 2792
2789 2793
2790 5840
2790 5841
2790 5842
2790 2791
2790 2793
2790 5843
2791 6590
2791 5842
2791 5843
2792 5840
2792 8483
2792 2793
2793 6190
2793 5840
2793 8483
2793 6551
2794 2795
2794 2796
2795 7044
2795 7045
2796 6891
2796 7252
2796 6892
2797 2798
2797 2799
2798 4725
2798 6969
2798 6970
2798 2799
2799 6969
2800 2801
2800 2802
2800 2803
2800 2804
2800 2805
2801 2802
2801 2804
2801 2820
2801 2821
2802 4371
2802 6678
2802 6679
2802 2804
2802 2805
2803 4371
2803 2805
2803 2821
2805 2821
2806 2807
2806 2808
2806 2809
2806 2810
2806 2811
2806 2812
2807 4954
2807 4955
2807 7765
2807 7237
2807 7801
2807 2808
2807 7095
2807 7096
2807 6314
2807 2809
2807 2810
2807 7098
2807 7099
2807 2811
2807 7802
2807 7102
2807 2812
2808 4955
2808 7765
2808 8363
2808 7801
2808 8980
2808 7095
2808 6314
2808 2809
2808 2810
2808 7098
2808 7100
2808 2811
2808 7101
2808 7802
2808 9249
2808 2812
2809 4954
2809 4955
2809 8363
2809 7801
2809 8980
2809 7095
2809 7096
2809 6314
2809 7098
2809 7099
2809 2811
2809 7802
2809 7102
2809 9249
2810 4954
2810 4955
2810 6313
2810 7765
2810 8363
2810 7801
2810 8980
2810 8065
2810 7096
2810 6314
2810 6315
2810 7097
2810 7098
2810 6317
2810 7099
2810 2811
2810 7802
2810 7102
2810 9249
2811 4954
2811 4955
2811 8363
2811 7096
2811 7099
2811 7102
2811 9249
2812 4955
2812 6314
2813 2814
2813 2815
2816 2817
2816 2818
2816 2819
2817 2819
2818 2819
2818 8446
2819 3911
2820 4371
2822 8263
2822 7987
2822 8264
2823 2826
2823 7451
2823 2827
2824 7928
2824 4423
2824 7451
2825 7928
2825 7451
2826 7928
2826 4423
2826 7451
2826 9462
2827 7928
2827 7451
2827 9462
2830 2831
2830 4705
2830 4706
2830 4707
2831 6550
2831 6662
2831 6663
2831 7351
2831 4705
2831 4706
2838 2839
2839 4199
2839 4337
2839 4338
2839 4339
2839 4340
2839 4341
2839 4342
2839 4343
2839 3798
2839 4200
2839 4344
2839 3803
2839 3805
2840 2841
2840 2842
2841 2842
2843 2844
2843 2845
2843 2846
2848 2849
2848 2850
2848 2851
2848 2852
2848 2853
2848 2854
2848 2855
2848 2856
2848 2857
2848 2858
2849 2850
2849 2852
2849 4475
2850 2852
2850 2854
2850 2855
2850 2856
2850 2857
2850 4475
2851 2852
2851 2853
2851 2856
2851 2857
2852 2853
2852 2854
2852 2855
2852 8552
2852 2856
2852 2857
2852 2858
2852 4475
2853 2856
2853 2857
2853 2858
2854 8552
2854 2856
2854 2857
2854 4475
2855 2856
2855 4475
2856 8552
2856 2857
2856 2858
2856 4475
2856 9414
2857 8552
2857 2858
2857 4475
2859 2860
2859 2861
2859 2862
2859 2863
2859 2864
2859 2865
2859 2866
2859 2867
2859 2868
2860 2861
2860 2863
2860 2864
2860 2865
2860 2867
2860 2868
2860 2869
2860 2870
2860 2871
2861 2872
2861 2873
2861 2874
2861 2864
2861 2865
2861 2866
2861 2867
2861 2868
2861 2869
2861 2870
2862 2863
2862 2864
2862 2865
2862 5440
2862 5441
2862 5442
2862 5443
2863 2864
2863 2865
2863 2869
2863 5440
2863 8398
2863 5442
2863 8399
2863 5443
2864 2865
2864 8398
2864 8399
2866 2867
2866 2869
2866 2875
2866 2877
2866 8398
2867 7643
2867 2869
2867 2870
2867 2871
2868 2869
2868 2870
2869 2872
2869 2873
2869 2874
2869 2875
2869 2870
2870 2872
2870 2873
2870 7643
2870 2874
2870 2871
2871 7643
2871 5441
2871 2876
2872 2873
2872 2874
2872 2875
2872 2876
2873 2874
2873 2875
2873 2877
2874 2875
2874 8398
2875 2877
2875 8398
2876 7643
2876 2877
2877 5441
2878 8160
2878 8559
2878 8672
2878 8932
2878 9121
2878 9241
2878 9299
2878 9301
2878 4690
2878 9323
2878 8161
2878 9324
2878 8933
2878 4691
2878 9325
2878 9326
2878 9327
2878 9328
2878 9329
2878 8162
2878 8560
2878 9330
2878 9331
2878 9332
2878 9333
2878 9334
2878 8163
2880 2881
2880 2882
2880 2883
2880 2884
2880 2885
2880 2886
2881 2886
2882 2883
2882 2886
2883 2884
2883 8310
2883 2886
2883 8311
2883 8312
2884 8310
2884 2885
2884 2886
2884 8311
2884 8312
2885 8310
2885 2886
2885 8312
2886 8310
2886 8311
2886 8312
2887 2888
2887 2889
2887 2890
2887 2891
2888 8197
2888 2889
2888 2890
2888 2891
2889 5036
2889 8197
2889 8198
2889 2890
2889 2891
2889 5038
2890 5036
2890 8197
2890 5037
2890 8198
2890 2891
2890 5038
2891 5035
2891 5036
2891 5037
2891 8198
2891 5038
2893 2894
2893 2895
2893 2896
2894 2895
2894 2896
2895 2896
2897 2898
2897 2899
2897 2900
2897 2901
2897 2902
2897 2903
2898 5249
2898 2899
2898 8285
2898 8286
2898 5253
2899 2979
2899 2980
2899 5249
2899 8285
2899 2984
2899 2903
2903 2979
2903 8285
2905 6691
2906 2907
2906 2908
2906 2909
2907 5797
2907 5798
2907 5799
2907 2908
2907 6876
2907 5800
2907 2909
2907 6877
2908 5798
2908 5799
2908 6876
2908 5800
2908 2909
2908 6877
2909 5797
2909 5798
2909 5799
2909 6876
2909 5800
2909 6877
2910 2911
2910 2912
2910 2913
2910 2914
2910 2915
2910 2916
2911 2913
2911 2914
2911 2916
2912 2913
2912 2914
2912 2916
2913 2914
2914 2915
2914 2916
2917 2918
2917 2919
2917 2920
2917 2921
2917 2922
2918 4590
2918 2919
2918 4591
2918 2920
2918 2921
2918 4592
2918 4593
2918 4594
2918 4595
2918 2922
2919 4590
2919 6257
2919 2921
2919 5827
2919 4593
2919 4594
2920 4591
2920 2921
2920 4593
2920 4594
2920 2922
2921 4591
2921 4593
2921 4594
2921 4595
2921 2922
2922 4594
2923 4241
2923 4242
2923 4243
2923 2924
2923 4244
2923 4245
2924 4241
2924 4242
2924 8306
2924 4243
2924 8414
2924 8307
2924 8095
2924 4244
2925 2926
2925 2927
2925 2928
2926 3054
2926 4390
2926 4391
2926 4392
2926 4393
2926 4394
2926 4395
2926 4396
2926 4397
2926 4398
2926 4399
2926 4400
2926 4401
2926 4402
2927 3054
2927 5158
2927 4390
2927 4391
2927 3055
2927 4392
2927 7414
2927 4393
2927 4394
2927 4395
2927 4396
2927 4397
2927 4398
2927 4399
2927 4400
2927 4401
2927 9442
2927 4402
2928 4391
2928 4393
2928 4395
2928 4396
2928 4398
2928 4400
2928 4401
2928 4402
2929 2930
2929 2931
2929 2932
2929 2933
2929 2934
2929 2935
2929 2936
2929 2937
2930 2931
2930 7055
2930 2932
2930 2933
2930 2935
2930 2936
2931 6019
2931 6924
2931 7054
2931 7053
2931 8653
2931 9214
2931 2933
2931 2934
2931 6925
2931 2935
2931 6021
2932 7055
2932 2933
2932 2934
2933 8653
2933 7055
2933 2934
2933 2935
2933 2936
2934 6019
2934 6924
2934 7054
2934 7053
2934 7215
2934 7055
2934 9478
2934 6925
2934 2935
2934 2936
2934 6021
2934 6926
2935 6019
2935 6924
2935 7054
2935 7053
2935 9214
2935 7055
2935 6925
2935 2936
2935 2937
2935 6021
2935 6926
2937 6924
2937 7053
2937 6925
2938 2939
2938 2940
2938 2941
2939 2994
2939 2997
2939 4634
2939 4635
2939 2940
2939 4636
2939 3004
2939 3005
2939 4637
2939 4638
2939 4639
2939 4640
2939 3008
2939 3009
2940 2994
2940 2997
2940 6220
2940 6614
2940 7603
2940 6956
2940 7605
2940 7606
2940 7607
2940 7608
2940 7609
2940 3001
2940 3003
2940 3005
2940 7612
2940 6959
2941 2994
2941 2997
2941 2998
2941 6614
2941 4634
2941 4635
2941 7605
2941 7608
2941 3002
2941 3004
2941 3005
2941 4637
2941 4638
2941 3007
2941 3008
2941 3009
2942 2943
2942 2944
2942 2945
2942 2946
2942 2947
2943 6308
2943 7062
2943 7742
2943 7846
2943 8372
2943 9090
2943 9167
2943 2944
2943 2945
2943 6309
2943 9186
2943 2946
2943 9187
2943 2947
2943 9188
2944 7062
2944 7845
2944 7846
2944 3403
2944 9090
2944 9167
2944 8373
2944 6309
2944 7943
2945 7062
2945 9090
2945 9167
2945 6309
2945 9186
2945 2946
2945 9187
2945 2947
2945 9188
2946 6308
2946 7062
2946 7742
2946 9090
2946 9167
2946 6309
2946 9187
2946 2947
2947 6308
2947 7062
2947 7742
2947 6309
2947 9186
2947 9188
2948 2949
2948 2950
2948 2951
2948 2952
2948 2953
2948 2954
2949 7903
2949 3765
2949 3760
2949 3761
2949 2950
2949 2951
2949 2952
2949 7906
2949 2953
2949 2954
2950 3765
2950 3760
2950 3761
2950 7906
2950 2953
2950 2954
2950 7907
2951 7903
2951 3765
2951 2952
2951 2953
2951 2954
2952 7903
2952 3765
2952 3760
2952 7906
2952 2953
2952 2954
2953 7903
2953 3760
2953 7906
2953 2954
2954 7903
2954 7907
2955 2956
2955 2957
2955 2958
2956 4138
2956 2958
2956 4139
2956 4140
2956 4141
2956 4142
2956 4143
2956 4144
2956 4145
2957 3562
2957 3563
2957 7550
2957 3566
2958 4138
2958 4139
2958 4144
2958 4145
2959 2960
2959 2961
2959 2963
2960 2961
2960 2963
2961 2964
2962 8142
2962 8143
2964 8142
2964 9480
2966 2967
2966 2968
2966 2969
2966 2970
2966 2971
2966 2972
2966 2973
2966 2974
2966 2975
2966 2976
2966 2977
2966 2978
2967 5888
2967 2975
2967 2976
2967 2977
2967 2978
2968 2971
2968 2977
2968 2978
2969 2971
2969 2972
2969 2973
2969 8112
2969 2974
2969 2977
2969 2978
2970 2975
2970 2977
2971 2972
2971 2974
2971 2977
2971 2978
2972 8112
2972 2974
2972 2978
2973 2974
2973 2978
2974 8112
2974 2977
2974 2978
2975 5888
2975 2977
2976 2978
2977 2978
2979 2984
2983 2985
2985 5250
2985 5252
2986 2987
2986 2988
2986 2989
2986 2990
2986 2991
2987 6254
2987 2988
2987 2989
2987 2990
2987 2991
2988 6254
2988 7948
2988 2989
2988 2990
2988 2991
2989 6254
2989 7948
2989 2990
2989 2991
2990 6254
2990 7948
2990 2991
2991 7948
2992 2993
2993 4096
2993 4865
2993 7067
2993 4866
2993 7501
2993 7502
2993 6294
2993 7504
2993 7506
2998 5766
2998 5767
2998 5768
2998 5769
2998 5770
2998 5771
2998 4636
2998 5772
2998 5773
2998 5774
2998 4639
2998 4640
2998 5775
2999 5766
2999 5767
2999 5768
2999 5769
2999 4635
2999 5770
2999 5771
2999 4636
2999 5772
2999 5773
2999 5774
2999 4638
2999 5775
3010 3011
3011 3493
3011 5818
3011 5819
3011 4237
3011 4240
3012 3013
3012 3014
3012 3015
3012 3016
3012 3017
3012 3018
3012 3019
3013 3057
3013 3014
3013 3016
3013 3018
3013 3058
3013 3019
3013 3059
3013 3060
3014 4839
3014 3057
3014 4840
3014 4841
3014 3016
3014 3018
3014 4842
3014 3058
3014 4843
3014 3019
3014 3060
3015 3016
3015 3017
3015 8901
3015 3019
3016 3057
3016 3017
3016 3018
3016 3019
3016 3059
3017 3018
3017 3059
3018 4839
3018 8901
3018 3058
3018 3019
3018 3059
3018 3060
3019 3059
3022 5429
3022 5568
3022 6768
3022 7270
3022 8479
3022 3025
3022 3029
3022 7829
3022 3030
3025 8920
3031 4613
3031 3033
3032 4613
3032 6985
3034 3035
3034 3036
3034 3037
3034 3038
3035 4210
3035 3036
3035 4211
3035 3037
3035 4212
3035 4213
3035 4214
3035 4215
3035 4216
3035 3038
3036 4210
3036 4211
3036 4995
3036 3037
3036 4996
3036 4212
3036 4213
3036 4214
3036 4216
3036 3038
3037 4210
3037 4995
3037 4996
3037 4212
3037 4213
3037 4215
3037 8118
3037 4216
3037 3038
3038 4211
3038 4995
3038 4996
3038 4213
3038 4214
3038 4215
3038 8118
3039 3040
3039 3041
3039 3042
3039 3043
3040 9283
3040 3041
3040 3042
3040 3043
3041 9482
3041 9488
3041 9283
3041 3042
3041 3043
3042 9481
3042 9482
3042 9488
3042 9283
3042 3043
3044 3045
3044 3046
3044 3047
3044 3048
3044 3049
3045 6766
3045 3046
3045 3047
3045 3048
3045 5726
3045 3049
3046 5725
3046 6766
3046 8303
3046 3047
3046 3048
3046 5726
3046 3049
3047 5725
3047 6766
3047 8303
3047 3048
3047 5726
3047 3049
3048 5725
3048 6766
3048 8303
3048 5726
3048 3049
3049 5725
3049 6766
3049 8303
3049 5726
3050 3051
3050 3052
3050 3053
3051 4870
3051 4871
3051 3052
3051 4882
3051 3053
3052 4871
3052 4877
3052 3053
3053 4882
3054 3055
3055 5158
3055 4392
3055 7414
3055 4394
3055 9129
3055 9442
3056 8502
3056 7669
3056 8605
3057 3058
3057 3059
3058 3059
3059 4840
3060 4839
3061 3062
3061 3063
3061 3064
3061 3065
3061 3066
3061 3067
3062 3063
3062 3066
3062 3067
3063 3064
3063 3065
3063 3066
3063 3067
3064 3065
3064 3066
3065 3066
3065 3067
3068 3069
3068 3070
3068 3071
3068 3072
3068 3073
3069 3471
3069 4844
3069 7366
3069 4846
3069 3071
3069 3072
3070 3471
3070 3558
3070 3474
3070 3559
3070 3475
3070 6048
3070 4849
3070 3073
3070 7950
3071 4844
3071 7366
3071 4846
3071 3473
3071 3476
3071 6048
3071 3072
3072 3471
3072 4844
3072 3472
3072 4845
3072 4846
3072 3560
3072 3475
3072 4847
3072 3476
3072 7759
3072 3073
3073 3471
3073 4844
3073 3472
3073 7949
3073 4846
3073 3558
3073 3474
3073 8603
3073 6047
3073 3475
3073 4847
3073 3476
3073 7759
3073 3477
3073 4849
3073 7950
3078 3079
3078 3080
3078 3081
3078 3082
3079 5423
3079 4730
3079 3080
3079 3082
3080 5423
3080 6992
3080 4730
3080 3081
3080 3082
3081 5423
3081 4730
3081 3082
3082 5423
3082 4730
3083 3084
3083 3085
3083 3086
3084 3727
3084 3085
3085 3697
3085 3726
3085 3727
3085 3728
3085 8643
3086 3697
3086 3727
3086 3728
3087 3088
3087 3089
3087 3090
3088 3090
3089 3090
3091 3092
3093 3094
3093 3095
3093 3096
3093 3097
3093 3098
3094 3097
3094 3098
3095 3096
3095 3097
3095 3098
3096 3097
3096 3098
3097 3098
3099 3100
3099 3101
3099 3102
3099 3103
3100 3663
3100 3664
3100 3665
3100 3666
3100 3667
3100 3103
3101 3664
3101 9489
3101 3665
3101 3102
3101 3103
3102 3664
3102 9489
3102 3665
3102 3666
3102 3103
3103 3663
3103 3664
3103 9489
3103 3665
3103 3666
3104 3105
3104 3106
3104 3107
3104 3108
3104 3109
3105 3106
3105 5274
3105 5275
3105 5276
3105 5277
3105 5278
3105 5279
3106 5274
3106 5275
3106 5277
3106 3107
3106 3108
3106 3109
3106 5279
3107 5274
3107 5275
3107 5276
3107 5277
3107 5278
3107 5279
3108 5274
3108 5275
3108 5276
3108 5277
3108 5279
3109 5274
3109 5275
3109 5276
3109 5277
3109 5279
3110 3111
3111 3576
3111 3577
3111 3578
3111 3579
3111 3580
3111 3581
3111 3582
3111 3583
3111 3584
3111 3585
3111 3586
3113 3114
3114 4757
3114 5877
3114 9218
3115 3116
3115 3117
3115 3118
3115 3119
3116 4894
3116 4895
3116 4896
3116 3119
3116 4897
3116 4898
3116 4899
3117 3118
3117 4896
3117 6581
3117 3119
3117 4897
3117 4898
3118 4896
3118 3119
3118 4897
3119 4897
3120 5699
3121 5699
3121 3122
3125 3126
3125 3127
3125 3128
3125 3129
3126 3127
3126 3128
3126 3129
3126 7028
3127 3128
3127 3129
3128 3129
3129 7028
3130 3131
3130 3132
3131 3132
3133 3134
3133 3135
3133 3136
3133 3137
3134 6200
3134 9423
3134 9424
3134 9425
3135 6198
3135 7287
3135 6199
3135 9011
3135 9425
3135 6201
3135 3136
3135 3137
3136 6615
3136 7287
3136 6199
3136 9010
3136 6200
3136 9423
3136 9011
3136 9425
3136 3137
3137 6198
3137 6615
3137 6199
3137 9010
3137 6200
3137 6201
3138 3139
3138 3140
3138 3141
3138 3142
3138 3143
3138 3144
3138 3145
3138 3146
3138 3147
3138 3148
3139 3140
3139 3142
3139 3145
3140 5263
3140 7182
3140 7183
3140 3145
3140 3146
3140 3147
3141 3143
3141 3145
3141 8231
3142 5263
3142 3143
3142 3145
3142 3146
3142 3147
3142 8231
3143 5263
3143 3210
3143 8229
3143 3145
3143 8230
3143 3214
3143 8231
3144 3145
3144 3146
3145 5263
3145 7182
3145 7183
3145 3146
3145 3147
3145 3148
3146 5263
3146 5879
3146 7182
3146 7183
3146 3148
3149 3150
3151 3152
3151 3153
3151 3154
3151 3155
3151 3156
3151 3157
3151 3158
3152 5762
3152 7671
3152 3153
3152 3154
3152 3155
3152 5764
3152 3156
3152 3157
3152 3158
3152 5765
3153 8411
3153 3155
3153 3157
3154 5762
3154 5763
3154 8050
3154 4838
3154 8411
3154 5764
3154 8727
3155 5763
3155 8411
3155 3156
3155 3157
3156 8411
3156 3157
3157 3158
3158 5762
3158 5763
3158 8050
3158 4838
3158 8411
3158 6584
3158 8727
3158 5765
3159 3160
3159 3161
3159 3162
3159 3163
3159 3164
3159 3165
3160 5999
3160 3162
3160 3163
3160 3164
3160 6000
3161 6638
3161 5999
3161 6639
3161 6640
3161 3163
3161 3164
3161 3165
3161 6912
3162 6638
3162 3163
3162 6000
3162 6641
3162 6912
3163 3164
3163 3165
3164 3165
3165 5999
3166 3167
3166 3168
3166 3169
3166 3170
3166 3171
3167 3168
3167 3169
3167 3172
3168 3169
3168 3171
3170 9535
3170 6745
3171 3172
3173 3174
3175 5724
3176 7236
3177 3190
3178 3190
3179 3190
3180 7236
3181 3190
3182 3190
3183 7236
3185 7236
3186 5724
3189 3190
3190 7403
3191 3192
3191 3193
3191 3194
3191 3195
3191 3196
3191 3197
3191 3198
3191 3199
3192 3194
3193 3194
3194 6159
3194 3195
3194 8582
3194 3197
3194 6160
3194 3199
3195 3199
3196 3639
3196 4171
3196 5648
3196 5649
3196 3197
3196 9165
3196 4172
3196 5652
3196 3199
3197 9247
3198 9246
3198 9304
3198 9247
3198 9248
3199 6159
3199 9247
3200 3201
3200 3202
3200 3203
3200 3204
3201 4494
3201 3202
3201 3203
3201 6669
3202 4494
3202 3203
3202 4495
3202 3204
3203 4494
3203 4495
3203 6669
3203 3204
3203 8496
3204 4494
3204 8493
3204 6669
3204 8494
3205 3206
3205 3207
3205 3208
3205 3209
3205 3210
3205 3211
3205 3212
3205 3213
3205 3214
3205 3215
3205 3216
3205 3217
3206 3207
3206 3214
3206 3217
3207 3208
3207 5202
3207 5203
3207 3209
3207 3210
3207 3213
3207 5204
3207 3216
3207 3217
3207 5205
3207 5206
3208 3213
3209 3210
3209 3213
3209 3214
3210 8229
3210 3211
3210 8230
3210 3214
3210 8231
3210 3217
3211 3214
3211 8231
3211 3217
3212 5202
3212 3213
3212 3217
3213 5202
3213 5203
3213 5818
3213 5204
3213 3215
3213 3216
3213 3217
3213 5205
3213 5206
3214 5203
3214 8229
3214 8230
3214 8231
3214 3217
3214 5205
3214 5206
3215 5202
3215 3217
3217 5202
3217 5203
3217 8229
3217 8230
3217 5204
3217 8231
3217 5205
3217 5206
3218 3219
3218 3220
3218 3221
3218 3222
3219 3221
3219 3222
3219 6667
3220 5526
3220 3222
3221 7320
3221 3222
3222 5525
3222 7320
3222 5526
3222 7626
3222 6666
3222 6667
3222 6668
3223 3224
3223 3225
3223 3226
3223 3227
3223 3228
3224 3225
3224 7112
3224 3226
3224 3227
3224 3228
3225 7112
3225 3226
3225 3227
3225 3228
3226 7112
3226 3227
3226 3228
3227 3228
3228 7112
3229 3230
3231 3232
3231 3237
3232 4221
3232 4454
3232 4222
3232 6137
3232 3233
3232 3807
3232 3237
3232 6140
3232 3238
3232 3809
3232 7851
3232 3241
3232 3810
3233 4221
3233 4454
3233 4222
3233 6138
3233 8857
3233 8858
3233 3237
3233 6140
3233 7851
3234 4454
3234 3239
3234 3810
3235 6137
3235 3237
3235 3241
3236 6137
3236 3237
3237 4222
3237 6137
3237 8881
3237 3807
3237 6138
3237 3238
3237 3809
3237 3239
3237 3241
3237 3810
3238 8964
3238 3240
3239 4454
3239 3810
3242 3243
3242 3244
3242 3245
3242 3246
3243 6868
3243 3244
3243 6869
3243 3245
3244 6868
3244 6869
3244 3245
3245 6869
3245 3246
3246 6868
3246 6869
3247 3248
3247 3249
3248 9253
3248 3249
3248 9254
3248 9255
3248 9256
3248 9257
3249 9253
3249 9256
3249 9257
3251 3252
3251 3253
3252 3900
3252 3901
3252 3902
3252 3903
3252 3904
3252 3905
3252 3906
3252 3907
3252 3908
3252 3253
3253 3900
3253 3902
3253 3904
3253 3906
3254 3255
3254 3256
3254 3257
3254 3258
3254 3259
3255 5424
3255 3257
3255 5425
3255 3258
3256 3257
3256 3258
3256 7238
3256 3259
3257 5424
3257 7239
3257 3258
3257 7238
3257 3259
3258 5424
3258 3259
3259 7239
3259 7238
3260 3261
3260 3262
3260 3263
3260 3264
3260 3265
3260 3266
3260 3267
3260 3268
3261 4644
3261 4759
3261 3262
3261 4760
3261 3265
3261 3266
3261 3268
3262 4644
3262 4759
3262 4760
3262 3264
3262 8667
3262 3265
3262 3266
3262 3268
3263 3268
3264 3265
3264 3268
3265 4644
3265 4759
3265 4760
3265 3267
3265 3268
3266 3267
3266 3268
3267 4644
3267 4759
3267 3268
3268 4759
3268 8667
3269 6370
3269 3270
3270 6370
3270 7844
3270 3271
3270 9013
3271 6370
3271 7844
3271 9013
3272 3273
3272 3274
3272 3275
3272 3276
3273 3277
3273 3278
3273 8315
3273 8316
3273 3295
3273 3275
3273 3285
3273 5071
3274 3279
3274 3292
3274 3281
3274 8315
3274 8316
3274 3282
3274 3275
3274 9555
3274 3276
3274 5071
3274 9556
3274 9369
3275 3277
3275 3278
3275 3292
3275 3283
3275 3295
3275 9555
3275 3276
3275 5071
3275 9556
3275 9369
3276 3292
3276 3296
3276 9555
3276 5071
3276 9556
3276 9369
3277 3278
3277 3279
3277 3280
3277 3281
3277 3282
3277 3283
3277 3284
3277 3285
3278 3280
3278 3291
3278 3292
3278 3293
3278 3294
3278 3283
3278 3284
3278 3295
3278 3296
3279 3286
3279 3287
3279 3288
3279 3291
3279 3289
3279 3298
3279 3290
3279 3294
3279 3281
3279 3282
3279 3295
3279 3296
3280 3281
3280 3282
3280 3299
3281 3291
3282 3291
3282 3293
3282 8315
3282 8316
3282 3284
3282 3299
3282 3295
3283 5071
3284 3299
3285 3291
3285 3294
3285 3296
3286 3287
3286 3288
3286 3289
3286 3290
3287 3288
3287 3289
3287 3290
3287 3297
3288 3291
3288 3289
3288 3298
3288 3290
3288 3297
3289 3291
3289 3298
3289 3290
3289 3297
3290 3291
3290 3298
3290 3297
3290 8199
3291 3294
3291 3297
3291 3299
3291 3296
3292 5071
3294 3298
3294 8315
3294 8316
3294 8317
3294 3299
3294 3296
3296 8315
3296 8316
3299 5071
3301 3302
3301 3303
3301 3304
3301 3305
3302 3303
3303 3305
3304 9562
3304 9597
3305 9562
3305 9596
3305 9597
3307 3722
3308 3309
3310 3311
3310 3312
3310 3313
3310 3314
3311 3991
3311 4566
3311 5712
3311 6389
3311 6708
3311 6709
3311 6390
3311 6710
3311 6711
3311 3992
3311 6712
3311 6391
3311 6713
3311 6714
3311 6715
3311 3312
3311 6716
3311 3313
3311 6717
3311 6718
3311 6719
3311 3314
3311 5157
3311 6720
3311 4567
3311 6721
3311 6722
3312 3991
3312 4566
3312 6389
3312 6708
3312 6709
3312 6390
3312 6710
3312 6711
3312 3992
3312 6712
3312 9486
3312 6391
3312 6713
3312 6714
3312 6715
3312 3313
3312 6717
3312 6718
3312 6719
3312 3314
3312 5157
3312 6720
3312 5713
3312 4567
3312 6721
3312 6722
3313 6389
3313 6390
3313 6710
3313 6712
3313 9486
3313 3314
3313 6721
3314 6389
3314 6710
3314 6712
3314 9486
3314 6391
3314 5713
3314 6721
3315 3316
3315 3317
3315 3318
3315 3319
3315 3320
3316 3317
3316 3318
3316 3319
3316 3320
3316 4608
3316 4609
3316 4610
3316 4611
3317 3318
3317 3319
3317 3320
3317 4608
3317 4609
3317 4610
3317 6484
3317 4611
3318 3320
3318 4609
3319 3320
3319 4608
3319 4609
3319 4610
3319 6484
3319 4611
3320 4608
3320 4609
3320 6484
3320 4611
3321 3322
3321 3323
3321 3324
3321 3325
3321 3326
3321 3327
3322 3325
3322 3326
3322 6156
3322 3327
3322 6157
3323 3325
3323 3326
3323 6156
3323 3327
3323 6157
3324 3325
3324 3327
3324 6157
3325 6157
3326 6156
3326 6157
3327 6157
3328 5973
3328 3329
3328 3330
3328 3332
3329 5973
3330 3332
3331 5973
3331 9258
3331 5974
3332 5973
3332 3333
3332 5975
3333 9258
3334 3335
3334 3336
3334 3337
3335 3691
3335 3692
3335 3693
3335 3694
3335 3695
3335 3696
3336 5436
3336 3693
3336 3694
3336 5437
3336 3337
3337 3693
3337 5438
3338 3339
3338 3340
3338 3341
3338 3342
3338 3343
3338 3344
3339 3340
3339 3342
3339 3343
3339 3344
3340 3341
3340 3342
3340 3343
3340 3344
3341 3342
3342 3343
3342 3344
3343 3344
3345 3346
3345 3347
3345 3348
3345 3349
3346 3347
3346 3348
3346 3349
3347 3348
3347 3349
3348 3349
3350 3351
3350 3352
3350 3353
3351 3352
3351 3353
3352 3353
3354 3361
3354 3369
3355 3361
3355 3369
3356 3361
3356 3367
3357 3361
3357 3364
3357 3369
3358 3361
3358 3367
3359 3361
3359 3369
3360 3361
3360 3364
3360 3369
3361 3631
3361 4207
3361 4555
3361 7308
3361 3362
3361 8790
3361 4556
3361 3632
3361 8791
3361 8792
3361 8793
3361 3365
3361 3366
3361 3367
3361 3368
3361 8794
3361 3369
3361 8795
3361 8796
3361 8797
3361 3633
3361 3372
3361 4208
3361 3373
3361 8798
3361 8799
3361 3374
3362 3367
3364 3365
3364 3367
3364 3369
3365 3369
3366 3367
3367 3369
3367 3374
3368 3369
3369 8795
3369 8796
3369 8797
3369 3372
3369 8799
3373 3633
3375 3376
3375 3377
3375 3378
3375 3379
3375 3380
3375 3381
3375 3382
3375 3383
3375 3384
3375 3385
3376 3378
3376 3379
3376 3380
3376 3381
3376 3382
3376 3383
3376 5220
3377 3378
3377 3379
3377 3380
3377 3381
3377 3382
3377 3383
3377 3384
3377 5220
3377 3385
3378 3379
3378 3380
3378 3383
3378 3384
3378 5220
3380 5200
3380 3382
3380 3384
3380 5220
3380 3385
3381 3384
3382 3383
3382 5220
3383 3384
3383 5220
3383 3385
3384 5200
3384 5220
3385 5220
3386 3387
3386 3388
3386 3389
3386 3390
3387 5677
3387 3388
3387 5680
3387 3389
3387 3390
3388 5677
3388 5678
3388 5679
3388 5682
3388 6500
3388 5680
3388 3389
3388 6501
3388 5683
3389 5677
3389 5678
3389 5679
3389 5682
3389 6500
3389 5680
3389 6501
3389 5683
3389 3390
3390 5679
3390 5682
3390 5680
3392 7429
3392 7430
3392 8281
3392 7431
3392 3393
3392 8450
3392 7432
3392 7433
3393 7430
3393 7431
3393 8450
3393 7432
3395 3396
3395 3397
3395 3398
3395 3399
3395 3400
3395 3401
3395 3402
3396 3397
3396 5395
3396 8457
3396 3400
3396 8458
3396 8459
3396 3402
3396 8460
3397 3401
3397 3402
3398 5395
3398 3400
3398 3402
3399 5395
3399 3646
3399 3400
3399 3402
3400 5968
3400 7023
3400 8716
3400 8771
3400 5395
3400 5396
3400 8457
3400 9118
3400 9120
3400 8458
3400 3401
3400 8459
3400 5969
3400 3402
3400 8460
3401 5394
3401 5968
3401 8716
3401 8771
3401 3646
3401 7780
3401 9118
3401 9119
3401 9120
3401 8458
3401 8459
3401 3402
3401 8460
3402 4925
3402 7023
3402 8771
3402 5395
3402 7780
3402 9119
3402 7641
3402 9120
3402 8458
3402 5969
3402 8460
3403 7845
3403 7846
3403 8372
3403 8373
3403 7943
3404 3405
3404 4348
3405 3406
3405 4348
3405 5837
3406 4349
3406 5837
3407 3408
3407 3409
3407 3410
3407 3411
3408 3409
3408 3411
3409 3411
3410 3411
3412 3413
3412 3414
3412 3415
3412 3416
3413 3414
3413 5838
3413 4629
3413 4026
3413 4027
3413 4630
3413 3415
3413 3416
3414 4024
3414 4626
3414 5838
3414 4026
3414 3416
3415 4024
3415 3416
3416 4024
3416 5838
3416 4026
3418 3419
3418 3420
3418 3421
3418 3422
3418 3423
3419 3421
3419 6372
3419 6373
3419 6374
3419 6375
3419 3423
3419 6376
3420 3421
3420 7139
3420 6373
3420 6374
3420 6375
3420 3422
3420 3423
3420 7140
3421 6373
3421 3422
3421 3423
3421 7140
3422 6375
3422 3423
3423 7140
3425 3426
3425 3427
3426 3898
3426 7493
3426 6569
3426 8504
3426 8505
3426 6574
3426 3427
3426 8507
3427 6567
3427 6568
3427 6570
3427 6571
3427 6572
3427 6573
3427 3899
3428 3429
3428 3430
3428 3431
3428 3432
3428 3433
3428 3434
3429 3430
3429 3431
3429 3432
3429 3433
3429 3434
3429 4460
3430 3432
3430 3433
3431 3432
3431 3433
3431 3434
3431 4460
3432 3433
3432 3434
3432 4460
3433 3434
3433 4460
3434 4460
3435 3436
3435 3437
3435 3438
3435 3439
3436 3437
3436 3438
3436 3439
3437 3438
3437 3439
3438 3439
3440 3441
3440 3442
3440 3443
3440 3444
3440 3445
3441 3442
3441 3443
3441 3444
3441 3445
3442 3443
3442 3444
3442 3445
3443 3444
3443 3445
3444 3445
3446 3447
3446 3448
3446 3449
3446 3450
3446 3451
3447 4761
3447 4762
3447 4763
3447 3450
3447 4764
3447 4765
3447 3451
3447 4766
3447 4767
3447 4768
3448 4761
3448 4762
3448 9042
3448 3449
3448 4764
3448 9043
3448 8929
3448 4766
3448 4768
3449 4761
3449 8927
3449 4764
3449 9043
3449 8929
3449 4768
3450 3451
3450 8929
3450 4766
3450 4767
3451 8003
3451 4761
3451 4763
3451 9043
3451 8928
3451 4765
3451 8929
3451 4766
3451 9544
3451 4767
3451 6026
3452 3453
3452 3454
3452 3455
3452 3456
3452 3457
3452 3458
3452 3459
3453 6485
3453 8770
3453 6486
3453 6487
3453 3454
3453 3455
3453 3456
3453 3457
3453 3458
3453 3459
3454 6487
3454 3456
3454 3458
3455 6485
3455 8770
3455 6486
3455 6487
3455 3456
3455 9159
3455 3457
3455 5964
3456 6485
3456 8770
3456 6486
3456 6487
3456 3457
3456 3459
3457 6485
3457 8770
3457 6487
3458 6487
3459 8770
3459 6487
3460 3461
3460 3462
3460 3463
3460 3464
3460 3465
3460 3466
3460 3467
3460 3468
3460 3469
3460 3470
3461 3462
3461 3468
3461 3469
3461 3470
3462 3468
3462 3469
3462 3470
3463 3464
3463 3465
3463 3467
3463 3469
3463 3470
3464 3465
3464 3468
3464 3470
3465 3466
3465 3468
3465 3469
3465 3470
3466 3469
3466 3470
3467 3468
3467 3469
3468 3469
3468 3470
3469 3470
3471 3472
3471 3473
3471 3474
3471 3475
3471 3476
3471 3477
3472 3475
3472 3476
3473 7366
3473 3475
3473 3476
3473 6048
3474 7949
3474 8603
3474 3477
3474 7950
3475 7949
3475 8603
3475 3476
3475 7950
3476 8603
3476 4847
3476 7759
3476 6048
3476 3477
3477 7950
3478 3479
3478 3480
3478 3481
3478 3482
3478 3483
3478 3484
3478 3485
3478 3486
3479 3480
3479 3482
3479 3483
3479 3486
3480 6319
3480 7577
3480 7673
3480 8342
3480 3481
3480 3482
3480 8343
3480 8344
3480 3483
3480 8345
3480 8346
3480 6320
3480 8347
3480 3485
3480 3486
3480 8348
3480 8349
3480 8350
3481 6319
3481 7673
3481 8342
3481 3482
3481 8343
3481 8344
3481 3483
3481 8345
3481 3484
3481 8346
3481 6320
3481 9197
3481 8347
3481 3486
3481 8348
3481 8349
3481 8350
3482 6319
3482 7577
3482 7673
3482 8342
3482 8343
3482 8344
3482 3483
3482 8345
3482 8346
3482 6320
3482 9197
3482 8347
3482 3485
3482 3486
3482 8348
3482 8350
3483 6319
3483 7673
3483 8342
3483 6320
3483 9197
3483 3485
3483 3486
3483 8349
3483 8350
3485 3486
3486 7577
3486 8344
3486 8345
3486 8346
3486 6320
3486 9197
3486 8347
3486 8348
3486 8349
3487 3488
3487 3489
3487 3490
3487 3491
3487 3492
3488 3489
3488 3490
3488 5296
3488 3491
3488 3492
3489 5296
3489 6318
3489 3491
3489 3492
3490 5296
3490 3491
3490 3492
3491 5296
3491 7881
3491 7339
3491 7882
3491 8169
3491 7342
3491 8904
3491 7883
3492 7881
3492 7339
3492 7882
3492 8721
3492 8169
3492 7342
3492 7883
3494 3495
3494 3496
3494 3497
3494 3498
3495 4900
3495 4901
3495 4902
3495 3496
3495 4903
3495 4904
3495 4905
3495 4906
3495 4907
3495 4908
3495 3498
3495 4909
3496 4900
3496 4901
3496 8596
3496 4903
3496 4905
3496 4906
3496 4907
3496 8769
3496 4908
3496 4909
3497 5020
3497 5021
3497 5022
3497 5023
3497 5024
3497 5025
3497 5027
3497 5369
3497 5028
3497 5029
3497 5030
3497 5031
3497 5032
3497 4907
3498 7525
3498 4903
3498 4906
3498 4907
3499 3530
3502 8713
3503 8713
3509 3510
3509 3511
3509 3512
3509 3513
3509 3514
3509 3515
3510 3511
3510 4481
3510 3512
3510 3513
3510 3514
3510 3515
3511 4481
3511 3512
3511 3513
3512 3514
3514 3515
3517 3518
3517 3519
3517 3520
3517 3521
3517 3522
3518 3519
3518 4867
3518 3520
3518 4868
3518 3521
3518 3522
3518 4869
3519 3520
3519 4868
3519 3521
3519 3522
3519 4869
3520 7278
3520 4867
3520 7884
3520 4868
3520 3521
3520 3522
3520 4869
3521 7278
3521 4867
3521 7884
3521 4868
3521 3522
3521 4869
3522 7278
3522 4867
3522 7884
3522 4868
3522 4869
3523 3524
3523 3525
3523 3526
3523 3527
3523 3528
3523 3529
3524 4489
3524 4490
3524 4491
3524 4492
3524 4493
3525 4491
3525 4492
3525 8658
3525 6023
3525 4493
3525 3529
3526 4489
3526 4490
3526 4491
3526 4492
3526 8658
3526 4493
3526 3529
3527 4489
3527 3954
3527 8658
3527 4493
3528 4489
3528 4490
3528 4492
3528 8658
3528 5142
3528 6023
3528 4493
3528 3529
3529 4489
3529 4493
3530 3531
3530 3532
3530 3533
3531 3532
3531 3533
3532 3533
3534 4713
3534 4714
3535 3536
3535 3537
3535 3538
3535 3539
3535 3540
3535 3541
3535 3542
3536 3537
3536 3540
3536 3541
3536 4322
3536 3542
3536 4323
3537 3538
3537 3539
3537 3540
3537 3541
3538 3539
3538 3541
3539 3540
3539 3541
3540 3541
3540 3542
3541 4322
3541 3542
3543 3544
3543 3545
3543 3546
3543 3547
3543 3548
3544 3545
3544 4520
3544 4521
3544 3547
3544 3548
3545 5063
3545 5982
3545 5064
3545 5066
3545 5067
3545 5068
3545 5069
3545 5070
3545 4520
3545 4521
3545 3546
3545 3547
3546 5982
3546 5065
3546 5067
3546 4516
3546 3548
3547 5063
3547 5067
3547 5068
3547 5069
3548 5068
3549 3550
3549 3551
3549 3552
3549 3553
3550 3957
3550 6362
3550 6363
3550 3551
3550 3552
3550 6364
3550 3553
3550 6365
3551 3957
3551 6875
3551 6362
3551 6363
3551 3552
3551 6364
3551 3553
3551 6365
3552 3957
3552 6875
3552 6362
3552 6363
3552 6364
3552 3553
3552 6365
3553 3957
3553 6363
3553 6364
3553 6365
3554 3555
3555 5255
3556 3557
3556 3558
3556 3559
3556 3560
3556 3561
3557 6044
3557 6045
3557 6046
3557 4846
3557 3558
3557 3559
3557 3560
3557 6047
3557 6048
3557 3561
3557 4848
3558 6046
3558 4845
3558 8603
3558 3559
3558 3560
3558 7759
3558 3561
3558 4848
3558 4849
3559 4844
3559 4845
3559 3560
3559 6048
3559 3561
3559 4848
3559 4849
3560 3561
3562 3563
3562 3564
3562 3565
3562 3566
3563 7550
3563 3565
3563 3566
3564 3565
3564 3566
3565 3788
3565 3566
3566 3785
3566 3786
3566 3787
3566 8510
3566 7847
3566 8215
3566 3788
3566 4712
3568 3569
3568 3570
3568 3571
3568 3572
3568 3573
3568 3574
3568 3575
3569 3570
3570 8788
3570 3571
3570 3572
3570 3573
3570 3575
3572 8788
3572 3575
3573 8788
3573 3575
3590 4733
3590 3591
3590 3597
3591 7878
3591 7879
3591 3597
3591 7880
3593 6945
3597 7878
3597 7879
3597 7880
3602 3603
3602 3604
3602 3605
3602 3606
3603 3604
3603 3605
3603 3606
3604 3605
3604 3606
3605 3606
3606 6817
3606 4288
3607 3833
3607 4363
3607 3834
3607 5589
3607 3612
3607 3630
3607 3614
3607 5590
3608 3616
3609 6261
3609 3834
3609 6872
3609 7587
3609 3612
3609 7588
3609 7589
3609 3615
3609 6756
3609 3616
3610 3616
3611 3834
3611 3612
3611 3630
3612 3833
3612 4363
3612 6261
3612 3834
3612 6872
3612 7587
3612 5589
3612 3630
3612 3832
3612 6756
3612 5590
3612 3617
3613 3616
3614 3834
3614 3630
3614 3617
3616 7588
3616 7589
3616 3617
3617 6261
3617 3834
3617 6872
3617 7587
3617 7588
3617 7589
3617 6756
3619 3620
3619 3621
3620 3621
3622 6252
3622 6842
3622 6253
3622 9093
3622 6844
3622 5507
3623 6262
3623 9091
3623 9092
3625 4935
3625 3626
3625 4936
3625 4937
3625 4938
3625 4939
3625 3627
3625 4940
3625 4941
3626 4935
3626 4936
3626 4937
3627 4938
3627 4940
3628 3629
3628 3630
3629 3833
3629 4319
3629 3829
3629 4320
3629 3630
3629 3830
3629 3831
3629 4321
3630 4363
3630 3828
3630 3834
3630 6872
3630 3829
3630 7587
3630 5589
3630 3830
3630 3832
3630 5590
3631 3632
3631 3633
3632 7308
3632 8790
3632 4556
3632 8792
3632 8793
3632 9088
3632 3633
3632 9089
3632 4208
3633 4207
3633 4555
3633 7308
3633 8790
3633 4556
3633 8791
3633 8793
3633 8794
3633 9088
3633 9089
3633 4208
3633 8798
3634 3635
3634 3636
3634 3637
3634 3638
3635 7152
3635 7153
3635 3636
3635 7617
3635 7618
3635 3637
3635 3638
3635 7620
3636 7152
3636 7153
3636 7617
3636 7618
3636 3637
3636 3638
3636 7619
3636 7620
3637 7152
3637 7153
3637 7617
3637 7618
3637 3638
3637 7619
3637 7620
3638 7152
3639 3640
3639 3641
3640 4171
3640 9165
3640 4172
3640 3641
3641 4171
3641 4172
3642 3643
3642 3644
3643 5478
3643 5479
3643 5480
3643 5481
3643 5482
3643 3644
3643 5483
3643 5484
3643 5485
3643 5486
3643 5487
3643 5488
3644 5478
3644 7262
3644 5479
3644 5480
3644 5483
3644 8168
3644 5484
3644 5485
3644 5486
3644 5487
3644 7263
3644 5488
3644 7264
3645 3646
3646 8062
3646 7925
3646 7926
3646 8662
3646 4931
3646 5396
3646 8498
3646 4932
3646 8457
3646 8499
3646 7927
3646 9137
3646 9139
3647 3648
3647 3649
3648 3649
3650 3651
3650 3652
3650 3653
3650 3654
3651 3652
3651 3653
3651 4455
3652 3653
3652 4455
3652 3654
3652 7417
3653 4455
3653 3654
3653 7417
3654 4455
3654 7417
3655 3656
3655 3657
3655 3658
3655 3659
3655 3660
3655 3661
3655 3662
3656 3657
3656 3658
3656 3659
3656 3660
3656 3661
3656 3662
3657 3658
3657 3659
3657 3660
3657 3661
3657 3662
3658 3659
3658 3660
3658 7962
3658 3662
3659 3660
3659 3661
3660 3661
3660 7962
3660 3662
3661 7962
3661 3662
3663 3664
3663 3665
3663 3666
3663 3667
3664 3665
3664 3666
3665 9489
3665 3666
3665 3667
3666 9489
3666 3667
3669 3670
3669 3671
3669 3672
3669 3673
3669 3674
3670 3982
3670 3671
3670 6378
3670 6379
3670 6380
3670 6381
3670 6382
3670 3983
3670 6383
3670 6384
3670 3672
3670 6385
3670 6386
3670 3673
3670 3674
3671 5131
3671 6378
3671 6951
3671 6379
3671 6382
3671 3983
3671 6383
3671 6952
3671 6384
3671 3672
3671 6385
3671 6953
3671 6386
3671 3673
3671 6954
3671 3984
3671 3674
3672 3982
3672 5131
3672 6378
3672 6951
3672 6379
3672 6382
3672 3983
3672 6952
3672 6384
3672 6385
3672 6953
3672 6386
3672 3673
3672 6954
3672 3984
3673 3982
3673 6379
3673 6380
3673 6381
3673 6382
3673 3983
3673 6385
3673 6953
3673 6954
3673 3674
3674 6379
3674 6382
3674 3983
3675 3684
3675 3685
3675 3686
3675 3689
3675 3690
3676 3677
3676 3678
3676 3679
3676 3680
3676 3682
3676 3689
3677 3682
3678 3688
3678 3689
3679 6263
3679 3681
3679 3682
3679 3683
3680 3682
3680 3689
3681 6263
3682 3687
3683 6263
3684 3685
3684 3686
3684 3689
3684 3690
3685 3686
3685 3689
3685 3690
3686 3689
3687 3689
3688 6264
3688 6765
3689 3690
3690 4117
3690 5404
3691 3693
3694 6463
3694 7343
3694 7355
3694 8440
3694 7344
3694 4840
3694 8898
3694 5179
3694 8900
3694 7345
3694 8442
3694 8901
3694 8902
3694 6464
3694 8903
3694 8443
3694 8970
3694 7349
3695 7343
3696 5690
3697 3698
3698 9437
3699 3700
3699 3701
3699 3702
3699 3703
3700 3701
3700 3703
3701 3702
3701 3703
3702 3703
3704 3705
3704 3706
3704 3707
3704 3708
3704 3709
3705 3706
3705 5957
3705 5958
3705 3709
3706 6439
3706 5957
3706 6440
3706 6441
3706 6442
3706 3708
3706 6443
3706 6444
3706 6445
3706 6446
3706 6447
3706 6448
3706 6449
3706 6450
3706 6451
3706 3709
3707 7365
3707 8938
3707 3708
3707 6449
3707 3709
3708 5466
3708 6439
3708 5957
3708 6442
3708 7365
3708 8938
3708 6445
3708 6449
3708 6451
3708 3709
3709 5957
3709 6445
3709 6448
3709 6450
3710 3711
3710 3712
3710 3713
3710 3714
3710 3715
3711 5189
3711 3712
3711 3713
3711 3714
3711 3715
3712 5189
3712 3713
3712 3714
3712 3715
3713 5189
3713 3714
3713 3715
3714 5189
3714 3715
3715 5189
3716 3717
3716 3718
3716 3719
3716 3720
3717 3718
3717 4472
3717 3719
3717 3720
3717 4473
3717 4474
3718 4472
3718 3719
3718 3720
3718 4474
3719 3720
3719 9358
3720 4474
3721 3722
3726 3727
3726 3728
3727 3728
3727 8643
3729 3730
3729 3731
3729 3732
3730 3731
3730 3732
3730 7080
3731 7078
3731 7079
3731 3732
3731 8284
3731 7080
3731 7081
3732 7077
3732 7078
3732 7079
3732 8284
3732 7080
3732 7081
3733 3734
3733 3735
3733 3736
3733 3737
3733 3738
3733 3739
3733 3740
3733 3741
3733 3742
3734 5346
3734 5347
3734 5348
3734 5349
3734 3736
3734 5350
3734 3738
3734 3739
3734 5351
3734 5352
3734 3740
3734 3741
3735 5346
3735 5347
3735 5348
3735 5349
3735 3736
3735 6884
3735 5350
3735 3737
3735 3738
3735 5351
3735 6885
3735 5352
3735 3740
3735 3741
3735 3742
3735 6886
3736 5346
3736 5347
3736 5348
3736 5349
3736 6884
3736 5350
3736 3737
3736 8846
3736 3738
3736 3739
3736 5351
3736 6885
3736 5352
3736 3740
3736 3741
3736 3742
3736 6886
3737 5350
3737 3741
3738 3741
3739 3741
3740 3741
3741 5346
3741 5347
3741 5348
3741 5349
3741 5350
3741 8846
3741 5351
3741 5352
3741 3742
3742 5350
3743 3744
3743 3745
3743 3746
3744 5247
3744 3745
3744 5248
3744 3746
3745 5247
3745 5248
3745 3746
3746 5247
3746 5248
3753 3754
3753 3755
3753 3756
3753 3757
3754 3755
3754 3756
3754 3758
3754 3759
3755 3756
3755 3758
3755 3760
3755 3761
3755 3762
3756 3763
3756 3757
3756 3764
3757 3760
3757 3761
3757 7906
3757 3766
3757 8873
3757 3762
3757 3764
3757 7907
3758 3765
3758 3761
3758 3766
3758 3764
3759 3763
3759 3766
3759 8873
3759 3762
3759 3764
3760 3765
3760 7907
3761 3765
3761 7906
3761 7907
3762 3763
3762 3766
3763 3766
3763 8873
3763 3764
3764 3766
3764 8873
3765 7906
3765 7907
3766 8873
3767 3768
3767 3769
3767 3770
3767 3771
3767 3772
3768 3770
3768 3771
3768 3772
3769 3770
3769 3771
3770 3771
3771 3772
3773 3774
3773 3775
3773 3776
3774 3775
3774 3776
3775 3776
3778 3779
3780 6806
3780 8063
3780 8511
3780 6807
3781 3782
3781 3783
3781 3784
3782 3783
3782 9455
3782 3784
3783 9455
3783 3784
3784 9452
3784 9453
3784 9455
3785 3786
3785 3787
3785 3788
3786 4710
3786 4711
3786 4712
3787 4710
3787 7847
3787 4711
3787 3788
3787 4712
3788 4712
3789 3790
3789 3791
3789 3792
3790 6192
3790 3791
3790 3792
3790 6194
3791 6191
3791 6192
3791 6193
3791 3792
3792 6191
3792 6192
3792 6193
3792 6194
3793 3796
3796 3800
3796 3802
3798 4342
3799 5093
3799 4529
3799 3800
3799 6754
3799 6755
3799 3838
3800 3836
3800 4523
3800 4524
3800 4365
3800 4525
3800 6564
3800 4526
3800 4527
3800 6565
3800 4529
3800 3837
3800 3838
3801 3836
3803 4199
3803 4338
3803 4339
3803 4522
3803 4341
3803 4342
3803 4343
3803 4528
3803 4532
3804 4534
3805 4342
3806 4342
3808 7701
3810 4454
3811 4969
3812 9560
3812 7568
3812 9561
3813 3814
3814 3861
3814 5300
3814 6929
3814 6931
3814 6935
3814 7803
3814 5306
3814 5308
3814 6937
3814 5310
3814 7804
3814 6940
3815 3816
3815 3817
3815 3818
3815 3819
3815 3820
3815 3821
3816 3817
3816 3820
3816 6176
3816 3821
3817 3818
3817 3819
3817 3820
3817 3821
3818 3819
3818 3820
3818 3821
3819 3820
3819 3821
3820 3821
3822 3823
3822 3824
3822 3825
3822 3826
3822 3827
3823 4279
3823 4280
3823 3824
3823 3825
3823 4281
3823 3826
3823 3827
3823 4282
3824 4280
3824 4281
3824 3826
3824 3827
3824 4282
3825 6589
3825 6590
3825 4280
3825 6591
3825 6797
3825 5842
3825 3826
3825 4282
3825 5843
3826 6589
3826 6590
3826 4280
3826 4968
3826 6797
3826 4552
3826 3827
3826 4282
3826 5843
3827 4282
3830 4689
3830 3831
3833 3834
3834 6261
3834 6756
3835 3836
3835 3837
3835 3838
3836 4364
3836 4365
3836 4366
3836 3837
3836 4367
3836 3838
3837 4364
3837 4365
3837 7166
3837 4366
3837 4367
3837 3838
3838 5093
3838 4364
3838 6564
3838 6565
3838 4366
3838 4200
3838 4367
3838 9572
3838 4344
3839 3840
3839 3841
3839 3842
3839 3843
3839 3844
3839 3845
3839 3846
3839 3847
3839 3848
3839 3849
3839 3850
3839 3851
3839 3852
3840 3842
3840 3844
3840 3846
3840 3849
3840 3851
3841 4116
3841 3842
3841 3844
3841 6609
3841 3845
3841 3846
3841 3847
3841 3848
3841 3850
3841 3852
3842 3844
3842 3845
3842 3848
3842 3849
3842 3850
3842 3851
3843 3845
3843 3847
3843 3850
3844 4116
3844 3845
3845 4116
3845 3848
3845 3850
3845 3851
3846 3848
3846 3850
3847 6609
3847 3848
3847 3850
3848 4116
3848 6609
3848 3850
3848 3851
3848 3852
3849 6609
3849 3850
3850 6609
3850 3852
3854 3855
3854 3856
3854 3857
3854 3858
3854 3859
3854 3860
3855 3856
3855 6851
3856 7781
3856 3857
3856 6851
3856 7782
3856 3859
3857 7781
3857 6851
3857 7782
3858 7974
3858 7975
3858 7976
3858 7978
3858 7979
3858 7980
3858 7981
3858 3860
3859 6851
3860 7974
3860 7975
3860 7976
3860 7977
3860 7978
3860 7979
3860 6851
3860 9342
3860 7980
3860 8801
3860 7981
3860 7782
3862 3863
3862 3864
3862 3865
3862 3866
3862 3867
3862 3868
3862 3869
3862 3870
3862 3871
3862 3872
3862 3873
3862 3874
3862 3875
3863 5760
3863 3866
3863 5761
3864 3866
3864 3867
3864 3870
3864 3874
3865 5760
3865 5761
3866 5952
3866 4775
3866 5953
3866 5760
3866 3867
3866 5761
3866 3868
3866 3869
3866 3870
3866 3873
3866 4777
3866 3874
3866 3875
3866 8371
3867 3869
3867 3870
3867 3873
3868 4778
3869 3873
3870 3874
3870 3875
3871 5760
3871 3873
3872 5760
3872 5547
3872 5761
3873 4606
3873 4607
3873 4775
3873 5760
3873 4777
3873 3875
3873 8371
3873 4778
3876 5635
3876 5636
3876 3878
3876 5376
3877 5635
3877 3879
3877 7843
3878 5375
3878 5636
3878 8922
3878 5376
3878 5377
3879 5635
3879 7843
3880 7843
3881 3882
3881 3883
3881 3884
3881 3885
3881 3886
3883 7968
3883 3884
3883 3885
3883 7969
3883 7970
3884 7968
3884 3885
3884 3886
3885 7968
3885 9182
3885 3886
3885 7969
3885 7970
3885 9183
3885 9184
3886 7968
3886 9182
3886 7969
3886 9183
3886 9184
3887 3888
3887 3889
3887 3890
3887 3891
3887 3892
3887 3893
3888 3889
3888 3890
3888 3893
3889 5903
3889 3890
3889 3891
3889 3893
3890 5903
3890 3891
3890 3892
3891 5903
3891 3893
3892 5903
3892 3893
3893 5903
3894 3895
3894 3896
3895 3896
3897 3898
3897 3899
3899 6567
3899 6573
3900 3901
3900 3904
3900 3905
3901 3902
3901 3903
3901 5426
3901 5427
3901 3908
3901 5428
3902 3903
3902 5426
3902 3905
3902 5427
3902 5428
3903 3908
3904 5902
3904 5426
3904 3905
3904 3906
3904 3907
3904 5428
3905 5902
3905 3906
3905 3907
3906 5902
3908 5427
3909 3910
3909 3911
3910 7563
3910 8444
3910 8577
3910 7564
3910 7565
3910 9282
3910 7514
3910 7515
3910 7516
3910 7518
3910 7519
3910 9415
3910 3911
3910 7520
3911 7563
3911 8444
3911 8577
3911 7565
3911 9588
3911 9415
3912 3913
3913 7767
3913 8333
3913 6558
3913 4333
3913 7897
3913 6560
3914 3915
3914 3916
3914 3917
3914 3918
3914 3919
3914 3920
3915 5243
3915 7069
3915 5244
3915 3920
3916 5243
3916 5244
3916 3920
3917 5243
3917 5244
3917 5245
3917 3920
3918 5243
3918 5244
3918 3920
3919 5242
3919 5243
3919 5244
3919 5245
3920 5241
3920 5243
3920 7069
3920 5244
3920 5245
3921 3922
3921 3923
3921 3924
3921 3925
3921 3926
3922 5246
3922 6858
3922 3923
3922 8742
3922 3924
3922 8743
3922 3925
3922 8744
3922 3926
3923 5246
3923 6858
3923 8742
3923 3924
3923 8743
3923 3925
3923 8744
3923 3926
3923 6859
3924 5246
3924 6858
3924 8742
3924 8743
3924 3925
3924 8744
3924 3926
3924 6859
3925 5246
3925 6858
3925 8742
3925 8743
3925 8744
3925 3926
3925 6859
3926 5246
3926 6858
3926 8742
3926 8743
3926 8744
3926 6859
3927 3928
3927 3929
3927 3930
3927 3931
3928 5754
3928 3929
3928 5758
3928 3930
3929 5754
3929 5755
3929 9171
3929 3930
3929 3931
3930 5754
3930 5755
3930 5756
3930 9185
3930 5757
3930 9171
3930 5758
3930 3931
3931 5754
3931 5755
3931 5756
3931 9171
3931 5758
3932 6647
3932 6649
3932 6654
3933 3934
3933 3935
3933 3936
3933 3937
3933 3938
3933 3939
3933 3940
3933 3941
3933 3942
3933 3943
3933 3944
3934 3936
3934 3937
3934 4195
3934 3938
3934 3939
3934 3940
3934 3941
3934 4196
3934 3942
3934 3943
3934 4197
3934 4198
3935 3936
3935 3937
3935 4308
3935 3938
3935 4196
3936 3938
3936 3939
3936 3941
3936 4196
3936 3943
3936 4197
3936 3944
3936 5254
3936 4198
3937 3940
3938 4308
3938 4195
3938 3939
3938 3940
3938 3941
3938 4196
3938 3943
3938 3944
3938 5254
3938 4198
3940 4308
3940 4196
3940 3942
3940 5254
3940 4198
3941 4308
3941 4195
3941 3942
3941 3944
3941 5254
3942 8950
3945 7583
3945 7586
3947 5534
3947 9082
3947 3950
3947 3951
3948 5534
3948 5536
3948 9459
3948 3950
3950 8891
3950 5536
3950 9211
3950 9212
3950 3951
3952 3953
3952 3954
3952 3955
3952 3956
3953 3956
3954 4489
3954 8657
3954 3955
3954 8658
3954 5142
3955 5140
3955 5141
3955 4347
3955 4348
3955 3956
3955 8826
3959 4471
3959 6287
3959 4789
3960 3961
3960 3962
3960 3963
3960 3964
3960 3965
3960 3966
3960 3967
3961 3962
3961 4518
3961 3963
3961 3964
3961 3965
3961 4519
3961 3966
3961 3967
3962 4518
3962 3963
3962 3964
3963 4518
3963 3964
3963 3965
3963 4519
3963 3966
3963 3967
3964 4518
3964 3965
3964 4519
3964 3966
3966 4518
3966 4519
3966 3967
3967 4519
3968 5462
3969 3972
3969 3973
3969 3976
3971 7444
3971 3973
3971 3974
3971 3976
3971 5096
3972 8164
3972 3975
3972 3976
3973 7444
3973 8717
3973 5497
3973 3974
3974 5094
3974 5095
3974 9438
3975 5462
3977 3978
3977 3979
3977 3980
3977 3981
3978 9162
3978 3979
3978 3980
3978 3981
3979 9162
3979 3980
3979 3981
3980 9162
3980 3981
3981 9162
3982 3983
3982 3984
3983 5131
3983 6378
3983 6951
3983 6380
3983 6381
3983 6382
3983 6383
3983 6952
3983 6384
3983 6385
3983 6953
3983 6386
3983 6954
3983 3984
3984 6378
3984 6383
3984 6952
3984 6384
3984 6953
3985 3986
3985 3987
3985 3988
3985 3989
3985 3990
3986 8086
3986 8088
3986 8089
3986 3987
3986 8090
3986 3988
3986 8091
3987 8086
3987 8087
3987 8088
3987 8089
3987 8090
3987 3988
3987 3989
3987 3990
3988 8090
3988 3989
3988 3990
3988 8091
3989 8088
3989 8090
3989 3990
3990 8090
3991 3992
3992 5156
3992 6709
3992 8614
3992 6711
3992 6714
3992 9199
3992 6719
3992 9200
3992 6720
3992 9201
3992 4567
3992 6722
3993 3994
3993 3995
3993 3996
3993 3997
3994 8859
3994 8640
3994 3995
3994 3996
3994 9068
3994 3997
3995 6620
3995 8859
3995 8988
3995 8639
3995 8640
3995 3996
3995 9491
3995 9068
3995 8641
3995 9525
3995 9449
3995 3997
3996 6619
3996 6620
3996 8639
3996 8640
3996 9491
3996 9448
3996 9525
3996 3997
3997 6620
3997 8859
3997 8988
3997 8639
3997 8640
3997 9448
3997 9068
3997 8641
3997 9525
3997 9449
3999 4000
3999 4001
4000 4818
4000 4821
4000 4822
4000 6692
4000 4001
4000 6693
4001 4818
4001 6692
4001 6693
4002 4003
4002 4004
4003 8548
4003 5151
4003 4004
4004 8246
4004 5151
4004 8604
4005 8578
4005 8579
4006 4007
4006 4008
4006 4009
4007 4008
4007 9461
4008 9605
4008 4009
4008 9461
4009 9605
4009 9461
4010 4011
4010 4012
4010 4013
4011 8175
4011 8176
4011 4012
4011 4013
4011 7266
4011 8178
4011 8179
4011 9306
4011 9307
4012 7265
4012 8175
4012 8728
4012 8176
4012 9404
4012 4013
4012 7266
4012 8729
4012 8178
4012 8179
4012 9306
4012 9307
4013 8175
4013 8728
4013 8177
4013 9404
4013 7266
4013 8729
4013 8178
4013 8179
4013 9306
4014 4015
4014 4016
4014 4017
4015 4016
4015 4017
4016 4017
4018 4019
4018 4020
4018 4021
4018 4022
4018 4023
4019 4020
4019 4021
4019 4022
4020 6420
4020 4021
4020 4022
4021 6420
4021 4022
4021 4023
4022 6420
4022 4023
4024 4025
4024 4026
4024 4027
4025 4625
4025 4626
4025 4627
4025 4812
4025 4813
4025 4628
4025 4027
4025 4630
4025 4815
4026 4625
4026 4628
4026 4629
4026 4027
4026 4630
4027 4625
4027 4626
4027 4627
4027 4812
4027 4813
4027 4628
4027 4814
4027 4815
4028 4029
4028 4030
4028 4031
4028 4032
4028 4033
4028 4034
4028 4035
4029 6896
4029 4030
4029 4033
4029 4034
4030 4031
4030 4032
4030 4033
4030 4034
4030 8332
4031 5280
4031 4032
4031 4033
4031 8733
4031 8734
4031 8735
4031 4034
4031 4035
4031 8736
4031 8332
4031 5092
4032 6896
4032 4034
4033 6896
4033 4034
4033 4035
4034 6896
4034 8734
4034 9378
4034 4035
4034 8736
4034 8332
4035 9377
4036 4037
4036 4038
4036 4039
4036 4040
4036 4041
4038 4039
4038 4041
4039 4041
4041 9356
4042 4043
4042 4044
4042 4045
4042 4046
4042 4047
4042 4048
4043 4044
4043 4045
4043 4047
4043 7402
4043 4048
4044 4045
4044 4046
4044 4047
4044 7402
4044 4048
4045 4046
4045 4047
4045 7402
4045 4048
4046 4047
4046 4048
4047 7402
4047 4048
4048 7402
4049 4050
4049 4051
4049 4052
4049 4053
4049 4054
4049 4055
4049 4056
4049 4057
4049 4058
4049 4059
4049 4060
4049 4061
4049 4062
4050 4051
4050 4056
4050 4063
4050 4057
4050 4058
4051 4053
4051 4056
4051 4063
4051 4058
4052 6544
4052 4057
4052 4058
4052 4061
4053 4056
4053 4057
4053 4058
4054 6545
4054 4055
4054 4061
4054 8827
4055 7964
4055 4056
4055 4057
4055 4059
4055 8828
4055 6546
4055 4060
4055 4061
4055 8827
4056 4063
4056 4057
4056 4059
4056 8828
4056 4062
4056 8827
4057 6545
4057 7964
4057 4063
4057 4058
4057 4059
4057 8828
4057 6546
4057 4061
4057 4062
4057 8827
4059 8828
4059 4061
4060 8828
4060 6546
4060 8827
4061 7964
4061 4062
4061 8827
4061 7253
4062 6546
4063 8828
4064 4065
4064 4066
4064 4067
4064 4068
4064 4069
4065 8392
4066 4068
4066 8392
4067 4069
4068 8392
4070 4071
4070 4072
4070 4073
4071 4072
4071 4437
4071 4438
4071 4439
4071 4073
4071 4440
4072 4437
4072 4438
4072 4439
4072 4073
4072 4440
4073 4438
4074 4075
4074 4076
4074 4077
4074 4078
4075 5049
4075 5050
4075 4076
4075 5051
4075 5052
4075 5053
4075 5054
4075 5055
4075 4077
4075 5056
4076 5049
4076 5050
4076 8109
4076 5051
4076 5052
4076 5053
4076 5055
4076 4077
4076 4078
4076 5056
4076 8110
4077 5049
4077 5050
4077 8109
4077 5051
4077 5052
4077 5053
4077 4078
4077 5056
4077 8110
4078 5049
4078 5050
4078 5052
4078 5053
4078 5055
4078 5056
4078 8110
4079 4080
4079 4081
4079 4082
4079 4083
4080 8656
4080 6272
4081 6272
4082 6272
4082 4083
4083 4786
4083 8656
4083 6272
4084 8943
4084 9346
4085 6245
4085 6246
4085 4087
4085 6247
4085 6248
4085 4088
4085 4089
4085 4091
4086 6246
4086 4087
4086 6248
4086 4091
4087 6245
4087 6246
4087 7486
4087 7482
4087 6247
4087 6248
4087 4089
4087 4091
4088 6246
4088 6248
4088 4091
4089 6246
4089 6248
4091 6245
4091 6246
4091 6247
4091 6248
4092 4093
4093 4147
4093 5368
4093 4150
4097 4098
4098 7087
4098 7165
4098 8592
4098 7904
4099 4100
4099 4101
4099 4102
4099 4103
4099 4104
4099 4105
4099 4106
4100 5586
4100 5587
4100 4101
4100 4102
4100 4105
4100 4106
4101 5586
4101 4102
4101 4104
4102 5586
4102 5587
4102 4104
4102 5596
4102 5597
4102 4105
4102 4106
4103 9166
4104 5586
4104 5587
4106 5588
4107 4108
4107 4109
4108 4980
4109 4980
4110 4111
4111 5591
4111 5592
4111 5593
4111 5594
4111 5595
4112 4113
4112 4114
4112 4115
4113 4114
4113 4115
4113 4994
4114 7154
4114 4115
4114 7156
4114 4994
4114 7157
4115 4994
4115 8196
4118 4119
4118 4120
4118 4121
4118 4122
4118 4123
4118 4124
4118 4125
4118 4126
4118 4127
4118 4128
4118 4129
4118 4130
4119 4120
4119 4121
4119 4122
4119 4125
4120 4121
4120 4122
4120 6670
4120 4123
4120 4124
4120 4125
4120 4126
4120 4127
4120 4128
4120 4129
4120 4130
4121 4122
4121 6706
4121 6670
4121 4123
4121 4124
4121 6707
4121 4125
4121 4126
4121 4127
4121 4128
4121 4129
4121 4130
4122 6707
4122 4125
4122 4128
4122 4129
4123 4125
4123 4129
4124 6670
4124 4129
4125 6707
4125 4127
4125 4129
4126 6670
4126 4129
4127 4130
4128 4129
4129 6706
4129 6670
4129 6707
4129 4130
4130 6706
4130 6707
4131 4132
4131 4133
4131 4134
4132 4133
4132 4134
4133 4134
4138 4139
4138 4141
4138 4142
4138 4143
4138 4145
4139 4140
4139 4141
4139 4142
4139 4143
4139 4144
4139 4145
4140 4141
4140 4142
4140 4143
4141 4142
4141 4143
4141 4145
4142 4143
4143 4144
4143 4145
4146 4147
4146 4152
4146 4153
4146 4788
4147 4148
4147 4149
4147 4151
4147 4152
4147 4153
4147 4788
4148 4149
4149 5368
4149 4150
4151 4152
4151 4153
4151 4788
4152 4788
4154 4155
4154 4156
4154 4157
4154 4158
4154 4159
4154 4160
4155 4156
4155 4157
4155 5008
4155 5009
4155 4158
4155 4159
4155 5010
4155 4160
4155 5011
4155 5012
4155 5013
4156 4158
4156 4159
4156 4160
4157 4158
4157 4159
4157 4160
4158 5009
4158 4159
4158 4160
4158 5011
4158 5012
4158 8597
4159 5008
4159 5009
4159 5010
4159 4160
4159 5011
4159 5012
4159 5013
4159 8597
4160 5008
4160 5009
4160 5010
4160 5011
4160 5012
4160 5013
4160 8597
4161 4162
4161 4163
4161 4164
4161 4165
4161 4166
4161 4167
4161 4168
4161 4169
4161 4170
4162 4163
4162 5143
4162 4164
4162 4165
4162 4166
4162 4167
4162 4168
4162 4169
4162 4170
4163 4167
4163 4170
4164 4165
4164 4166
4164 4167
4164 4168
4164 4169
4164 4170
4165 4170
4166 4167
4166 4170
4167 5143
4167 5060
4167 4170
4168 4170
4169 4170
4171 4172
4172 5650
4173 4174
4173 4175
4173 4176
4173 4177
4174 5125
4174 8119
4174 8254
4174 4175
4174 8812
4174 8255
4174 8813
4174 4176
4174 8814
4174 4177
4175 5125
4175 5501
4175 4369
4175 7267
4175 6002
4175 6003
4175 7919
4175 6004
4175 8119
4175 7063
4175 8702
4175 6005
4175 8812
4175 4370
4175 4825
4175 9314
4175 9315
4175 9316
4175 6006
4175 4176
4175 9317
4175 9318
4175 8814
4175 8257
4175 4826
4175 4827
4175 5126
4175 9319
4175 4177
4175 9320
4175 9321
4176 4369
4176 7919
4176 8119
4176 8787
4176 8800
4176 9087
4176 9160
4176 9175
4176 9536
4176 9318
4176 8814
4176 9589
4176 4177
4176 9320
4177 5501
4177 6900
4177 7267
4177 8119
4177 8254
4177 8702
4177 8787
4177 8800
4177 9160
4177 9175
4177 4370
4177 9314
4177 9315
4177 8255
4177 8813
4177 9557
4177 9317
4177 9318
4177 8814
4177 5126
4177 9445
4177 9319
4177 9320
4177 9321
4178 4179
4178 4180
4178 4181
4178 4182
4178 4183
4178 4184
4179 7397
4179 4181
4179 4182
4179 7398
4179 4183
4179 7399
4179 4184
4180 4182
4180 4183
4180 4184
4181 4182
4181 4183
4182 7455
4182 4183
4182 7399
4182 4184
4183 7453
4183 7454
4183 7455
4183 7456
4183 7457
4183 7458
4183 7459
4183 4184
4184 7399
4191 7254
4191 7255
4192 6955
4192 4193
4192 8976
4195 4196
4196 4198
4197 4308
4197 8950
4199 4200
4200 4338
4200 4339
4200 4341
4200 4342
4200 4343
4201 4202
4201 4203
4201 4204
4201 4205
4202 7489
4202 4203
4202 7490
4202 4204
4202 7491
4203 7489
4203 7490
4203 4204
4203 7491
4203 4205
4204 7489
4204 4205
4205 7489
4207 4208
4208 4555
4208 8791
4208 8792
4208 8794
4208 9088
4208 9089
4208 8798
4210 4213
4211 4213
4212 4213
4213 4995
4213 4996
4213 4214
4213 4215
4213 8118
4213 4216
4217 4218
4217 4219
4217 4220
4218 4219
4218 4220
4219 4220
4221 4222
4222 7851
4223 4224
4223 4225
4223 4226
4223 4227
4223 4228
4224 6096
4224 6097
4224 4226
4225 4226
4226 5881
4226 4817
4226 5883
4226 6097
4226 5885
4226 5886
4226 9586
4226 4227
4226 4228
4227 5886
4228 5881
4228 5886
4229 4230
4229 4231
4230 4231
4230 6617
4230 6618
4241 4243
4241 8414
4241 8095
4242 8306
4242 4243
4242 8414
4242 8307
4242 8095
4243 8306
4243 8414
4243 8307
4243 6112
4243 8095
4243 4244
4243 4245
4245 6112
4246 4247
4246 4248
4246 4249
4246 4250
4247 4756
4247 5496
4247 5497
4247 4758
4247 4250
4248 7682
4248 8674
4248 8675
4248 4249
4249 4250
4250 4756
4250 7064
4250 5497
4250 8674
4252 4253
4252 4254
4252 4255
4252 4256
4252 4257
4252 4258
4253 4255
4253 4256
4253 4257
4254 4255
4254 4256
4254 6251
4254 4257
4254 4258
4255 4256
4255 6251
4255 4257
4255 4258
4256 6251
4257 6251
4262 4263
4262 4264
4263 7268
4263 8099
4263 7269
4263 4264
4264 7268
4264 8099
4266 4267
4266 4268
4266 4269
4267 5411
4267 5412
4267 4268
4267 4269
4267 5641
4267 5413
4268 5411
4268 5412
4268 8266
4268 4269
4268 5413
4269 5411
4269 5412
4269 8266
4269 5413
4270 4271
4270 4272
4270 4273
4270 4274
4270 4275
4270 4276
4271 4272
4271 5502
4271 4273
4271 4275
4271 4276
4272 5502
4272 7763
4272 4273
4272 4275
4272 7764
4272 4276
4273 5502
4273 7763
4273 4274
4273 4275
4273 7764
4273 4276
4274 7236
4274 5724
4275 5502
4275 7763
4275 7236
4275 5724
4275 7764
4275 4276
4276 5502
4276 7763
4276 5724
4277 4278
4278 7989
4278 7990
4278 7991
4278 9281
4279 4967
4279 4280
4279 4281
4279 4968
4280 4281
4282 6589
4282 6590
4282 6591
4282 6797
4282 5843
4283 4284
4283 4285
4283 4286
4283 4287
4283 4288
4284 4285
4284 4286
4284 4287
4284 5527
4285 4286
4285 4287
4285 5527
4285 4288
4286 4287
4286 5527
4288 5527
4289 4290
4289 4291
4289 4292
4289 4293
4290 7723
4290 6988
4290 4291
4290 4293
4291 7723
4291 4293
4292 6986
4292 7723
4292 8074
4292 8075
4292 9227
4292 6988
4292 9267
4292 6989
4293 6986
4293 7723
4295 6232
4295 9145
4295 6552
4295 6235
4295 6236
4295 9386
4295 9566
4297 4375
4298 4375
4299 4302
4299 4303
4299 4305
4300 7464
4300 4306
4301 4302
4301 4303
4301 4305
4302 4303
4302 4305
4303 4305
4304 7464
4306 7464
4307 7464
4307 9244
4309 4311
4310 4311
4311 9044
4311 9045
4311 9046
4311 9587
4312 4313
4312 4314
4312 4315
4313 4314
4313 4315
4314 4315
4316 4317
4316 4318
4323 8908
4324 4325
4324 4326
4324 4327
4324 4328
4324 4329
4324 4330
4324 4331
4325 6553
4325 4326
4325 6555
4325 6556
4325 4327
4325 4328
4325 7495
4325 4329
4325 4330
4325 7524
4325 4331
4326 6553
4326 6554
4326 6555
4326 6556
4326 4327
4326 4328
4326 7495
4326 4329
4326 4330
4326 7496
4326 7524
4326 4331
4326 6557
4327 6553
4327 4328
4327 4329
4327 4330
4327 4331
4328 4330
4329 6553
4329 6555
4329 4330
4330 6553
4330 7494
4330 6554
4330 6555
4330 6556
4330 7495
4330 7496
4330 7524
4330 4331
4330 6557
4332 4333
4332 4334
4332 4335
4333 7896
4333 6558
4333 6559
4333 7720
4333 6561
4333 7721
4333 6562
4333 7722
4335 7720
4335 7721
4335 7722
4342 4522
4342 4528
4342 4532
4342 4344
4345 4348
4345 4349
4346 4348
4346 4349
4348 8657
4348 5837
4350 4351
4350 4352
4351 4352
4353 4354
4353 4355
4353 4356
4353 4357
4353 4358
4353 4359
4353 4360
4353 4361
4354 4356
4354 5966
4354 4357
4354 4358
4354 4359
4354 4360
4354 5967
4354 4361
4355 4356
4355 4357
4355 4360
4355 5967
4356 8275
4356 5966
4356 4357
4356 4358
4356 8341
4356 8276
4356 4359
4356 8277
4357 5966
4357 4360
4357 5967
4357 4361
4358 8275
4358 8341
4358 8276
4358 8277
4359 8277
4360 6259
4360 8275
4360 5966
4360 8341
4360 5967
4360 4361
4360 8277
4361 6259
4361 5966
4361 8598
4361 5967
4361 8277
4369 7063
4370 6900
4370 8800
4370 9175
4370 8257
4370 9445
4370 8258
4372 4373
4372 4374
4372 4375
4373 5226
4373 6249
4373 7058
4373 7059
4373 8557
4373 4374
4373 4375
4374 5226
4374 7058
4374 7059
4374 8557
4374 4375
4375 8557
4376 4377
4377 8302
4378 4379
4378 4380
4378 4381
4378 4382
4379 6387
4379 7474
4379 8194
4379 4380
4379 4382
4379 6388
4380 6387
4380 7474
4380 7475
4380 4382
4380 6388
4381 5489
4381 5490
4381 5491
4381 5492
4381 5494
4381 6388
4381 5495
4382 7474
4382 8194
4382 7475
4382 6388
4383 4384
4383 4385
4383 4386
4383 4387
4383 4388
4384 5120
4384 4388
4384 5121
4385 6723
4385 4387
4385 6724
4385 4388
4386 5120
4386 6724
4386 4388
4387 6723
4387 4388
4388 6723
4388 5120
4388 6724
4388 5121
4389 4448
4389 4451
4390 7414
4391 7414
4392 5158
4392 4399
4392 9129
4392 9442
4397 7414
4398 7414
4399 7414
4401 7414
4402 7414
4406 5615
4406 5616
4406 5617
4407 5549
4409 4410
4409 4411
4409 4412
4409 4413
4409 4414
4409 4415
4410 4411
4410 4413
4410 7895
4410 4414
4410 4415
4411 4412
4411 4413
4411 7895
4411 4414
4411 4415
4412 4413
4412 4414
4413 7895
4413 4414
4413 4415
4414 7895
4414 4415
4416 4417
4416 4418
4416 4419
4416 4420
4416 4421
4416 4422
4416 4423
4416 4424
4417 5634
4417 4418
4417 5514
4417 5515
4418 4641
4418 5634
4418 4421
4418 4423
4418 7451
4418 4424
4419 5634
4419 7928
4419 4423
4419 7451
4419 4424
4420 5634
4420 5514
4420 5515
4420 4424
4421 5634
4421 7928
4421 7451
4422 5513
4422 5634
4422 9411
4422 9412
4422 5516
4422 4424
4422 9413
4423 7928
4423 7451
4424 5515
4426 4427
4427 4428
4429 4430
4429 4431
4429 4432
4429 4433
4429 4434
4429 4435
4429 4436
4430 5752
4430 5753
4431 4433
4431 4435
4431 4436
4432 6610
4432 9144
4432 9460
4432 4433
4432 6611
4432 4435
4432 6612
4433 9144
4433 6612
4433 4436
4434 9144
4434 6611
4434 6612
4435 9460
4435 4436
4436 6610
4437 7507
4437 4439
4437 4440
4438 4439
4438 4440
4439 4440
4440 7507
4441 5637
4441 6368
4441 6366
4443 8180
4443 8181
4444 4445
4444 4446
4444 4447
4444 4448
4444 4449
4444 4450
4444 4451
4444 4452
4444 4453
4445 5373
4445 4446
4445 4447
4445 4448
4445 5374
4445 4449
4445 4451
4445 4452
4445 4453
4446 5373
4446 5374
4446 4451
4446 4453
4447 5373
4447 5374
4447 4449
4447 4451
4448 4449
4448 4450
4448 4451
4448 4452
4448 4453
4449 5373
4449 5374
4449 4451
4450 4453
4451 5374
4451 4452
4451 4453
4452 6054
4452 4453
4453 6054
4455 7417
4456 4457
4456 4458
4456 4459
4458 5721
4458 4459
4458 7760
4458 7761
4459 5723
4459 7760
4459 7761
4462 4463
4462 4464
4462 4465
4463 6459
4463 6504
4463 6505
4463 6506
4463 8318
4463 7191
4463 6508
4463 9063
4463 7192
4463 9064
4463 7193
4463 4464
4463 6510
4463 4465
4463 6511
4463 8319
4463 6512
4464 8318
4464 9064
4464 4465
4464 8319
4465 6503
4465 6221
4465 8318
4465 6507
4465 9063
4465 6509
4465 9064
4465 7193
4465 6460
4465 6510
4465 8319
4465 6512
4466 4467
4466 4468
4466 4469
4466 4470
4467 5268
4467 4470
4467 5269
4468 4469
4468 5268
4469 8637
4469 8638
4472 9357
4472 9358
4472 4473
4473 9357
4473 9358
4475 9414
4476 4477
4476 4478
4476 4479
4476 4480
4477 4478
4477 4479
4477 4480
4478 4479
4478 4480
4479 4480
4482 4483
4482 4484
4482 4485
4482 4486
4483 7929
4483 4484
4483 4485
4483 7930
4483 7931
4483 7932
4483 7933
4483 7934
4483 7935
4483 7936
4483 7937
4483 7938
4483 7939
4483 7940
4483 7941
4483 7942
4483 4486
4483 5717
4484 5716
4484 7929
4484 8282
4484 4485
4484 7931
4484 7932
4484 7933
4484 7935
4484 7937
4484 7938
4484 7939
4484 8283
4484 7940
4484 7941
4484 4486
4484 5717
4485 5716
4485 7929
4485 8282
4485 7930
4485 7931
4485 7932
4485 7933
4485 7934
4485 7936
4485 7938
4485 7939
4485 8283
4485 7940
4485 7942
4485 4486
4485 5717
4486 5716
4486 7929
4486 8282
4486 7930
4486 7933
4486 7934
4486 7935
4486 7936
4486 7939
4486 8283
4486 7940
4486 7942
4486 5717
4487 4488
4488 5881
4488 6683
4488 6684
4488 6685
4489 5140
4489 5141
4489 5142
4490 6022
4490 4491
4490 4492
4490 6023
4491 6881
4491 6882
4491 6883
4492 6022
4492 6881
4492 6882
4492 6883
4494 4495
4495 6669
4496 4497
4496 4498
4496 4499
4496 4500
4496 4501
4496 4502
4496 4503
4496 4504
4496 4505
4496 4506
4497 4498
4497 4501
4497 4504
4498 5782
4498 4500
4498 4501
4498 4502
4498 5783
4498 5784
4498 4504
4498 5785
4498 5786
4498 5787
4498 4506
4499 5782
4499 4500
4499 4502
4500 5782
4500 4501
4500 4504
4501 5782
4501 4502
4501 4503
4501 4504
4501 5785
4501 5787
4501 4505
4502 4506
4503 5782
4504 5782
4504 5785
4504 5786
4504 5787
4504 4505
4506 5782
4506 5783
4507 4508
4508 4612
4508 4613
4509 4510
4509 4511
4509 4512
4509 4513
4510 4511
4510 4512
4510 9487
4510 4513
4511 4512
4511 9487
4511 4513
4512 9487
4512 4513
4513 9487
4514 4515
4514 4516
4514 4517
4515 4678
4515 6822
4515 6823
4515 4517
4516 4517
4517 4678
4517 8281
4517 8200
4517 4679
4520 5982
4520 5069
4520 4521
4521 5063
4521 5065
4523 4529
4527 6563
4529 6566
4529 4531
4529 4534
4530 7687
4530 6563
4530 7689
4535 4536
4535 4537
4535 4538
4535 4539
4536 6613
4536 5820
4536 5821
4536 4537
4536 7790
4536 7791
4536 4538
4536 4539
4536 7792
4536 7793
4536 7794
4536 7795
4537 7791
4537 4538
4537 4539
4537 7792
4537 7793
4537 7794
4538 7791
4538 6405
4538 7794
4539 7795
4540 4541
4540 4542
4540 4543
4540 4544
4540 4545
4541 5720
4541 8477
4541 7068
4541 5729
4541 4543
4541 4544
4541 8040
4541 9533
4541 4545
4541 9534
4541 8042
4542 8172
4542 4796
4542 8477
4542 7068
4542 8878
4542 5729
4542 8625
4542 4543
4542 4544
4542 8880
4542 9533
4542 4545
4542 9534
4542 8042
4544 4795
4544 6310
4544 5729
4544 8880
4544 8042
4546 5601
4547 9443
4548 4549
4548 4550
4548 4551
4548 4552
4548 4553
4548 4554
4549 7319
4549 4551
4549 4554
4550 7319
4550 4551
4550 8306
4550 4553
4550 8307
4550 4554
4551 4552
4551 4553
4551 4554
4552 4968
4552 4553
4553 7319
4553 4554
4554 7319
4555 4556
4556 8792
4556 8794
4557 4558
4557 4559
4557 4560
4557 4561
4557 4562
4557 4563
4557 4564
4557 4565
4558 4561
4558 4563
4559 4830
4559 4561
4559 7041
4559 4831
4559 4833
4559 4562
4559 4563
4559 4565
4560 4561
4560 4563
4561 4831
4561 4562
4561 4563
4561 4564
4561 4565
4562 4829
4562 4830
4562 7041
4562 4833
4562 4563
4562 6879
4562 6880
4563 4564
4563 4565
4565 4831
4566 4567
4567 5156
4567 5712
4567 6708
4567 6709
4567 7686
4567 8614
4567 6711
4567 6712
4567 9486
4567 6713
4567 6715
4567 6716
4567 6717
4567 6718
4567 9199
4567 6719
4567 9200
4567 5157
4567 9201
4567 5713
4567 6722
4568 4569
4568 4570
4568 4571
4568 4572
4568 4573
4569 7538
4569 7539
4569 7540
4569 7541
4569 4570
4569 7542
4569 4571
4569 7543
4569 4573
4570 7538
4570 7539
4570 8369
4570 7540
4570 7542
4570 4571
4570 7543
4570 7545
4570 4572
4570 8370
4570 4573
4571 7538
4571 7539
4571 7540
4571 7544
4571 7542
4571 7545
4571 4572
4571 4573
4572 7540
4572 8370
4573 7538
4573 7539
4573 8369
4573 7540
4573 7541
4573 7542
4573 7543
4573 7545
4573 8370
4575 4576
4575 4577
4575 4578
4575 4579
4576 6488
4576 4577
4576 6489
4576 6490
4576 4578
4576 6491
4576 6492
4577 6488
4577 6489
4577 6491
4577 8768
4577 6492
4578 8842
4578 9546
4578 8843
4578 8844
4578 9551
4578 6491
4578 8768
4578 6492
4578 8845
4579 8852
4579 8853
4579 8854
4579 6492
4580 4581
4580 4582
4580 4583
4580 4584
4580 4585
4580 4586
4580 4587
4580 4588
4580 4589
4581 4582
4581 6135
4581 4584
4581 4586
4581 4588
4582 6134
4582 7460
4582 4584
4582 7461
4582 7462
4582 4585
4582 4586
4582 7463
4582 4588
4583 5047
4583 4585
4584 4585
4584 4586
4585 5033
4585 5046
4585 5034
4585 5047
4585 4587
4585 4589
4586 6134
4586 7460
4586 6135
4586 9311
4586 7461
4586 7462
4586 7463
4586 8407
4586 4588
4587 5033
4587 5034
4587 5047
4589 5033
4589 5047
4589 8789
4590 5827
4590 4593
4590 4594
4591 4593
4591 4594
4591 4595
4592 5827
4592 4593
4593 6257
4593 5827
4593 4594
4593 4595
4594 6257
4594 5827
4594 4595
4596 4597
4596 4598
4596 4599
4596 4600
4596 4601
4596 4602
4597 4598
4597 5221
4597 5222
4597 4600
4597 4601
4598 5221
4598 4599
4598 7966
4598 4602
4599 7966
4600 8677
4600 5221
4600 5222
4600 4601
4600 4602
4601 8677
4601 5221
4601 5222
4601 4602
4602 8677
4602 5221
4602 5222
4603 4604
4603 4605
4604 6701
4604 7644
4604 7440
4604 5188
4605 5162
4605 5956
4605 6043
4605 6701
4605 7434
4605 7644
4605 7435
4605 7590
4605 8170
4605 7436
4605 7591
4605 7647
4605 7437
4605 7592
4605 7649
4605 7438
4605 7439
4605 8171
4605 7652
4605 7593
4605 7441
4605 7595
4605 7442
4605 7596
4605 7597
4605 7598
4605 7443
4606 4607
4607 4775
4607 4776
4607 4777
4607 4778
4608 6484
4609 6484
4609 4611
4610 6484
4610 4611
4611 6484
4613 5078
4613 5079
4613 4614
4613 5080
4613 5081
4613 8002
4613 5082
4613 4615
4616 5078
4616 5082
4617 4619
4617 4621
4618 4619
4619 4621
4622 4623
4622 4624
4623 4624
4623 7310
4623 7311
4623 7312
4624 8484
4624 7310
4624 7311
4625 4626
4625 4627
4625 4628
4625 4629
4625 4630
4626 4812
4626 4813
4626 4628
4626 4630
4626 4814
4626 4815
4627 4628
4627 4630
4628 4812
4628 4813
4628 4814
4628 4815
4630 4812
4630 4813
4630 4814
4630 4815
4631 4632
4632 5556
4632 5557
4632 5558
4632 5559
4632 5560
4632 5561
4632 5562
4632 5563
4632 5564
4632 5565
4632 5566
4632 5567
4634 6956
4637 6956
4641 4642
4641 4643
4642 4838
4642 4643
4643 8994
4643 7500
4643 6587
4645 4646
4645 4647
4645 4648
4645 4649
4646 7813
4646 7814
4646 8651
4646 7818
4646 8652
4646 8465
4646 7244
4646 7819
4646 9563
4646 4647
4646 9564
4646 4648
4646 9565
4646 7821
4646 4649
4647 9352
4647 9563
4647 4648
4647 9565
4647 4649
4648 9352
4648 9563
4648 9564
4648 9565
4648 4649
4649 9567
4649 9564
4649 9565
4650 4651
4650 4652
4650 4653
4650 4654
4650 4655
4650 4656
4651 4653
4651 4654
4651 6910
4651 4655
4652 9189
4652 6910
4652 4655
4652 9190
4653 9189
4653 4654
4653 6910
4653 4655
4653 4656
4653 9403
4653 9190
4654 6910
4654 4655
4654 9403
4655 9189
4655 6910
4655 4656
4655 9403
4655 9190
4656 9189
4656 9190
4657 4658
4657 4659
4657 4660
4657 4661
4657 4662
4657 4663
4657 4664
4658 6635
4658 6636
4658 4662
4658 6637
4658 4663
4658 4664
4659 4660
4659 6775
4659 6776
4659 6777
4659 4662
4659 6778
4660 6775
4660 6776
4660 4661
4660 6777
4660 6636
4660 4662
4660 4663
4660 6778
4661 6776
4661 5084
4661 6777
4661 6635
4661 6636
4661 4663
4662 5083
4662 6775
4662 6776
4662 6636
4662 6637
4662 4663
4662 6778
4662 4664
4663 5083
4663 6775
4663 4664
4664 5083
4664 6637
4667 4669
4669 4675
4669 4676
4669 4677
4678 4679
4679 8281
4679 6822
4680 4681
4681 8946
4682 4683
4683 5097
4683 7779
4683 8632
4684 4685
4684 4686
4684 4687
4684 4688
4685 5727
4685 5728
4685 4686
4685 4687
4686 7846
4686 4687
4686 6524
4687 5727
4687 5728
4687 7234
4688 6520
4688 6522
4688 9077
4688 6523
4688 6524
4689 4690
4689 4691
4690 8160
4690 8672
4690 9121
4690 9241
4690 9299
4690 9301
4690 8161
4690 8933
4690 4691
4690 9328
4690 8162
4690 9331
4690 9332
4690 9334
4690 8163
4691 8559
4691 8672
4691 8932
4691 9121
4691 9241
4691 9299
4691 8161
4691 8933
4691 8162
4691 9331
4691 9332
4691 8163
4692 4693
4692 4694
4692 4695
4692 4696
4693 7196
4693 7205
4693 8006
4693 8304
4693 7206
4693 7601
4693 8785
4693 7602
4694 6911
4694 7205
4694 7983
4694 7206
4694 8422
4694 9297
4694 8305
4695 7205
4695 7206
4696 7196
4696 7205
4696 8006
4696 7685
4696 7206
4696 8785
4696 7602
4697 4698
4697 4699
4697 4700
4698 4699
4698 4700
4699 4700
4702 4703
4702 4704
4703 8192
4703 4704
4704 8192
4704 8193
4704 9052
4707 5471
4709 8351
4710 4711
4710 4712
4711 7550
4712 7847
4714 5503
4714 4747
4714 5504
4714 5505
4714 5506
4714 7702
4714 5508
4715 4716
4716 4717
4716 8709
4716 7514
4716 7515
4716 7516
4716 9372
4716 7518
4716 7519
4716 7520
4716 7521
4716 5477
4718 4719
4718 4720
4718 4721
4718 4722
4718 4723
4719 8952
4719 4720
4719 4721
4719 4722
4719 4723
4719 6894
4719 9375
4720 9383
4720 4721
4720 4722
4720 4723
4720 6894
4720 9375
4721 7963
4721 9383
4721 4722
4721 4723
4721 6894
4721 5687
4721 9375
4722 6675
4722 7963
4722 8952
4722 9383
4722 5685
4722 5686
4722 6894
4722 5687
4722 5688
4723 7963
4723 8952
4723 9383
4723 6894
4723 5687
4724 4725
4726 4727
4726 4728
4726 4729
4727 7704
4727 7705
4727 8714
4727 4728
4727 8715
4727 9526
4727 4729
4728 7704
4728 7705
4728 8714
4728 8715
4728 9526
4728 4729
4729 7705
4729 8714
4729 8715
4729 9526
4730 5423
4730 6992
4732 7741
4732 7708
4732 7711
4732 7712
4734 4735
4734 4736
4734 4737
4734 4738
4734 4739
4735 5935
4735 7468
4735 4739
4736 8415
4736 4737
4736 4738
4736 4739
4737 7468
4737 8415
4737 9005
4737 8416
4737 4738
4737 4739
4738 8415
4738 4739
4739 7468
4739 9005
4739 8416
4740 4741
4740 4742
4740 4743
4740 4744
4740 4745
4740 4746
4741 4742
4741 4743
4741 4744
4741 7235
4741 4745
4741 4746
4742 4743
4742 4744
4742 7235
4742 4745
4742 4746
4743 7235
4743 4745
4743 4746
4744 4745
4745 7235
4746 7235
4747 4748
4747 5714
4747 5508
4748 5503
4748 5504
4748 5505
4748 5506
4748 5508
4749 5503
4749 5504
4749 5505
4749 5506
4749 5508
4750 4751
4750 4752
4750 4753
4750 4754
4750 4755
4751 8601
4751 8602
4751 4753
4751 4755
4752 8602
4752 4753
4752 8965
4752 4755
4752 8966
4752 8967
4753 8601
4753 8602
4753 4755
4753 8967
4754 8602
4754 4755
4754 9243
4755 8601
4755 8602
4755 8965
4755 9243
4755 8966
4755 8967
4756 4757
4756 4758
4757 5877
4757 5497
4758 5497
4759 4760
4761 8003
4761 4763
4761 8927
4761 7273
4761 7274
4761 8928
4761 8929
4761 4766
4762 4764
4762 4765
4762 4766
4763 6024
4763 9043
4763 4767
4764 9042
4764 8929
4764 4766
4764 4768
4765 4766
4766 9042
4766 7273
4766 8929
4767 6024
4767 6025
4767 7274
4767 8928
4767 9544
4768 9042
4768 8929
4769 4770
4769 4771
4769 4772
4769 4773
4769 4774
4770 9250
4770 4773
4770 4774
4771 9250
4771 4772
4771 4773
4771 4774
4772 9250
4772 4773
4772 4774
4773 9250
4774 9250
4776 5240
4776 5546
4776 5751
4776 5547
4776 5548
4778 5240
4779 4780
4779 4781
4779 4782
4779 4783
4779 4784
4780 7736
4780 8547
4780 7737
4780 4781
4780 4782
4780 7739
4780 4783
4780 4784
4781 7736
4781 8547
4781 7737
4781 7738
4781 4782
4781 4783
4781 4784
4782 8547
4782 7737
4782 7738
4782 4783
4782 4784
4783 7738
4783 4784
4784 7736
4784 8547
4784 7737
4784 7738
4784 7739
4785 4786
4785 4787
4786 6271
4786 6272
4786 6273
4786 6274
4786 6275
4786 6276
4786 6277
4786 6278
4787 7180
4787 6278
4791 4792
4791 4793
4791 4794
4792 5976
4792 4794
4792 6255
4792 5978
4793 5976
4793 4794
4793 6255
4793 5977
4793 5978
4794 5976
4794 6255
4794 5977
4794 5978
4795 4796
4796 6310
4797 4798
4797 4799
4797 4800
4797 4801
4798 4799
4798 4800
4798 4801
4799 4800
4799 4801
4800 4801
4802 4803
4802 4804
4804 7272
4804 9391
4804 9392
4804 5476
4805 4806
4805 4807
4806 4807
4808 4809
4808 4810
4808 4811
4809 5571
4809 5576
4809 7291
4809 5577
4810 5572
4810 9069
4810 5579
4810 7293
4810 4811
4811 5571
4811 5572
4811 5574
4811 5575
4811 7292
4811 9069
4811 8802
4816 4817
4818 4819
4818 4820
4818 4821
4818 4822
4819 4821
4819 4822
4820 4821
4820 4822
4821 4822
4823 5501
4823 6002
4823 6003
4823 6004
4823 6005
4823 6006
4829 4830
4829 4831
4829 4832
4829 4833
4829 4834
4829 4835
4829 4836
4829 4837
4830 4831
4830 4832
4830 6879
4830 4835
4830 4836
4830 6880
4830 4837
4831 7041
4831 4832
4831 6879
4831 4835
4831 6880
4832 7041
4832 4833
4833 7041
4833 6879
4833 4835
4833 6880
4833 4837
4834 7041
4834 6879
4834 4835
4834 6880
4835 7041
4836 7041
4836 6879
4836 6880
4837 7041
4837 6880
4838 7672
4838 5764
4838 8727
4838 5765
4839 4840
4839 4841
4839 4842
4839 4843
4840 7343
4840 7344
4840 8898
4840 4841
4840 5179
4840 8899
4840 8441
4840 8900
4840 7345
4840 8901
4840 8902
4840 6464
4840 8903
4840 4842
4840 7349
4840 8904
4841 4842
4841 4843
4842 8900
4842 6464
4842 4843
4842 7349
4843 8441
4843 8900
4843 6464
4843 7349
4844 4845
4844 4846
4844 4847
4844 4848
4844 4849
4845 4847
4845 7759
4846 6044
4846 6045
4846 6046
4846 6047
4846 6474
4848 4849
4849 7366
4850 5365
4850 5366
4850 5367
4850 4851
4850 6053
4851 5365
4851 5366
4851 5367
4851 6053
4852 4853
4852 4854
4852 4855
4852 4856
4852 4857
4852 4858
4853 5570
4853 4854
4853 4855
4853 4856
4854 5570
4854 8213
4854 8214
4854 4855
4854 4856
4854 4857
4855 5570
4855 4856
4855 4857
4856 5570
4856 4857
4859 4860
4859 4861
4859 4862
4859 4863
4859 4864
4860 7356
4860 4861
4860 7371
4860 7372
4860 7373
4860 4862
4860 7374
4860 4863
4860 4864
4860 7375
4860 7376
4860 7377
4860 7378
4861 5190
4861 7356
4861 8025
4861 8334
4861 8043
4861 9134
4861 7371
4861 7372
4861 7373
4861 8045
4861 4862
4861 7374
4861 4863
4861 4864
4861 8048
4861 9172
4861 7378
4862 5190
4862 7356
4862 8025
4862 8409
4862 8043
4862 8044
4862 9134
4862 7372
4862 7373
4862 4863
4862 5191
4862 7375
4862 7376
4862 8047
4862 8048
4862 7377
4862 9172
4863 7356
4863 8409
4863 8044
4863 9134
4863 7371
4863 7372
4863 7373
4863 8045
4863 7374
4863 5191
4863 4864
4863 7375
4863 7376
4863 8047
4863 9172
4863 7378
4864 7356
4864 8409
4864 9134
4864 7372
4864 7373
4864 7375
4864 7376
4864 7377
4864 9172
4865 4866
4866 6293
4866 7216
4866 7502
4866 7505
4866 7506
4867 7278
4867 7884
4867 4869
4868 4869
4869 7278
4869 7884
4870 4871
4870 4872
4870 4873
4870 4874
4870 4875
4870 4876
4870 4877
4870 4878
4870 4879
4870 4880
4870 4881
4870 4882
4870 4883
4871 4872
4871 4873
4871 4874
4871 4875
4871 4876
4871 4877
4871 4878
4871 6705
4871 4879
4871 4880
4871 4881
4871 4882
4871 4883
4872 4877
4872 4880
4873 4877
4873 4880
4874 4877
4875 4880
4876 4877
4876 4880
4877 6705
4877 4880
4877 4881
4878 4880
4879 7294
4879 7295
4879 4882
4880 6705
4880 4882
4882 4883
4884 4885
4884 4886
4884 4887
4884 4888
4884 4889
4885 4886
4886 4887
4886 4889
4886 7632
4891 4892
4891 4893
4892 4893
4894 4895
4894 4896
4894 6581
4894 4898
4894 4899
4895 4896
4895 6581
4895 4899
4896 6581
4896 4897
4898 4899
4899 6581
4900 4903
4900 4905
4900 4906
4901 4905
4901 4906
4901 4908
4902 4903
4902 4906
4903 8596
4903 4904
4903 4905
4903 4906
4903 8769
4903 4908
4903 4909
4904 4906
4905 8596
4905 4906
4905 8769
4905 4908
4905 4909
4906 8596
4906 8769
4906 4908
4908 8596
4908 8769
4908 4909
4910 4911
4910 4912
4910 4913
4910 4914
4910 4915
4911 8393
4911 4912
4911 4914
4912 8393
4912 8394
4912 4913
4912 4914
4912 4915
4913 8393
4913 8394
4913 4914
4913 4915
4914 8393
4915 8393
4915 8394
4916 4917
4916 4918
4916 4919
4916 4920
4916 4921
4916 4922
4916 4923
4917 7470
4917 4923
4918 4921
4919 4920
4919 4921
4920 4921
4920 4922
4921 4922
4921 4923
4922 7470
4922 4923
4923 7470
4924 4925
4924 4926
4924 4927
4924 4928
4924 4929
4924 4930
4924 4931
4924 4932
4924 4933
4924 4934
4925 5394
4925 4934
4926 7023
4926 4928
4926 7780
4927 6913
4927 7925
4927 7926
4927 4931
4927 4932
4927 7927
4927 7024
4928 7023
4928 7780
4929 6913
4929 7925
4929 4930
4929 4931
4929 4932
4929 8406
4929 4933
4929 7024
4929 4934
4929 6914
4930 6913
4930 4931
4930 4932
4930 8406
4930 4933
4930 6914
4931 7925
4931 8753
4931 8498
4931 4932
4931 8406
4931 8499
4931 8762
4931 8763
4931 6914
4931 8764
4932 8062
4932 7925
4932 7926
4932 5396
4932 4933
4932 8762
4932 8763
4932 7927
4932 7024
4932 9138
4932 9305
4932 8764
4932 9139
4934 7640
4935 4936
4935 4937
4936 4937
4937 4939
4937 4940
4937 4941
4938 4940
4939 4940
4939 4941
4940 4941
4942 4943
4942 4944
4943 6142
4943 6377
4943 6143
4943 6144
4943 6145
4943 9322
4943 9422
4943 6919
4943 6146
4943 9170
4943 6915
4943 4944
4943 9553
4943 6147
4944 6377
4944 9169
4944 6145
4944 9322
4944 9422
4944 6919
4944 9170
4944 6147
4945 4946
4945 4947
4945 4948
4945 4949
4945 4950
4945 4951
4945 4952
4945 4953
4946 4947
4946 6916
4946 6917
4946 6890
4947 6461
4947 6888
4947 7143
4947 4949
4947 7499
4947 6916
4947 4950
4947 6917
4947 7144
4947 7145
4947 7500
4947 7146
4948 7143
4948 4951
4948 4953
4949 7143
4950 7143
4951 7143
4951 4953
4952 6541
4952 7143
4954 4955
4955 7095
4955 7096
4955 6314
4955 6315
4955 7097
4955 7098
4955 6317
4955 7099
4955 7100
4955 7101
4955 7102
4956 4957
4956 4958
4956 4959
4956 4960
4956 4961
4956 4962
4956 4963
4956 4964
4956 4965
4956 4966
4958 4962
4959 4962
4961 4962
4962 4963
4962 4966
4967 4968
4967 6112
4969 7568
4970 4971
4970 4972
4970 4973
4970 4974
4970 4975
4970 4976
4971 5287
4971 4973
4971 4974
4971 4975
4972 4973
4972 9390
4972 4976
4973 5287
4973 4974
4973 4975
4973 4976
4974 5287
4974 4975
4974 4976
4975 5287
4975 4976
4976 5287
4977 4978
4977 4979
4978 9065
4978 9067
4978 9234
4978 4979
4979 9065
4979 9066
4979 9264
4979 9067
4979 9265
4981 4982
4981 4983
4981 4984
4982 5421
4982 6690
4982 5422
4982 7125
4982 7126
4982 4983
4982 7129
4982 7141
4982 7130
4982 7131
4982 7132
4982 7133
4982 7142
4982 7134
4982 7135
4982 4984
4982 7136
4982 7137
4982 7138
4983 5421
4983 6690
4983 7057
4983 5422
4983 7127
4983 7128
4983 7133
4983 7142
4983 4984
4984 6690
4984 7057
4984 5422
4984 7126
4984 7127
4984 7128
4984 7132
4984 7142
4984 7134
4984 7135
4991 6343
4991 6950
4991 4993
4992 4993
4994 7155
4997 7029
4998 4999
4998 5000
4998 5001
4998 5002
4998 5003
4998 5004
4998 5005
4998 5006
4998 5007
4999 5000
4999 7393
4999 5002
4999 5003
4999 5005
5000 7393
5000 5002
5000 5003
5000 5005
5001 5003
5001 5004
5001 5005
5001 5006
5002 7393
5002 5003
5003 7393
5003 5004
5003 5005
5003 5007
5004 5005
5004 5007
5005 7393
5005 5006
5005 5007
5006 5007
5008 5009
5008 5011
5009 5010
5009 5011
5009 5013
5009 8597
5011 5012
5011 8597
5014 5015
5014 5016
5014 5017
5014 5018
5014 5019
5015 5016
5015 5979
5015 5017
5015 5980
5015 5018
5015 5019
5016 5979
5016 5017
5016 5980
5016 5018
5016 6001
5016 5019
5017 5979
5017 5980
5017 5018
5017 6001
5017 5019
5018 5979
5018 6001
5018 5019
5019 5979
5019 5980
5019 6001
5020 5021
5020 5022
5020 5023
5020 5024
5020 5025
5020 5026
5020 5027
5020 5028
5020 5029
5020 5030
5020 5031
5020 5032
5021 5022
5021 5023
5021 5024
5021 5026
5021 5027
5021 5369
5021 5028
5021 5029
5021 5030
5021 5031
5021 5032
5022 5023
5022 5024
5022 5025
5022 5026
5022 5027
5022 5369
5022 5028
5022 5029
5022 5030
5023 5028
5024 5028
5025 5027
5025 5028
5026 5027
5026 5028
5027 7525
5027 5369
5027 5028
5027 5029
5027 5030
5027 5031
5027 5032
5028 6726
5028 5369
5028 5031
5028 5032
5033 5034
5034 5046
5034 5048
5035 5036
5035 5037
5035 5038
5036 8197
5036 8198
5036 5038
5037 5038
5038 8197
5038 8198
5038 9616
5041 5043
5042 5043
5043 8408
5043 8839
5043 7701
5043 8840
5044 5045
5045 6458
5045 6702
5045 7173
5045 8262
5045 8374
5045 7016
5045 8478
5045 8375
5045 8376
5045 8377
5045 8378
5045 6517
5045 6518
5045 8383
5045 7203
5046 5047
5046 5048
5047 5048
5048 6964
5048 6965
5048 6966
5048 9311
5048 6967
5048 6968
5048 9312
5051 8109
5051 5055
5051 8110
5054 6122
5055 8109
5055 8110
5057 5058
5057 5059
5057 5060
5057 5061
5057 5062
5058 5059
5058 5060
5058 9303
5058 5061
5058 5062
5059 5060
5059 5061
5059 5062
5060 9303
5060 5061
5061 9303
5061 5062
5062 9303
5063 5064
5063 5065
5063 5066
5063 5067
5063 5068
5063 5069
5063 5070
5064 5982
5064 5983
5064 5066
5064 5067
5064 5068
5064 5069
5064 5070
5065 5067
5065 5068
5066 5067
5066 5068
5067 5983
5067 5068
5067 5070
5068 5983
5068 5070
5069 5982
5069 5983
5072 5073
5072 5074
5072 5075
5072 5076
5072 5077
5073 5074
5073 5076
5073 5077
5074 5075
5074 5076
5074 5077
5075 5076
5075 5077
5076 5077
5078 5079
5078 5080
5078 5081
5078 5082
5079 5082
5080 5082
5082 8002
5083 5084
5083 5085
5083 5086
5084 7167
5084 7168
5084 7169
5084 7170
5084 7171
5084 7172
5085 7167
5085 7169
5085 7170
5085 7171
5085 5086
5086 6664
5086 7169
5086 7170
5086 7171
5087 5088
5087 5089
5087 5090
5087 5091
5087 5092
5088 5280
5088 5089
5088 5281
5088 5090
5088 5092
5089 5280
5089 6164
5089 6166
5089 8650
5089 5281
5089 5091
5089 5092
5090 6165
5090 6166
5090 6167
5090 5281
5090 5091
5091 6163
5091 6164
5091 6165
5091 6166
5091 6167
5091 5281
5091 9012
5092 6166
5092 5281
5094 5095
5094 5096
5095 5462
5095 8717
5095 5096
5096 5496
5096 7444
5096 8717
5097 5098
5097 5102
5097 5103
5097 5105
5097 5106
5109 5110
5109 5111
5110 7088
5110 5111
5111 7088
5112 5113
5112 5114
5112 5115
5112 5116
5112 5117
5112 5118
5112 5119
5113 5114
5113 5115
5113 5273
5113 5119
5114 8461
5114 5115
5114 5116
5114 5118
5114 8462
5114 8463
5114 5119
5115 8461
5115 5273
5115 5116
5115 5117
5115 5118
5115 8462
5115 8463
5115 5119
5116 8461
5116 5273
5116 5117
5116 8463
5116 5119
5117 5273
5117 5118
5118 8461
5118 5273
5118 8462
5118 8463
5118 5119
5119 8461
5119 5273
5119 8462
5119 8463
5120 6724
5122 5123
5122 5124
5123 5124
5124 5780
5124 7917
5125 5126
5126 8787
5126 9160
5126 8812
5126 8256
5126 9557
5126 9589
5126 8257
5127 5128
5127 5129
5127 5130
5128 5129
5128 5130
5129 5130
5132 5133
5132 5134
5132 5135
5132 5136
5133 6294
5133 5135
5134 6294
5134 5135
5135 6294
5136 7503
5137 5138
5137 5139
5138 5868
5138 9176
5138 5869
5138 9347
5138 5139
5139 9347
5140 8657
5140 8658
5140 5142
5141 8657
5141 8658
5141 5142
5142 8658
5144 8453
5144 8454
5144 8455
5144 8456
5144 5150
5145 8453
5145 8455
5145 6222
5145 5150
5148 5808
5149 5150
5150 8453
5150 8454
5150 9528
5150 8455
5150 6222
5151 5283
5151 8434
5151 8548
5151 8684
5151 8685
5152 5285
5152 5153
5153 7194
5153 8245
5153 8246
5153 8737
5153 8682
5153 5284
5153 8247
5153 8248
5153 5285
5153 8604
5153 8686
5153 5154
5153 5155
5154 5283
5154 8682
5154 5284
5154 8247
5154 5285
5155 7194
5155 7982
5155 8245
5155 8683
5155 8685
5155 8604
5155 8686
5156 5157
5157 5712
5157 8614
5157 6716
5157 9199
5157 9200
5157 9201
5157 5713
5159 5160
5159 5161
5160 5161
5163 5164
5164 8502
5164 7669
5164 8605
5166 5171
5167 8841
5168 8841
5169 8841
5170 8841
5171 8841
5172 5173
5172 5174
5172 5175
5172 5176
5173 5718
5173 5174
5173 5175
5173 5176
5173 5719
5174 6660
5174 5176
5175 6660
5175 5718
5175 5719
5177 5178
5177 5179
5177 5180
5177 5181
5177 5182
5177 5183
5177 5184
5178 5179
5178 9143
5178 5181
5178 5182
5178 7347
5179 7344
5179 7345
5179 7347
5179 7349
5180 5181
5180 7347
5180 5183
5180 5184
5181 7343
5181 5182
5181 7345
5181 7347
5181 5184
5181 7350
5182 5183
5182 5184
5182 7350
5183 7343
5183 7344
5183 7347
5183 5184
5184 7347
5185 5186
5185 5187
5185 5188
5186 5470
5186 7645
5186 7648
5186 5363
5186 5187
5186 7655
5186 7656
5186 7657
5186 5188
5187 5362
5187 5470
5187 7646
5187 7648
5187 5363
5187 7654
5187 7655
5187 7656
5187 5188
5188 5362
5188 5956
5188 6043
5188 7645
5188 8170
5188 7646
5188 7648
5188 5363
5188 8171
5188 7650
5188 7651
5188 7653
5188 7654
5188 7656
5188 7657
5190 5191
5191 8025
5191 8409
5191 8043
5191 8045
5191 8047
5191 8048
5191 7377
5192 5193
5192 5194
5192 5195
5192 5196
5192 5197
5192 5198
5192 5199
5193 7309
5193 7472
5193 7758
5193 8026
5193 8027
5193 7473
5193 8028
5193 8029
5193 5194
5193 8030
5193 8031
5193 8032
5193 8033
5193 8034
5193 5195
5193 5196
5193 8035
5193 8036
5193 8037
5193 5197
5193 8038
5193 5199
5193 8039
5194 7758
5194 8026
5194 5195
5194 5196
5194 5198
5195 7309
5195 7472
5195 8208
5195 7473
5195 8028
5195 8029
5195 8030
5195 8031
5195 8032
5195 8033
5195 8034
5195 5196
5195 8036
5195 8037
5195 5197
5195 8038
5195 5199
5195 8039
5196 7309
5196 7472
5196 7758
5196 8026
5196 8027
5196 8208
5196 7473
5196 8028
5196 8031
5196 8033
5196 9549
5196 8036
5196 8037
5196 5197
5196 5198
5196 8038
5196 5199
5196 8039
5197 8027
5197 8208
5197 8029
5197 8030
5197 8032
5197 8439
5197 8034
5197 9549
5197 8035
5197 8037
5197 5198
5197 5199
5198 7758
5198 8026
5198 5199
5199 7309
5199 7758
5199 8026
5199 8027
5199 8208
5199 7473
5199 8029
5199 8030
5199 8031
5199 8032
5199 8439
5199 8034
5199 8037
5199 8038
5199 8039
5200 5201
5202 5818
5202 5819
5207 5834
5207 7060
5207 7061
5211 5212
5211 5213
5211 5214
5211 5215
5211 5216
5211 5217
5212 5215
5212 5216
5212 5217
5213 5215
5213 5216
5213 5217
5214 5215
5214 5216
5214 5217
5215 5216
5215 5217
5216 5217
5218 5219
5219 9625
5219 9626
5221 8677
5221 5222
5223 5224
5223 5225
5223 5226
5223 5227
5223 5228
5224 5225
5224 5226
5224 5227
5224 6249
5224 5228
5225 5226
5225 5227
5225 6249
5225 7058
5225 7059
5225 5228
5226 6249
5226 7058
5226 7059
5227 6039
5227 6041
5227 5228
5228 6039
5229 6993
5229 5230
5229 7224
5231 8121
5234 5235
5234 5236
5234 5237
5234 5238
5234 5239
5235 5236
5235 5237
5235 5238
5236 6677
5236 5237
5236 5238
5236 5239
5237 5238
5239 6677
5241 5242
5241 5243
5241 5244
5241 5245
5242 5243
5242 5245
5243 7069
5245 7069
5247 5248
5253 8286
5255 5258
5255 5261
5258 6821
5260 7675
5262 8165
5264 5265
5264 5266
5264 5267
5266 8164
5268 9116
5268 6325
5268 6327
5270 5271
5270 5272
5271 5272
5273 8462
5274 5278
5275 5276
5275 5278
5276 6321
5277 5278
5280 5281
5281 8806
5281 6164
5281 6165
5281 6166
5281 6167
5283 5284
5283 5285
5284 7982
5284 8683
5284 8247
5284 5285
5285 7982
5285 8245
5285 8682
5285 8683
5288 5289
5288 5290
5288 5291
5288 5292
5288 5293
5289 5291
5289 5292
5289 5294
5289 5295
5289 5293
5290 7406
5290 5292
5291 5292
5291 5293
5292 7406
5292 5293
5293 5294
5293 5295
5294 8703
5294 8704
5294 8706
5294 8708
5294 5295
5295 8703
5295 8705
5295 8706
5295 8707
5295 8708
5301 5303
5301 5305
5301 5310
5301 8008
5302 6124
5302 5304
5303 5304
5304 5386
5304 6392
5304 6493
5304 5889
5304 6927
5304 6928
5304 5891
5304 6930
5304 5894
5304 6932
5304 5895
5304 5896
5304 6933
5304 5305
5304 6934
5304 7423
5304 5897
5304 7424
5304 5307
5304 7425
5304 6936
5304 7426
5304 7804
5304 5898
5304 6938
5304 7427
5304 6939
5304 5899
5304 5900
5304 7428
5314 5315
5314 5316
5314 5317
5314 5318
5314 5319
5315 5316
5315 5317
5315 5318
5315 5319
5316 5317
5316 5318
5317 5318
5317 5319
5318 5319
5321 5322
5322 8732
5322 6501
5338 5339
5338 5340
5338 5341
5338 5342
5338 5343
5338 5344
5338 5345
5339 5340
5339 5341
5339 5342
5339 5343
5339 5345
5340 5341
5340 5343
5340 5345
5341 5343
5341 5345
5342 5344
5342 9472
5343 5345
5344 9472
5350 6884
5350 8846
5350 6885
5350 6886
5353 5354
5353 5355
5354 8080
5354 8649
5354 8907
5354 8081
5354 8082
5354 9094
5354 8083
5354 8084
5354 8085
5354 5355
5355 8083
5355 8084
5356 5357
5356 5358
5356 5359
5356 5360
5356 5361
5357 5358
5357 6230
5357 6231
5357 5360
5357 5361
5358 5359
5358 6231
5358 5360
5358 8122
5358 5361
5359 6231
5359 5360
5360 6230
5360 6231
5360 8122
5360 5361
5361 6230
5361 6231
5361 8122
5362 5363
5363 5470
5363 7645
5363 7646
5363 7647
5363 7649
5363 7652
5363 7654
5363 7655
5363 7657
5365 5366
5365 5367
5366 5367
5370 5371
5370 5372
5371 5372
5373 5374
5375 5376
5375 5377
5375 5378
5376 5635
5376 5636
5376 8922
5376 5377
5377 5636
5377 8922
5378 7843
5379 5380
5379 5381
5379 5382
5379 5383
5379 5384
5380 5613
5380 6371
5380 6767
5380 8049
5380 5614
5380 9426
5380 5381
5380 5382
5380 5383
5380 5384
5381 6371
5381 8049
5381 5614
5381 9426
5381 5382
5381 5383
5381 5384
5382 5613
5382 6371
5382 6767
5382 8049
5382 5614
5382 9426
5382 5383
5382 5384
5383 5613
5383 6371
5383 6767
5383 8049
5383 5614
5383 9426
5383 5384
5384 5613
5384 6371
5384 6767
5384 8049
5384 5614
5384 9426
5387 5388
5387 5389
5387 5390
5388 5389
5388 5390
5389 5390
5391 5392
5391 5393
5392 5393
5392 7107
5393 7107
5394 5395
5394 5396
5395 5968
5395 7023
5395 7640
5395 8716
5395 8771
5395 9117
5395 7780
5395 9118
5395 9119
5395 7641
5395 9120
5395 8459
5395 5969
5396 7926
5396 8662
5396 8498
5396 8457
5396 8499
5396 9136
5396 9137
5396 9138
5396 9139
5397 5398
5397 5399
5397 5400
5397 5401
5397 5402
5398 7521
5399 5400
5400 9373
5402 7521
5405 5406
5405 5407
5406 9554
5406 5407
5407 9554
5407 9579
5408 8227
5408 6803
5408 5409
5408 5410
5408 6805
5409 7076
5409 6803
5409 6805
5410 7188
5410 6804
5411 5412
5411 5413
5412 8266
5412 5413
5413 8266
5413 5641
5414 5415
5414 5416
5415 5416
5416 7492
5417 5418
5417 5419
5417 5420
5418 5419
5418 5420
5421 5422
5422 7057
5422 7125
5422 7126
5422 7127
5422 7128
5422 7129
5422 7130
5422 7131
5422 7132
5422 7133
5422 7134
5422 7135
5422 7136
5422 7137
5422 7138
5425 5780
5425 5781
5425 7918
5431 5432
5432 7082
5432 7693
5433 5434
5433 5435
5434 6141
5435 6467
5435 9270
5436 5437
5436 5438
5437 5438
5440 5442
5440 8399
5440 5443
5441 7643
5442 8399
5442 5443
5443 8399
5444 5445
5444 5446
5444 5447
5444 5448
5444 5449
5444 5450
5444 5451
5444 5452
5444 5453
5444 5454
5444 5455
5444 5456
5444 5457
5444 5458
5444 5459
5444 5460
5444 5461
5445 5446
5445 5455
5445 5459
5446 5447
5446 5449
5446 5454
5446 5455
5446 5458
5446 5459
5446 5461
5447 5452
5447 5454
5447 5455
5447 5458
5447 5459
5447 5461
5448 6699
5448 5455
5448 5456
5448 6700
5448 5457
5449 5455
5449 5459
5449 6873
5450 7479
5450 5453
5450 5456
5450 7480
5451 6699
5451 5452
5451 5455
5451 5456
5452 5455
5452 5456
5452 5461
5453 7479
5453 5455
5453 5456
5453 5460
5453 7480
5454 5455
5454 5456
5454 5458
5454 5459
5455 6699
5455 5456
5455 6700
5455 5457
5455 5458
5455 5459
5456 6699
5456 6700
5456 5457
5456 5460
5456 7480
5457 6699
5457 6700
5459 6873
5459 5461
5460 7479
5466 5467
5466 5468
5466 5469
5467 6441
5467 8447
5467 5468
5467 8448
5467 8449
5468 6441
5468 8447
5468 8956
5468 8448
5468 8449
5469 9156
5469 8957
5474 9392
5474 5475
5478 5484
5478 6033
5478 5488
5479 7262
5479 5481
5479 5482
5479 5484
5479 5485
5479 5487
5479 5488
5479 7264
5480 5481
5480 5482
5480 5487
5481 5486
5482 5486
5483 5484
5483 5488
5483 7264
5484 8168
5484 6033
5484 5485
5484 5486
5484 5488
5484 7264
5485 7262
5485 5487
5485 7264
5486 5488
5486 7264
5487 8168
5488 7264
5489 5490
5489 5491
5489 5492
5489 5493
5489 5494
5489 5495
5490 5491
5491 5493
5491 7070
5491 5494
5491 5495
5492 5494
5492 5495
5493 5495
5494 7070
5495 7070
5496 6513
5496 6514
5497 8680
5498 5499
5498 5500
5499 7241
5499 9483
5499 7242
5500 7241
5500 9483
5500 7242
5503 5714
5504 5714
5504 7702
5505 5714
5506 5714
5507 8308
5507 6845
5507 9236
5508 5714
5509 5510
5510 8689
5510 9429
5510 9446
5510 9447
5510 6100
5510 9621
5510 6105
5512 7471
5513 5514
5513 5515
5513 5516
5514 9411
5514 9412
5514 5516
5514 9413
5514 6585
5515 5634
5515 9411
5515 9412
5515 5516
5515 9413
5516 9411
5516 9413
5517 5518
5517 5519
5517 5520
5518 5519
5518 5520
5519 5520
5521 5522
5521 5523
5521 5524
5522 8052
5523 8052
5523 5524
5524 8052
5525 5526
5526 6666
5526 7627
5526 6667
5528 5529
5528 5530
5528 5531
5528 5532
5528 5533
5529 5530
5529 5531
5529 5532
5529 5533
5530 5531
5530 5533
5531 5532
5531 5533
5532 5533
5534 5535
5534 5536
5537 5538
5537 5539
5537 5540
5537 5541
5537 5542
5537 5543
5537 5544
5537 5545
5538 8004
5538 8005
5538 6122
5539 8004
5539 8005
5539 6122
5540 8004
5540 8005
5540 7566
5540 5541
5540 6122
5541 8004
5541 8005
5542 5544
5543 8004
5543 8005
5543 6122
5544 8005
5544 9552
5545 9552
5546 5547
5546 5548
5550 5551
5550 5552
5550 5553
5551 5552
5551 5553
5552 5553
5554 5555
5559 5565
5559 5567
5560 5567
5565 5567
5567 5954
5567 7050
5567 7384
5567 7560
5567 8803
5567 7562
5567 9585
5567 5955
5567 9524
5571 5572
5571 5573
5571 5574
5571 5575
5571 5576
5571 5577
5571 5578
5571 5579
5571 5580
5572 5575
5572 5576
5572 7291
5572 7292
5572 5577
5572 5578
5572 5579
5572 5580
5572 7293
5573 7994
5574 5578
5574 8802
5575 9069
5575 5578
5575 5579
5575 7293
5576 7291
5576 5577
5577 7291
5577 5578
5577 8802
5578 9069
5578 5579
5578 5580
5578 7293
5578 8802
5579 7292
5579 9069
5579 5580
5579 8802
5580 8802
5582 5583
5582 5584
5582 5585
5583 5584
5583 5585
5584 5585
5586 5587
5586 5588
5588 7924
5591 5592
5591 5593
5591 5594
5591 5595
5592 5593
5592 5595
5593 5594
5593 5595
5593 6578
5593 6579
5593 6580
5594 5595
5594 6578
5595 6578
5595 6579
5595 6580
5597 7951
5597 7921
5597 7952
5597 7923
5602 5603
5602 5604
5602 5605
5602 5606
5602 5607
5603 5604
5603 5605
5603 5606
5603 5607
5604 5606
5604 5607
5605 5606
5605 5607
5606 5607
5608 5609
5608 7678
5608 7679
5608 7680
5608 7681
5608 5612
5609 7678
5609 7679
5609 7680
5609 7681
5609 5612
5610 7678
5610 7679
5611 8981
5612 7678
5612 7679
5612 7680
5612 7681
5612 8981
5613 5614
5614 6767
5614 9426
5618 5619
5618 5620
5618 5621
5618 5622
5618 5623
5618 5624
5619 7497
5619 5621
5619 5622
5619 7498
5619 5623
5619 5624
5620 7497
5620 5621
5620 7498
5620 5623
5620 5624
5621 7497
5621 5622
5621 7498
5621 5623
5621 5624
5622 5623
5622 5624
5623 7497
5625 5626
5625 5627
5625 5628
5625 5629
5625 5630
5626 5627
5626 5631
5626 5632
5626 5628
5626 5629
5626 5633
5627 5631
5627 5632
5627 5984
5627 5633
5628 6495
5628 5629
5628 6497
5628 7353
5628 5630
5629 6495
5629 7353
5629 5630
5630 6494
5630 6495
5630 6496
5630 7352
5630 6497
5630 7353
5631 5632
5631 5984
5631 7230
5631 5633
5632 5984
5632 7230
5632 5633
5633 5984
5633 7230
5635 7843
5638 5639
5638 5640
5638 5641
5639 5640
5639 5641
5639 7027
5640 7027
5642 5643
5642 5644
5642 5645
5642 5646
5642 5647
5643 5644
5643 5645
5643 5647
5644 5645
5644 5646
5644 5647
5645 5646
5645 5647
5646 5647
5648 5649
5648 5650
5648 5651
5648 5652
5649 5652
5650 5652
5651 5652
5653 5654
5653 5655
5653 5656
5653 5657
5653 5658
5654 5656
5654 5658
5655 5656
5655 5658
5656 5657
5656 5658
5657 5658
5660 5661
5660 6462
5661 5669
5661 5671
5661 5673
5661 5674
5661 5675
5663 5666
5663 5669
5663 5671
5663 5675
5663 5676
5666 5672
5666 5676
5672 5676
5677 5678
5677 5679
5677 5680
5677 5681
5678 5679
5678 5682
5678 5680
5678 5681
5678 5683
5679 5682
5679 6500
5679 5680
5679 6501
5679 5681
5680 5682
5680 6501
5680 5681
5681 6501
5682 6500
5682 6501
5682 5683
5684 5685
5684 5686
5684 5687
5684 5688
5685 7383
5685 9279
5685 9384
5685 9410
5685 6676
5685 5686
5685 5687
5685 5688
5686 6675
5686 6893
5686 7383
5686 9009
5686 9191
5686 9279
5686 9384
5686 9410
5686 6676
5686 6894
5686 5687
5686 5688
5687 6675
5687 7383
5687 8952
5687 9279
5687 9384
5687 9410
5687 6676
5687 6894
5687 5688
5687 9375
5688 6675
5688 7383
5688 7963
5688 9279
5688 9384
5688 6676
5688 6894
5690 5691
5691 8464
5692 5693
5692 5694
5692 5695
5693 5694
5693 5695
5694 5695
5696 5697
5696 5698
5697 9019
5697 5698
5697 5700
5698 9019
5698 5699
5699 5700
5700 9019
5712 5713
5713 6708
5713 7686
5713 6716
5713 6717
5713 6718
5716 5717
5717 8282
5717 7930
5717 7931
5717 7932
5717 7934
5717 7935
5717 7936
5717 7937
5717 7938
5717 8283
5717 7941
5717 7942
5718 6660
5718 5719
5719 6660
5721 5722
5721 5723
5721 5724
5722 6633
5722 6634
5723 5724
5724 7302
5724 8953
5724 7236
5724 8410
5724 8811
5724 7760
5724 7764
5725 5726
5726 8303
5727 6521
5727 7573
5727 7234
5727 6524
5728 7573
5728 7234
5730 5731
5730 5732
5730 5733
5730 5734
5730 5735
5730 5736
5730 5737
5731 6182
5731 5732
5731 5733
5731 5734
5731 5736
5731 5737
5731 7404
5732 6182
5732 5734
5732 5736
5732 5737
5732 7404
5733 5735
5733 5736
5734 5735
5734 5736
5734 5737
5734 7404
5735 5737
5736 5737
5737 6182
5737 7404
5739 5740
5739 5741
5739 5742
5739 5743
5739 5744
5739 5745
5739 5746
5739 5747
5739 5748
5739 5749
5739 5750
5740 6535
5740 5741
5740 8228
5740 7800
5741 7796
5741 9195
5741 8279
5741 7798
5741 5744
5741 9196
5741 7800
5742 8279
5742 5745
5742 7800
5742 5750
5743 6534
5743 6535
5743 8937
5743 9195
5743 6537
5743 6539
5743 8228
5743 8278
5743 9631
5743 8279
5743 7798
5743 8280
5743 9196
5743 5747
5744 7796
5744 8279
5744 7798
5744 9196
5744 7800
5745 8937
5745 9195
5745 9628
5745 8914
5745 8279
5745 9196
5745 9634
5745 5746
5745 5747
5745 5748
5745 7800
5745 5749
5746 9634
5746 5748
5746 7800
5746 5749
5747 9195
5747 6537
5747 9196
5747 7800
5748 8937
5748 9634
5748 5749
5749 6535
5749 9634
5750 9629
5750 7800
5752 7092
5752 8173
5752 7093
5752 5753
5753 7093
5753 8174
5753 8413
5753 7094
5754 5755
5754 5756
5754 5757
5754 5758
5756 9171
5760 5952
5760 5953
5760 5761
5761 5952
5761 5953
5761 8371
5762 5763
5762 5764
5762 5765
5763 7671
5763 7672
5763 5764
5763 5765
5764 8050
5764 8411
5764 8727
5764 5765
5765 8050
5765 8411
5765 8727
5776 5777
5776 5778
5776 5779
5777 5779
5778 5779
5780 5781
5783 5785
5784 5786
5785 8615
5785 5786
5785 5787
5790 5795
5794 5795
5794 5796
5795 8910
5795 9025
5795 5796
5795 9026
5795 9027
5797 5798
5797 5799
5797 5800
5798 5799
5798 6876
5798 6877
5801 5802
5801 5803
5801 5804
5801 5805
5802 5803
5802 5804
5802 5805
5803 6063
5803 5804
5804 5805
5805 6063
5805 7345
5806 5807
5806 5808
5806 5809
5806 5810
5806 5811
5807 6871
5808 6632
5808 8454
5808 5809
5808 5810
5808 5811
5808 6871
5812 5813
5812 5814
5812 5815
5812 5816
5812 5817
5813 5815
5813 8991
5813 5816
5813 8992
5813 8993
5813 5817
5814 8991
5814 5816
5814 9470
5814 9471
5814 9433
5814 5817
5814 9435
5815 8991
5815 5816
5815 8992
5815 8993
5815 5817
5816 8991
5816 9471
5816 5817
5817 8991
5817 8992
5817 8993
5817 9432
5817 9570
5817 9569
5817 9433
5817 9434
5817 9435
5822 8019
5822 8020
5822 8021
5822 8022
5823 5824
5823 5825
5823 5826
5824 5825
5824 5826
5825 5826
5828 5829
5832 5833
5832 5834
5832 5835
5832 5836
5833 5834
5833 6052
5833 5835
5833 5836
5834 6052
5834 5835
5835 6052
5835 7061
5835 5836
5836 6052
5836 7061
5840 8483
5841 6590
5841 5843
5842 6590
5843 6589
5843 6590
5843 6591
5843 6797
5845 5846
5845 5847
5845 5848
5845 5849
5846 6671
5846 7043
5846 8076
5846 6819
5846 8077
5846 8078
5846 5848
5846 6672
5846 6820
5846 8079
5846 5849
5847 7043
5847 7958
5847 6819
5847 7959
5847 8077
5847 8078
5847 5848
5847 6672
5847 6820
5847 7960
5848 6671
5848 6818
5848 7043
5848 8661
5848 8076
5848 6819
5848 8077
5848 6672
5848 5849
5849 6671
5849 6818
5849 7043
5849 8661
5849 8076
5849 6819
5849 7959
5849 8077
5849 8078
5849 6672
5849 6820
5849 7960
5850 5851
5850 5852
5850 5853
5850 5854
5850 5855
5850 5856
5850 5857
5851 6657
5851 5852
5851 6658
5851 5854
5851 5855
5851 6659
5852 6657
5852 8252
5852 5856
5852 9351
5852 6659
5853 5854
5853 5855
5853 5856
5853 5857
5854 6658
5854 8251
5854 8253
5854 5856
5854 5857
5855 6658
5855 8251
5855 8253
5855 5857
5856 6658
5856 8251
5856 9409
5856 5857
5857 6658
5857 8251
5857 8253
5858 5859
5858 5866
5859 5861
5859 5862
5859 5863
5859 5864
5859 8533
5859 5865
5859 5866
5860 5866
5863 5866
5864 5866
5866 8533
5867 5868
5868 9176
5869 9347
5870 5871
5870 5872
5870 5873
5870 5874
5870 5875
5871 5872
5871 8320
5871 8321
5871 5873
5871 8322
5871 5875
5872 8321
5872 5873
5872 8322
5872 5875
5873 8320
5873 8321
5873 8322
5873 5875
5875 8320
5875 8321
5876 5877
5876 5878
5878 9271
5879 5880
5881 5882
5881 5883
5881 5884
5881 5885
5881 5886
5881 5887
5883 5886
5885 5886
5886 9340
5887 6683
5888 8486
5889 5899
5895 5899
5897 5899
5899 6927
5899 7423
5899 5900
5904 5905
5904 5906
5904 5907
5904 5908
5904 5909
5904 5910
5904 5911
5904 5912
5905 5908
5905 5909
5905 5910
5905 5912
5906 5908
5906 5910
5906 5911
5906 5912
5907 5909
5907 5910
5907 5911
5907 5912
5908 8576
5908 5909
5908 5910
5908 5911
5908 5912
5909 8576
5909 5910
5909 5911
5909 5912
5910 8576
5910 5911
5910 5912
5911 8576
5911 5912
5912 8576
5913 5914
5913 5915
5913 5916
5914 5915
5914 8464
5914 6358
5915 5916
5915 9368
5916 7908
5916 7910
5916 6357
5916 9368
5916 8464
5916 9463
5917 5918
5917 5929
5918 5919
5918 6994
5918 5921
5918 5923
5918 5924
5918 5925
5918 6995
5918 5927
5918 6996
5918 6997
5918 5930
5918 5931
5919 5928
5921 6783
5923 5928
5925 5929
5927 5928
5927 5929
5928 5930
5928 5931
5929 6994
5929 6995
5929 6996
5929 6781
5929 6997
5932 5933
5932 5934
5933 5934
5936 5937
5936 5938
5936 5939
5936 5940
5936 5941
5936 5942
5937 6178
5937 5938
5937 6179
5937 5939
5937 5940
5937 5941
5937 6180
5938 6178
5938 6179
5938 5940
5938 5941
5938 6180
5938 5942
5939 6178
5939 5940
5939 5941
5939 6180
5940 6178
5940 5941
5940 6180
5940 5942
5941 6178
5941 6179
5942 6178
5942 6180
5943 5944
5943 5945
5946 5947
5946 5948
5946 5949
5946 5950
5946 5951
5947 5948
5947 7285
5947 5949
5947 5950
5947 5951
5947 7286
5948 5949
5948 5950
5949 5950
5949 5951
5950 7285
5950 5951
5952 5953
5954 5955
5955 7050
5955 7384
5955 7561
5955 7562
5957 6440
5957 6442
5957 6443
5957 6448
5957 6450
5958 6444
5958 6447
5961 5962
5961 5963
5961 5964
5961 5965
5962 9157
5962 9158
5962 9159
5962 5963
5962 5964
5962 5965
5963 5964
5963 5965
5964 9157
5964 9158
5964 9159
5964 5965
5965 9157
5965 9158
5965 9159
5966 6259
5966 8598
5966 5967
5967 6259
5968 5969
5969 7640
5969 8716
5969 9117
5969 9118
5969 7641
5970 5971
5970 5972
5971 9164
5971 5972
5972 9164
5973 5974
5973 5975
5975 9258
5976 5977
5976 5978
5977 6255
5977 5978
5979 6001
5982 5983
5984 7230
5984 7735
5984 9233
5985 6328
5985 6329
5986 5987
5986 5988
5986 5989
5986 5990
5987 5989
5987 7416
5988 5989
5989 8144
5989 7416
5989 5990
5989 8148
5991 5992
5991 5993
5991 5994
5991 5995
5991 5996
5991 5997
5992 5994
5992 5996
5993 5994
5993 5995
5993 5996
5994 5995
5994 7904
5994 5996
5994 7905
5995 5996
5995 5997
5996 7165
5996 7689
5996 5997
5998 8940
5999 6638
5999 6640
5999 6000
5999 6641
6000 6638
6000 6639
6000 6640
6000 6641
6000 6912
6007 6008
6007 6009
6007 6010
6007 6011
6007 6012
6007 6013
6008 6009
6008 6010
6008 6011
6008 6012
6008 6013
6009 6010
6009 6011
6009 6012
6010 6011
6010 6012
6011 6012
6011 6013
6012 6013
6014 6015
6014 6016
6014 6017
6014 6018
6015 6525
6015 7892
6015 6016
6016 6525
6016 7892
6017 7892
6017 6018
6018 7892
6019 6020
6019 6021
6020 7053
6021 7053
6021 7215
6021 8653
6021 7055
6021 9478
6021 6926
6022 6881
6022 6882
6022 6883
6022 6023
6023 6881
6023 6882
6023 6883
6024 6025
6024 6026
6025 7273
6025 7274
6025 6026
6026 8003
6026 7274
6027 6028
6027 6029
6027 6030
6027 6031
6027 6032
6028 6029
6028 6030
6028 6031
6028 6032
6029 6030
6029 6031
6029 6032
6030 6031
6030 6032
6031 6032
6033 7264
6034 6035
6034 6036
6034 6037
6035 6036
6035 8360
6035 6037
6035 8361
6035 8362
6036 8360
6036 6037
6036 8361
6036 8362
6037 8360
6037 8361
6037 8362
6038 6039
6038 6040
6038 6041
6038 6042
6039 6041
6039 6042
6040 8741
6040 6042
6041 6042
6042 8741
6044 6045
6044 6047
6044 6474
6045 6046
6045 6047
6045 6474
6046 6047
6047 6474
6048 7366
6049 6050
6049 6051
6050 6051
6055 6056
6055 6057
6055 6058
6056 6057
6056 6059
6056 6058
6056 6060
6057 6061
6057 6062
6057 6058
6057 6060
6058 7221
6058 7718
6059 9514
6059 6062
6059 9515
6060 7219
6060 7221
6061 7219
6061 7713
6061 7220
6061 8191
6061 7717
6061 7221
6061 7718
6061 6062
6062 7219
6062 7716
6062 7717
6062 7718
6064 6065
6064 6066
6064 6067
6064 6068
6064 6069
6064 6070
6064 6071
6064 6072
6064 6073
6064 6074
6064 6075
6064 6076
6064 6077
6064 6078
6064 6079
6064 6080
6064 6081
6064 6082
6064 6083
6065 6073
6065 6076
6065 6078
6065 6083
6066 6073
6066 6078
6066 6080
6066 6083
6067 6069
6067 6070
6067 6071
6067 6073
6067 6075
6067 6076
6067 6077
6067 6078
6067 6079
6067 6080
6067 6081
6067 6082
6067 6083
6068 6073
6068 6076
6068 6078
6068 6083
6069 6073
6069 6076
6069 6078
6070 6076
6070 6083
6071 6073
6071 6076
6071 6078
6072 6073
6072 6076
6072 6078
6072 6083
6073 6074
6073 6075
6073 6076
6073 6077
6073 6078
6073 6079
6073 6081
6073 6082
6073 6083
6074 6076
6074 6078
6074 6083
6075 6076
6075 6078
6076 6078
6076 6081
6076 6083
6077 6078
6078 6079
6078 6080
6078 6082
6078 6083
6079 6083
6080 6083
6081 6083
6082 6083
6083 8348
6084 6085
6084 6086
6084 6087
6084 6088
6084 6089
6084 6090
6085 6087
6085 7190
6085 6088
6086 6087
6086 7190
6086 8287
6087 8288
6087 7190
6087 6088
6087 6089
6087 6090
6088 8288
6088 7190
6088 8210
6088 8211
6088 6089
6089 8209
6090 8210
6090 8211
6090 8287
6091 6092
6091 6093
6091 6094
6091 6095
6092 7743
6092 7745
6092 6093
6092 9389
6093 7743
6093 7744
6093 7745
6093 6094
6093 6095
6094 7743
6094 7744
6094 7745
6094 6851
6094 8801
6094 7782
6094 9389
6095 7743
6095 7744
6096 6984
6096 6300
6098 6099
6107 6108
6107 6110
6109 7893
6109 6110
6109 7894
6111 6516
6111 6517
6111 6518
6113 6114
6113 6115
6113 6116
6114 6115
6115 6116
6118 6119
6118 6120
6118 6121
6118 6122
6118 6123
6119 6120
6119 6991
6119 6122
6119 6123
6120 6991
6120 7566
6120 7567
6120 6123
6121 6991
6121 7566
6121 7567
6121 6123
6122 8004
6122 6991
6122 7566
6122 7567
6123 6991
6123 7566
6123 7567
6125 6126
6125 6127
6125 6128
6125 6129
6125 6130
6125 6131
6125 6132
6125 6133
6126 6131
6126 6133
6127 6131
6127 6133
6128 6131
6128 6133
6129 6133
6130 6131
6131 7954
6131 7955
6131 6133
6132 6133
6133 7954
6133 7955
6134 6135
6134 6136
6135 7461
6135 8407
6136 8407
6141 6694
6142 6143
6142 6144
6142 6145
6142 6146
6142 6147
6143 6144
6143 6145
6143 6915
6144 6145
6144 6146
6144 6915
6145 6146
6145 9170
6145 6915
6145 6147
6146 9169
6146 9422
6146 9170
6146 6915
6146 6147
6148 6149
6148 6150
6148 6151
6148 6152
6149 7222
6149 8201
6149 6150
6149 6151
6149 7223
6149 6152
6149 8451
6149 8452
6150 6151
6150 7223
6150 6152
6150 8202
6150 8204
6150 8451
6150 8205
6150 8452
6151 7223
6151 6152
6151 8204
6151 8451
6151 8205
6151 8452
6152 7222
6152 8451
6152 8452
6153 6154
6153 6155
6154 8690
6155 8690
6156 6157
6159 6160
6160 9246
6160 9247
6160 9248
6163 6164
6163 6165
6163 6166
6163 6167
6164 8806
6164 6166
6164 6167
6164 9012
6165 8806
6165 6166
6165 9012
6166 8806
6166 6167
6166 9012
6167 8806
6167 9012
6168 6169
6168 6170
6168 6171
6168 6172
6168 6173
6169 6171
6169 8105
6169 8106
6169 6173
6169 8107
6170 6171
6170 6172
6170 8106
6170 6173
6170 8107
6171 6172
6171 8105
6171 8107
6172 8105
6172 8106
6173 8105
6173 8106
6173 8107
6174 7477
6174 6175
6176 9604
6177 8829
6177 8830
6177 7084
6177 7086
6178 6179
6178 6180
6179 6180
6183 7418
6183 7419
6183 7420
6183 6184
6183 6186
6183 7421
6183 7422
6184 6185
6185 6971
6185 6972
6186 7420
6186 7421
6187 6188
6187 6189
6188 6189
6190 6551
6191 6192
6191 6193
6191 6194
6192 6193
6192 6194
6193 6194
6195 6196
6195 6197
6196 6854
6196 6197
6196 6855
6196 6856
6196 6857
6197 6854
6197 8754
6197 6396
6197 6398
6197 6855
6197 6856
6197 6857
6198 6199
6198 6200
6198 6201
6199 6615
6199 7287
6199 6200
6199 6201
6200 6615
6200 7287
6200 9423
6200 9424
6200 6201
6201 6615
6201 9011
6202 6203
6202 6204
6202 6205
6202 6206
6202 6207
6202 6208
6202 6209
6202 6210
6202 6211
6202 6212
6202 6213
6202 6214
6202 6215
6202 6216
6202 6217
6202 6218
6202 6219
6203 6204
6203 6205
6203 6208
6203 6210
6203 6213
6203 6215
6203 6219
6204 6205
6204 6208
6204 6213
6204 6215
6205 6214
6205 6215
6206 6207
6206 6208
6206 6209
6206 6210
6206 6211
6206 6212
6206 6214
6206 6216
6206 6217
6206 6218
6206 6219
6207 6208
6207 6214
6207 6218
6208 6210
6208 6216
6208 6217
6208 6218
6209 6210
6209 6214
6209 6218
6210 6211
6210 6212
6210 6216
6210 6217
6210 6218
6210 6219
6211 6214
6211 6218
6212 6214
6212 6218
6213 6214
6213 6215
6214 6215
6214 6218
6217 6218
6218 6219
6220 6221
6222 8453
6222 9528
6222 8455
6222 8456
6222 6871
6223 9235
6223 6224
6224 9235
6225 6226
6226 6227
6226 6228
6226 6229
6227 6228
6227 6229
6229 8152
6229 8154
6230 6231
6232 6233
6232 6234
6232 6235
6232 6236
6233 9145
6233 6234
6233 9146
6233 6235
6233 9147
6233 9148
6233 9149
6233 6236
6233 9150
6234 9145
6234 6235
6234 9148
6234 9149
6234 9385
6234 6236
6234 9150
6234 9387
6234 9388
6235 9145
6235 9146
6235 9147
6235 9148
6235 9149
6235 9385
6235 6236
6235 9386
6235 9150
6235 9387
6235 9388
6236 9145
6236 9146
6236 9147
6236 9148
6236 9149
6236 9385
6236 9150
6236 9387
6236 9388
6237 6238
6237 6239
6237 6240
6237 6241
6237 6242
6237 6243
6238 9198
6238 6240
6238 6242
6238 6243
6239 9198
6239 6240
6239 6241
6239 6242
6239 6243
6240 9198
6240 6241
6240 6242
6240 6243
6241 9198
6241 6242
6241 6243
6242 9198
6242 6243
6243 9198
6245 7485
6245 6248
6246 7481
6246 7485
6246 6247
6246 6248
6246 7488
6246 7484
6247 7485
6248 7481
6248 7485
6248 7487
6248 7483
6249 7058
6249 7059
6250 8622
6252 6253
6263 6264
6264 6765
6265 6266
6265 6267
6265 6268
6265 6269
6265 6270
6266 8023
6266 6267
6266 8024
6266 6268
6266 6270
6267 8023
6267 8024
6267 6268
6267 6269
6267 6270
6268 8023
6268 8024
6268 6269
6268 6270
6269 8024
6269 6270
6270 8023
6270 8024
6271 6275
6271 6277
6272 8656
6273 6274
6273 9031
6274 9031
6274 6275
6274 6277
6275 6276
6275 6277
6276 6277
6276 9532
6277 9031
6278 8883
6279 6280
6279 6281
6279 6282
6279 6283
6279 6284
6279 6285
6279 6286
6280 7408
6280 6281
6280 6282
6280 6283
6280 6285
6280 6286
6281 6284
6281 6285
6281 6286
6282 7408
6282 7409
6282 6283
6282 6284
6282 6285
6282 6286
6283 7408
6283 6285
6284 7409
6284 6285
6285 7409
6285 6286
6286 7408
6286 7409
6287 6703
6287 6704
6288 6289
6288 6290
6288 6291
6289 8847
6289 9309
6289 8848
6289 8849
6289 6290
6289 6291
6289 8850
6289 8851
6290 6291
6290 8851
6291 9309
6291 8848
6291 8849
6291 8850
6291 8851
6293 6294
6294 7216
6294 7503
6294 7505
6296 6297
6296 6298
6297 8189
6298 8188
6298 8189
6298 8190
6298 9128
6299 6300
6299 6301
6300 8120
6300 8588
6300 9028
6300 9192
6300 6301
6300 9193
6300 6437
6300 9194
6301 9028
6301 9476
6301 9477
6302 6303
6302 6304
6302 6305
6302 6306
6302 6307
6303 7571
6303 6305
6303 6306
6303 7572
6303 6307
6303 8925
6303 9338
6304 8612
6304 8862
6304 6305
6304 6306
6304 7572
6304 6307
6304 8613
6304 9338
6305 7569
6305 8747
6305 8862
6305 7571
6305 9379
6305 6306
6305 7572
6305 6307
6305 8613
6305 8925
6306 7569
6306 8612
6306 8747
6306 8862
6306 7570
6306 7571
6306 9379
6306 7572
6306 6307
6306 8613
6306 9338
6307 8747
6307 8862
6307 7570
6307 9379
6307 7572
6307 8613
6307 8925
6307 9338
6308 6309
6309 7742
6309 9186
6309 9187
6309 9188
6311 6312
6311 6313
6311 6314
6311 6315
6311 6316
6311 6317
6312 6313
6312 6314
6312 6316
6313 7237
6313 6315
6313 6317
6314 7765
6314 8363
6314 7801
6314 8980
6314 7095
6314 8065
6314 9308
6314 6317
6314 7100
6314 7101
6314 7802
6314 9249
6315 7237
6315 8065
6315 9308
6315 7097
6315 6317
6317 7765
6317 8065
6317 9308
6317 7101
6318 7881
6318 7882
6318 7883
6319 6320
6320 7577
6320 7673
6320 8342
6320 8345
6320 8346
6320 9197
6320 8347
6320 8349
6320 8350
6321 7783
6328 6329
6330 6331
6330 6332
6330 6333
6330 6334
6330 6335
6330 6336
6330 6337
6331 6332
6331 6333
6331 6334
6331 6335
6331 6336
6331 6337
6332 6333
6332 6334
6332 6336
6332 6337
6333 6336
6333 6337
6334 6335
6334 6336
6334 6337
6335 6336
6335 6337
6336 6337
6338 6339
6338 6340
6338 6341
6338 6342
6339 6799
6339 7985
6339 8269
6339 6340
6339 6342
6339 6800
6339 9501
6340 8269
6340 6341
6340 6800
6342 7985
6342 8269
6342 6800
6342 9501
6344 6345
6344 6346
6344 6347
6344 6348
6344 6349
6344 6350
6344 6351
6345 6352
6345 6349
6345 6353
6346 6359
6346 6347
6346 6360
6346 6361
6346 6348
6346 6352
6346 6349
6346 6350
6346 6353
6347 6359
6347 6360
6347 6348
6347 6350
6348 6361
6348 6350
6349 7972
6349 8805
6349 6360
6349 6361
6349 6352
6349 9527
6349 6350
6349 6351
6349 6353
6350 6360
6350 6361
6350 6352
6350 6353
6351 6352
6351 7973
6351 6353
6352 8805
6352 6359
6352 6361
6352 9527
6352 7973
6352 6353
6353 7972
6353 8805
6353 6359
6353 9527
6353 7973
6354 6355
6354 6356
6354 6357
6354 6358
6355 6357
6355 8508
6355 6358
6357 8508
6357 6358
6358 9368
6360 6361
6361 7972
6361 8805
6361 9527
6362 6364
6363 6875
6363 6365
6364 6875
6367 6368
6369 8180
6372 6373
6372 6374
6372 9221
6372 6375
6372 9222
6372 6376
6373 7139
6373 9221
6373 6376
6373 7140
6374 7139
6374 6375
6374 6376
6374 7140
6375 7139
6375 9221
6375 9222
6375 6376
6375 7140
6376 7139
6376 9221
6376 9222
6380 6382
6380 6385
6381 6382
6381 6385
6382 6386
6382 6954
6383 6385
6384 6951
6384 6952
6387 6388
6389 6390
6389 6391
6394 6396
6394 6398
6395 6955
6395 6397
6396 6878
6396 6854
6396 9296
6396 6398
6396 9468
6396 6855
6398 9296
6398 9468
6399 6400
6399 6401
6399 6402
6399 6403
6400 7944
6400 6402
6400 6576
6400 6577
6400 6403
6401 6575
6401 7944
6401 6402
6401 6576
6401 8944
6401 8945
6401 6577
6402 6575
6402 7944
6402 8944
6402 8945
6402 6403
6403 6575
6403 7944
6403 6576
6403 8944
6403 8945
6403 6577
6404 6405
6405 8021
6407 6408
6407 6409
6407 6410
6407 6411
6407 6412
6407 6413
6407 6414
6407 6415
6407 6416
6407 6417
6407 6418
6408 6920
6408 6410
6408 6411
6408 6412
6408 6414
6408 6416
6408 6417
6408 6921
6408 6418
6409 6920
6409 6410
6409 6411
6409 6412
6409 6413
6409 6414
6409 6416
6409 6921
6409 6418
6410 6411
6410 6921
6411 6920
6411 6412
6411 6413
6411 6414
6411 6415
6411 6416
6411 6417
6411 6921
6411 6418
6412 6920
6412 6417
6412 6418
6413 6414
6414 6920
6414 6415
6414 6921
6415 6417
6416 6921
6417 6921
6419 7155
6419 7156
6419 8196
6421 6422
6421 6423
6421 6424
6421 6425
6421 6426
6421 6427
6421 6428
6421 6429
6421 6430
6422 7768
6422 6429
6422 6430
6423 6424
6423 6425
6423 9360
6423 6426
6423 6427
6423 9361
6423 9362
6424 7768
6424 6425
6424 6426
6424 6427
6424 9362
6425 9359
6425 6426
6425 9362
6425 6429
6426 9359
6426 9360
6426 6427
6426 9361
6426 9362
6426 6430
6428 7768
6428 6429
6428 6430
6429 7768
6430 7768
6431 6432
6432 7177
6433 6434
6433 6435
6434 6435
6436 6437
6436 6438
6437 9217
6437 9370
6437 6438
6438 8120
6438 9217
6438 9370
6438 9193
6439 6440
6439 7365
6439 6443
6439 6445
6439 6449
6440 7365
6440 6443
6440 6445
6440 6446
6440 6449
6440 6450
6441 8448
6441 8449
6442 6443
6442 6445
6443 6445
6444 6447
6444 6451
6445 6446
6447 6451
6448 8956
6448 6450
6449 7365
6449 8938
6453 6454
6453 6455
6453 6456
6453 6457
6454 6808
6454 6810
6454 6812
6454 6455
6454 6456
6454 6457
6455 6808
6455 6809
6455 6811
6455 6813
6455 6814
6455 6815
6455 6456
6455 6457
6455 6816
6456 6808
6456 6809
6456 6811
6456 6812
6456 6813
6456 6814
6456 6815
6456 6457
6456 6816
6457 6808
6457 6809
6457 6810
6457 6811
6457 6812
6457 6813
6457 6814
6457 6815
6457 6816
6459 6460
6460 6504
6460 6506
6460 7191
6460 6508
6460 7192
6460 6510
6460 6511
6460 6512
6463 6464
6464 8440
6464 8441
6464 8900
6464 8442
6464 8901
6464 8902
6464 8443
6464 7349
6465 6466
6465 6467
6465 6468
6466 8654
6466 6468
6467 9174
6467 8064
6471 6472
6472 6473
6475 6476
6475 6477
6475 6478
6475 6479
6475 6480
6475 6481
6476 6477
6476 9374
6476 6479
6476 6480
6476 6481
6477 8616
6477 8617
6477 8131
6477 9374
6477 6478
6477 6479
6477 6480
6477 6481
6478 8616
6478 6479
6478 6481
6479 8616
6479 8617
6479 9374
6479 8618
6479 6480
6479 6481
6480 8616
6480 9374
6480 8618
6480 6481
6481 8616
6481 8617
6481 9374
6482 6483
6483 8659
6483 8860
6483 8660
6483 8861
6485 6486
6485 6487
6486 6487
6488 6489
6488 6491
6490 8843
6491 9546
6491 8768
6491 6492
6491 8845
6492 8842
6492 8852
6492 9546
6492 8843
6492 8844
6492 9551
6492 8853
6492 8768
6492 8854
6492 9550
6492 8845
6494 6495
6494 6496
6494 6497
6494 6498
6494 6499
6495 6496
6495 7352
6495 6497
6495 7353
6495 7354
6496 6497
6496 7353
6496 7354
6496 6498
6496 6499
6497 7352
6497 7353
6497 7354
6498 7352
6498 7354
6498 6499
6499 7352
6499 7354
6503 6506
6506 7191
6506 6507
6506 6509
6506 7192
6513 6515
6513 6514
6514 7229
6514 7230
6516 7016
6520 6521
6520 6522
6520 6523
6520 6524
6521 7234
6521 6524
6522 9075
6522 6523
6522 6524
6523 9074
6523 9075
6523 9077
6523 6524
6524 7234
6529 6530
6529 6531
6529 6532
6529 6533
6530 6531
6531 6532
6532 6533
6534 6535
6534 6536
6534 6537
6534 6538
6534 6539
6534 6540
6535 6536
6535 8228
6535 8278
6535 8279
6535 7798
6535 8280
6535 7800
6536 7796
6536 7797
6536 9122
6536 8278
6536 8915
6537 8911
6537 8937
6537 7797
6537 9628
6537 8279
6537 9196
6537 8915
6537 8918
6537 9629
6538 7797
6538 8912
6538 9632
6538 6540
6538 9122
6538 7799
6538 8915
6539 7796
6539 9632
6539 8280
6540 7796
6540 7797
6540 8912
6540 9632
6540 7799
6540 8915
6542 6543
6543 8445
6543 7521
6544 6545
6544 6546
6545 6546
6545 7253
6547 6548
6547 6549
6548 6549
6550 6661
6550 6662
6550 6663
6550 8487
6550 8488
6553 6554
6553 6555
6553 6556
6553 6557
6554 6555
6555 7494
6555 6556
6555 7495
6555 7524
6555 6557
6556 7494
6559 6561
6559 6562
6566 9572
6567 6568
6567 6569
6567 6570
6567 6571
6567 6572
6567 6573
6567 6574
6568 6573
6570 6573
6571 6573
6575 6576
6575 6577
6576 8945
6577 8945
6578 6579
6578 6580
6579 6580
6582 6583
6582 6584
6582 6585
6582 6586
6582 6587
6583 8532
6583 6584
6583 6585
6583 6586
6583 6587
6585 6587
6586 8532
6586 6587
6587 8994
6589 6590
6589 6591
6590 6591
6590 6797
6592 6593
6592 6594
6592 6595
6592 6596
6592 6597
6592 6598
6592 6599
6592 6600
6592 6601
6592 6602
6593 6595
6593 6600
6594 6595
6594 6596
6594 6597
6594 6598
6594 9238
6594 6599
6594 6600
6594 6601
6594 6602
6595 9238
6595 6600
6595 6601
6595 6602
6596 6598
6596 6599
6596 6600
6597 6598
6597 6599
6597 6600
6598 9238
6598 6599
6598 6600
6599 9238
6599 6600
6600 9238
6600 6601
6600 6602
6601 9238
6602 9238
6603 6604
6603 6605
6603 6606
6603 6607
6603 6608
6604 6605
6604 6608
6605 6608
6606 6608
6607 6608
6610 6611
6610 6612
6611 9144
6611 9460
6611 9531
6611 6612
6612 9144
6612 9460
6612 9531
6616 6617
6616 6618
6617 7547
6617 6618
6618 7546
6618 7547
6618 7548
6618 7549
6619 6620
6620 8639
6620 8640
6620 8641
6621 6622
6621 6623
6621 6624
6621 6625
6622 6623
6622 6624
6622 6625
6623 6624
6623 6625
6624 6625
6626 6627
6626 6628
6626 6629
6626 6630
6626 6631
6627 8313
6627 8314
6627 8958
6627 6628
6627 6630
6628 8313
6628 8314
6628 9444
6628 8958
6628 6629
6628 6630
6628 6631
6629 8313
6629 8314
6629 8958
6629 6630
6630 8313
6630 8314
6630 9444
6630 8958
6630 6631
6631 8313
6631 8314
6631 8958
6633 7302
6633 6634
6634 7302
6635 6664
6635 7168
6635 7169
6635 7170
6635 7171
6635 6779
6635 9343
6635 9344
6635 6777
6635 6636
6635 7172
6636 6664
6636 6777
6636 6637
6638 6639
6638 6640
6638 6641
6639 6640
6639 6641
6640 6641
6641 6912
6642 6643
6644 6645
6646 6647
6646 6648
6646 6649
6646 6650
6646 6651
6646 6652
6646 6653
6646 6654
6646 6655
6646 6656
6647 6648
6647 7638
6647 6649
6647 6650
6647 6651
6647 6652
6647 6653
6647 6654
6647 6655
6648 7638
6648 6649
6648 6650
6648 6652
6648 6654
6648 6655
6648 6656
6649 7638
6649 6650
6649 6651
6649 6652
6649 6653
6649 6654
6649 6655
6649 6656
6650 6655
6651 6654
6651 6655
6652 6654
6653 6654
6653 6655
6654 7556
6654 7638
6654 7557
6654 6655
6654 6656
6655 7638
6655 7558
6655 6656
6657 8249
6657 8250
6657 9219
6657 6658
6657 8251
6657 8252
6657 8253
6657 6659
6658 8253
6658 9351
6658 6659
6659 8250
6659 9219
6659 8251
6659 8252
6659 8253
6659 9351
6661 6662
6661 6663
6662 6663
6662 7351
6662 8487
6662 8488
6663 7351
6663 8487
6663 8488
6665 6666
6665 6667
6665 6668
6666 7626
6666 7627
6666 6667
6667 7030
6667 7627
6667 6668
6668 7030
6668 7320
6668 7626
6669 8494
6671 6672
6672 6818
6672 8661
6672 8076
6672 8078
6672 8079
6672 8909
6675 6676
6676 6893
6676 9009
6676 9191
6676 9410
6678 6751
6678 6679
6679 8336
6679 8337
6694 9620
6695 6696
6695 6697
6695 6698
6696 8934
6696 9141
6696 6697
6696 6698
6696 9142
6696 8936
6697 8934
6697 9141
6697 8936
6698 9141
6698 9142
6698 8936
6699 6700
6723 6724
6725 6726
6725 6727
6726 6727
6728 6736
6734 6736
6737 6738
6737 6739
6737 6740
6737 6741
6737 6742
6737 6743
6737 6744
6738 6739
6738 6740
6738 9237
6738 6741
6738 6742
6738 6743
6738 6744
6739 6740
6739 9237
6739 6741
6739 6742
6739 6743
6739 6744
6740 9237
6740 6741
6740 6742
6741 9237
6741 6742
6741 6743
6741 6744
6742 9237
6742 6743
6742 6744
6743 6744
6745 9535
6746 6747
6746 6748
6746 6749
6747 6748
6747 6749
6748 6749
6748 9545
6750 6751
6750 6752
6750 6753
6751 6752
6751 8335
6751 6753
6752 6753
6756 6872
6756 7587
6758 6759
6758 6760
6758 6761
6758 6762
6758 6763
6759 8064
6759 6761
6759 6763
6760 6761
6760 6762
6761 6762
6765 8701
6769 6770
6769 6774
6770 7582
6770 6771
6770 7390
6770 8971
6770 7703
6770 8972
6770 6772
6770 7391
6770 7392
6771 7391
6771 7392
6771 6774
6772 8973
6773 8973
6774 7582
6774 8971
6774 7703
6774 8972
6774 8973
6775 6776
6775 6779
6775 6777
6777 9343
6777 9344
6779 7170
6779 7171
6781 6783
6783 7476
6783 6994
6783 8016
6783 9161
6783 6996
6783 9354
6784 6789
6784 6790
6784 6791
6784 6792
6784 6793
6785 6789
6785 7394
6785 7359
6785 6786
6785 6787
6786 7357
6786 6789
6786 7394
6786 7358
6786 6792
6786 7359
6786 6793
6786 7360
6786 6787
6786 6788
6787 7357
6787 6789
6787 6792
6787 7359
6787 7360
6787 6788
6788 6789
6788 7359
6789 6790
6789 7394
6789 6791
6789 6792
6790 6791
6790 6792
6790 6793
6791 6792
6792 7394
6792 6793
6794 6795
6794 6796
6795 6796
6799 6800
6799 6801
6800 7986
6800 8418
6800 6801
6800 8421
6801 8417
6801 8419
6801 8420
6801 8421
6802 7188
6802 6804
6802 8884
6802 7189
6804 7075
6804 7189
6805 7075
6805 8884
6806 8063
6806 8511
6807 8063
6807 8511
6808 6809
6808 6810
6808 6811
6808 6812
6808 6813
6808 6814
6808 6815
6808 6816
6810 6811
6810 6814
6818 6819
6818 6820
6819 7848
6819 8661
6819 8078
6819 6820
6819 7960
6820 8661
6820 7957
6820 7958
6820 7959
6820 8079
6820 8909
6820 7961
6824 6825
6824 6826
6824 6827
6824 6828
6824 6829
6824 6830
6824 6831
6824 6832
6824 6833
6824 6834
6825 6826
6825 6831
6826 6831
6826 6833
6827 6833
6829 6833
6830 6831
6831 9213
6831 6832
6831 9287
6833 6834
6835 6836
6835 6837
6835 6838
6835 6839
6835 6840
6836 6837
6836 6838
6836 6841
6837 6838
6837 6840
6839 6840
6839 6841
6840 6841
6842 6843
6842 6844
6842 6845
6842 6846
6842 6847
6844 8308
6844 9093
6844 9236
6845 8308
6845 9093
6845 9236
6847 8308
6847 9093
6847 9236
6848 6849
6848 6850
6848 6851
6848 6852
6848 6853
6849 6851
6850 6851
6850 6852
6850 6853
6850 8497
6851 7781
6851 7977
6851 9342
6851 8801
6851 7782
6851 6852
6851 6853
6851 8497
6856 8754
6856 9296
6856 6857
6858 6859
6860 6861
6860 6862
6860 6863
6860 6864
6860 6865
6860 6866
6860 6867
6861 6862
6861 6863
6861 6864
6862 6863
6863 6864
6863 6865
6863 9228
6863 6866
6863 6867
6864 6865
6864 9228
6864 6866
6865 6867
6866 9228
6868 6869
6871 9528
6873 7479
6874 7734
6874 7735
6879 7041
6881 6882
6881 6883
6884 6885
6885 6886
6887 6888
6887 6889
6887 6890
6888 6889
6888 6890
6889 6890
6891 6892
6893 6894
6894 7963
6894 8952
6894 9009
6894 9191
6894 9383
6894 9375
6897 6898
6897 6899
6898 6899
6901 6902
6901 6903
6901 6904
6901 6905
6901 6906
6901 6907
6901 6908
6901 6909
6902 7046
6902 6904
6902 6905
6902 7047
6902 7048
6902 7049
6902 6906
6902 6907
6902 6908
6902 6909
6903 6904
6903 6905
6903 7047
6903 7049
6903 6906
6903 6907
6903 6908
6903 6909
6904 6905
6904 7048
6904 7049
6904 6906
6904 6907
6904 6908
6904 6909
6905 7046
6905 7047
6905 7048
6905 6909
6906 7049
6906 6907
6907 7049
6908 7046
6908 7047
6908 7048
6908 7049
6908 6909
6909 7046
6909 7048
6910 9189
6910 9403
6910 9190
6913 6914
6916 7499
6917 7499
6919 9170
6922 8975
6922 8297
6922 8298
6922 8300
6922 6923
6923 8296
6923 8975
6923 8297
6923 8298
6923 8299
6923 8300
6923 8301
6924 6925
6924 6926
6925 6926
6926 7215
6926 8653
6926 7055
6926 9478
6931 8642
6931 9035
6931 9036
6931 7803
6931 9037
6931 9038
6941 6942
6941 6943
6941 6944
6942 6943
6942 6944
6943 6944
6946 6947
6946 6948
6946 6949
6947 8166
6947 6948
6947 8167
6947 7630
6947 6949
6947 7631
6948 8166
6948 7628
6948 8167
6948 7629
6948 7630
6948 6949
6948 7631
6949 7629
6949 7631
6951 6952
6956 7604
6956 7606
6956 7609
6956 7610
6956 7611
6959 7604
6959 7606
6959 7609
6959 7610
6959 7611
6961 6962
6962 6963
6964 6965
6964 6966
6964 6967
6964 6968
6965 6967
6965 6968
6966 6968
6967 6968
6968 8789
6971 6972
6973 6974
6973 6975
6973 6976
6973 6977
6973 6978
6973 6979
6973 6980
6973 6981
6973 6982
6973 6983
6974 6976
6974 6977
6974 6979
6974 6980
6974 6981
6974 6982
6974 6983
6975 6976
6975 6981
6976 6977
6976 6978
6976 6979
6976 6980
6976 6981
6976 6982
6976 6983
6977 6979
6977 6981
6978 6979
6978 6981
6979 6980
6979 6981
6979 6982
6980 6981
6981 6982
6981 6983
6982 6983
6986 6987
6986 6988
6986 6989
6987 8075
6987 8267
6987 9227
6987 8268
6988 9227
6988 8268
6988 9267
6988 9268
6989 8074
6989 8075
6989 8267
6998 7583
6998 6999
6998 7586
7000 9400
7000 7003
7001 7003
7002 7003
7003 8108
7003 9400
7004 7005
7004 7006
7004 7007
7004 7008
7005 7006
7005 7007
7005 7008
7005 7364
7006 7007
7007 7008
7007 7364
7008 7364
7009 7010
7009 7011
7009 7012
7010 7011
7010 7012
7011 7012
7013 7014
7013 7015
7014 7015
7017 7018
7017 7019
7017 7020
7017 7021
7018 7019
7018 7020
7018 7021
7019 7020
7019 7021
7020 7021
7023 7024
7025 7027
7026 7027
7031 7032
7031 7033
7031 7034
7031 7035
7031 7036
7031 7037
7031 7038
7031 7039
7031 7040
7032 7033
7032 8545
7032 7034
7032 8546
7032 7035
7032 7040
7033 8545
7033 7034
7033 7035
7034 8545
7034 8546
7034 7035
7034 7036
7034 7037
7034 7038
7034 7040
7035 8545
7035 7036
7035 7037
7035 7038
7035 7039
7035 7040
7036 7037
7037 8545
7037 8546
7037 7038
7037 7039
7037 7040
7039 8545
7039 7040
7040 8545
7047 7048
7047 7049
7048 7049
7051 8690
7052 8692
7053 7054
7054 7055
7055 8653
7058 7059
7058 8557
7063 8258
7064 7065
7064 7066
7065 7683
7065 7066
7066 7683
7066 8674
7068 8624
7069 9371
7071 7072
7071 7073
7071 7074
7072 7073
7072 7074
7073 7074
7075 7188
7075 7189
7077 7078
7077 7079
7077 7080
7077 7081
7078 7079
7078 8284
7078 7080
7078 7081
7079 7080
7080 7081
7081 8284
7089 7090
7089 7091
7090 7091
7092 7093
7092 7094
7093 8173
7093 8412
7093 8923
7093 8924
7093 7094
7094 8412
7094 8413
7094 8923
7094 8924
7097 8065
7103 7104
7103 7105
7103 7106
7104 8955
7104 7105
7104 7106
7104 9401
7105 7106
7106 8955
7106 9401
7108 7109
7108 7110
7109 7110
7113 7114
7113 7115
7113 7116
7113 7117
7113 7118
7114 7115
7114 7116
7114 7117
7114 7118
7115 7116
7115 7117
7115 7118
7116 7117
7116 7118
7117 7118
7119 7120
7119 7121
7119 7122
7119 7123
7119 7124
7120 7121
7120 7122
7120 7124
7120 8018
7121 7122
7122 7123
7122 7124
7122 8018
7123 7124
7123 8018
7124 8018
7139 9221
7139 9222
7141 8478
7143 7499
7152 7153
7153 7617
7153 7618
7153 7619
7153 7620
7155 7156
7155 8196
7159 7160
7159 7161
7159 7162
7159 7163
7160 7161
7160 7162
7160 7163
7161 7162
7161 7163
7162 7163
7164 7165
7164 7166
7165 8431
7165 8591
7165 8592
7165 7166
7165 7689
7165 8593
7165 8594
7165 8595
7165 7905
7166 7689
7167 7168
7167 7169
7167 7170
7167 7171
7168 7169
7168 7170
7168 7171
7169 7170
7169 7171
7170 7171
7172 9343
7172 9344
7173 7174
7174 8478
7174 8377
7174 7203
7175 7667
7179 7180
7179 7181
7184 7185
7184 7186
7184 7187
7185 7186
7185 7187
7186 7187
7188 7189
7190 8288
7193 8319
7197 7198
7197 7199
7197 7200
7197 7201
7198 7201
7199 8807
7199 8808
7199 8809
7199 8810
7199 7201
7200 7201
7202 7203
7203 8379
7203 8382
7204 7205
7204 7206
7205 7206
7205 7599
7205 7600
7205 7601
7205 7602
7206 7684
7206 7599
7206 8422
7206 7600
7206 7602
7207 7208
7207 7209
7207 7210
7207 7211
7207 7212
7207 7213
7207 7214
7208 7210
7208 7226
7208 7212
7208 7227
7208 7228
7208 7214
7209 7210
7209 7211
7209 7212
7209 7227
7209 7213
7209 8195
7209 7214
7210 7212
7210 7227
7210 7213
7211 8589
7211 8590
7211 8195
7212 7227
7212 7213
7213 7226
7213 7227
7214 7226
7214 8738
7214 7228
7217 7218
7218 8051
7219 7220
7219 7221
7220 7713
7220 7714
7220 7715
7220 7716
7220 7717
7220 7718
7221 8191
7221 7718
7222 7223
7224 7642
7226 8738
7226 7228
7226 8590
7228 8590
7230 7734
7230 9233
7234 7573
7236 8410
7236 8811
7237 8065
7240 7241
7240 7242
7241 8780
7242 8780
7243 7244
7243 7245
7243 7246
7243 7247
7243 7248
7243 7249
7244 8265
7244 7245
7244 7246
7244 9420
7244 7247
7244 7248
7244 9421
7245 8265
7245 9047
7245 7246
7245 9420
7245 7247
7245 7248
7246 8265
7246 9047
7246 7816
7246 7817
7246 9420
7246 7820
7246 7248
7246 7249
7246 9421
7247 8265
7247 9047
7247 7816
7247 7817
7247 9420
7247 7820
7247 7248
7247 7249
7247 9421
7248 9047
7248 7816
7248 9420
7248 7249
7248 9421
7250 7251
7250 7252
7252 8516
7252 8520
7252 8521
7253 8827
7254 7255
7259 7260
7259 7261
7260 8238
7260 8239
7260 8240
7260 8241
7260 7261
7261 8238
7261 8239
7262 7263
7262 7264
7263 7264
7265 7266
7266 8175
7266 8728
7266 8176
7266 8177
7266 9404
7266 8729
7266 9306
7268 7269
7269 8099
7271 7272
7273 7274
7275 7965
7275 7277
7277 7965
7279 7280
7279 7281
7279 7282
7279 7283
7279 7284
7280 7281
7280 7282
7280 7283
7280 7284
7281 7282
7281 7283
7281 7284
7282 7283
7282 7284
7283 7284
7288 7289
7288 7290
7289 7290
7292 9069
7293 9069
7297 7300
7299 7300
7299 7301
7300 7301
7304 7305
7304 7306
7304 7307
7305 9154
7305 9155
7305 7306
7305 7307
7306 7307
7307 9593
7310 7311
7312 8484
7312 8485
7313 7314
7313 7315
7313 7316
7313 7317
7313 7318
7314 8093
7314 7318
7314 8094
7315 8092
7315 8093
7315 7316
7315 7318
7316 8092
7316 8174
7316 8093
7316 9469
7316 7318
7316 8094
7317 9469
7317 7318
7318 8092
7321 7322
7321 7323
7321 7324
7321 7325
7321 7326
7321 7327
7321 7328
7321 7329
7321 7330
7321 7331
7321 7332
7322 7323
7322 7324
7322 7325
7322 7326
7322 7328
7322 7329
7322 7379
7323 7326
7323 7327
7323 7328
7323 7329
7323 7330
7323 7331
7323 7379
7324 7330
7324 7331
7324 7332
7325 7328
7325 7332
7326 7327
7326 7330
7326 7331
7326 7332
7327 7329
7327 7331
7327 7332
7327 7379
7328 7329
7328 7331
7328 7332
7329 7330
7329 7331
7329 7332
7331 7379
7332 7379
7333 7334
7333 7335
7333 7336
7334 7335
7334 7336
7335 8786
7335 7336
7336 8786
7338 7339
7338 7340
7338 7341
7338 7342
7339 7881
7339 7882
7339 7341
7339 8169
7339 7342
7339 7883
7340 7881
7340 7341
7340 7342
7341 7342
7342 8718
7342 8169
7342 7883
7343 7344
7343 7345
7343 7346
7343 7347
7343 7348
7343 7349
7343 7350
7344 7345
7344 7349
7344 7350
7345 7347
7345 7349
7345 7350
7346 9436
7347 7350
7348 9436
7349 8440
7349 8899
7349 8441
7349 8900
7349 8442
7349 8901
7349 8902
7349 8903
7349 8443
7349 8904
7352 7354
7357 7358
7357 7359
7357 7360
7357 7361
7358 7360
7359 7394
7359 7360
7362 7363
7363 8270
7363 8271
7363 8272
7363 8273
7363 8274
7365 8938
7367 7368
7367 7369
7367 7370
7368 9275
7368 7369
7368 9276
7368 9277
7368 7370
7369 9275
7369 9276
7369 9278
7369 7370
7370 9275
7370 9276
7370 9277
7370 9278
7371 7372
7372 8334
7372 9134
7372 7374
7372 7375
7372 7376
7372 7377
7372 9172
7372 7378
7380 7381
7380 7382
7386 9112
7386 7387
7386 7389
7387 7388
7387 7389
7388 9112
7388 7389
7389 9111
7389 9112
7390 8971
7390 7703
7390 8972
7390 7391
7390 7392
7395 7396
7396 8681
7397 7452
7397 7453
7397 7454
7397 7455
7397 7456
7397 7457
7397 7458
7397 7459
7398 7452
7398 7455
7398 7459
7399 7455
7405 7406
7405 7407
7406 7407
7408 7409
7410 7411
7410 7412
7410 7413
7411 7412
7411 7413
7412 7413
7418 7419
7418 7420
7418 7421
7418 7422
7419 7420
7419 7421
7420 7421
7420 7422
7421 7422
7429 7430
7429 7431
7429 7432
7429 7433
7430 7431
7430 8450
7430 7432
7430 7433
7431 7432
7431 7433
7432 8450
7432 7433
7433 8450
7434 7435
7434 7436
7434 7437
7434 7438
7434 7439
7434 7440
7434 7441
7434 7442
7434 7443
7445 7446
7445 7447
7445 7448
7445 7449
7445 7450
7446 7447
7446 7448
7446 7523
7446 7449
7447 7448
7447 7523
7447 7450
7448 7523
7448 7449
7448 7450
7449 7523
7450 7523
7452 7453
7452 7454
7452 7455
7452 7456
7452 7457
7452 7458
7452 7459
7453 7455
7453 7459
7454 7455
7454 7459
7455 7456
7455 7457
7455 7459
7457 7459
7458 7459
7460 7461
7460 7463
7461 9311
7461 7463
7462 8407
7465 7466
7465 7467
7466 7467
7468 8415
7468 8416
7469 9450
7472 7473
7473 8208
7473 8028
7473 8031
7473 8033
7473 8439
7473 8036
7473 8038
7474 7475
7477 7478
7479 7480
7481 7482
7481 7483
7481 7484
7482 7485
7482 7486
7482 7487
7482 7483
7482 7488
7482 7484
7483 7485
7483 7486
7483 7488
7483 7484
7484 7485
7484 7486
7484 7487
7485 7486
7485 7487
7485 7488
7486 7487
7486 7488
7489 7490
7489 7491
7490 7491
7494 7495
7494 7496
7495 7496
7495 7524
7497 7498
7508 7509
7508 7510
7508 7511
7508 7512
7509 7510
7509 7511
7509 7512
7509 9513
7510 7512
7510 9513
7527 7528
7527 7529
7528 7529
7530 7531
7530 7532
7530 7533
7530 7534
7530 7535
7530 7536
7531 7533
7531 7534
7531 7535
7531 7536
7532 7534
7532 7535
7532 7536
7533 7534
7533 7535
7533 7536
7534 7535
7534 7536
7538 7539
7538 7540
7538 7544
7538 7543
7538 7545
7539 8369
7539 7544
7539 7542
7539 7543
7539 7545
7539 8370
7540 8369
7540 7541
7540 7544
7540 8370
7541 8369
7541 7544
7544 8370
7546 7547
7546 7548
7546 7549
7547 7548
7547 7549
7548 7549
7550 8510
7551 8619
7551 8620
7556 7557
7556 7558
7556 7559
7557 7558
7558 7559
7560 7561
7560 7562
7561 7562
7563 7564
7563 7565
7568 9560
7568 9561
7569 7570
7569 7571
7569 7572
7570 7572
7570 8925
7571 8747
7571 7572
7572 8612
7572 8747
7572 8862
7572 9379
7572 8613
7572 8925
7572 9338
7574 7575
7574 7576
7575 7576
7578 7579
7578 7580
7578 7581
7579 8523
7579 8524
7579 8525
7579 8526
7579 7580
7579 7581
7580 8523
7580 8524
7580 8525
7580 7581
7581 8523
7581 8524
7581 8525
7581 8526
7599 8422
7599 7600
7600 8422
7600 8305
7602 8007
7613 7614
7613 7615
7613 7616
7614 8126
7614 7615
7614 7616
7614 8127
7614 8128
7615 8126
7615 7616
7615 8127
7615 8128
7616 8126
7616 8127
7616 8128
7617 7620
7618 7619
7621 7622
7621 7623
7621 7624
7621 7625
7622 7624
7622 7625
7623 7624
7629 7631
7630 7631
7631 8166
7631 8167
7633 7634
7633 7635
7633 7636
7633 7637
7634 7635
7634 7636
7634 7637
7635 7636
7635 7637
7636 7637
7640 7641
7641 9117
7659 7660
7659 7661
7659 7662
7659 7663
7659 7664
7659 7665
7659 7666
7660 7661
7660 7769
7660 7663
7660 7664
7660 7666
7661 7769
7661 7662
7661 7971
7662 7663
7662 7664
7662 7665
7662 7666
7663 7664
7663 7971
7663 7665
7663 7666
7664 7769
7664 7666
7665 7769
7665 7971
7665 7666
7668 7669
7668 7670
7669 8502
7670 8654
7670 9269
7670 9270
7671 8411
7672 8411
7677 8654
7678 7679
7678 7681
7679 7680
7679 7681
7679 8981
7680 7681
7681 9485
7681 9103
7684 7685
7687 7688
7687 7689
7687 7690
7687 7691
7688 7689
7688 7905
7689 7904
7692 7693
7693 7867
7693 7876
7694 7695
7694 7696
7694 7697
7694 7698
7694 7699
7694 7700
7695 7697
7695 7698
7695 8009
7695 7699
7695 7700
7696 7697
7696 7698
7696 8009
7696 7699
7696 7700
7697 7698
7697 8009
7697 7699
7698 8009
7698 7699
7699 7700
7703 8971
7703 8972
7704 7705
7705 8714
7705 8715
7706 7707
7706 7708
7706 7709
7706 7710
7706 7711
7706 7712
7707 8069
7707 7708
7707 8070
7707 8071
7707 8072
7707 7709
7707 7710
7707 8073
7707 7712
7708 8070
7708 8071
7708 8072
7708 7709
7708 8761
7708 7710
7709 8069
7709 8070
7709 8071
7709 8072
7709 8073
7709 7712
7710 8069
7710 8187
7710 7712
7711 9582
7711 9602
7712 8069
7712 8187
7712 8073
7713 7714
7713 7715
7713 7716
7714 7715
7714 7716
7714 8191
7715 7716
7716 7717
7717 8191
7718 8191
7724 7725
7724 7726
7724 7727
7724 7728
7724 7729
7724 7730
7724 7731
7725 7726
7725 7727
7725 7728
7725 7730
7726 7727
7726 8212
7726 7728
7726 7729
7726 7730
7726 7731
7727 8212
7727 7728
7727 7729
7727 7730
7727 7731
7728 8212
7728 7729
7728 7730
7729 8212
7729 7730
7729 7731
7730 8212
7730 7731
7732 8939
7734 7735
7734 9233
7735 9233
7736 7737
7736 7738
7736 7739
7737 7738
7737 7739
7738 8547
7738 7739
7743 7744
7743 7745
7744 7782
7745 8801
7746 7747
7746 7748
7746 7749
7746 7750
7746 7751
7747 7748
7747 7749
7747 7750
7747 7751
7748 7749
7748 7750
7748 7751
7749 7750
7749 7751
7750 7751
7752 7753
7752 7754
7752 7755
7752 7756
7752 7757
7753 8745
7753 8746
7753 7754
7753 7756
7753 7757
7754 7756
7755 9473
7755 8745
7755 9474
7755 8746
7755 9475
7755 7757
7757 9473
7757 8745
7757 9474
7757 8746
7757 9475
7769 7971
7770 7771
7770 7772
7770 7773
7770 7774
7770 7775
7770 7776
7770 7777
7771 7773
7771 7774
7771 7777
7772 9266
7772 7773
7772 7774
7772 7777
7773 9266
7773 7774
7773 7775
7773 7776
7773 7777
7774 9266
7774 7775
7774 7776
7774 7777
7775 7776
7775 7777
7777 9266
7780 9119
7781 7782
7783 9594
7784 7785
7784 7786
7784 7787
7784 7788
7785 7786
7785 7787
7785 7789
7785 7788
7786 7789
7787 7789
7791 7794
7792 7793
7796 7797
7796 7798
7796 7799
7796 7800
7797 8278
7797 9631
7798 9631
7798 8279
7799 8911
7799 8912
7799 8913
7799 9632
7799 9122
7799 8915
7799 8916
7799 8917
7799 8918
7800 9195
7800 8278
7800 9631
7800 9634
7800 9629
7805 7807
7806 7812
7807 8599
7807 7810
7807 7811
7807 7812
7808 7812
7809 7812
7812 8599
7813 7814
7813 7815
7813 7816
7813 7817
7813 7818
7813 7819
7813 7820
7813 7821
7814 7815
7814 7817
7814 7818
7814 8465
7814 7819
7814 7820
7815 8651
7815 7816
7815 7817
7815 8652
7815 8465
7815 7821
7816 8652
7817 8652
7818 8652
7819 8652
7819 8465
7819 7820
7819 9567
7820 8651
7820 8652
7824 8864
7824 7829
7831 7832
7831 7833
7831 7834
7831 7835
7832 7911
7832 7912
7832 7833
7832 7834
7832 7835
7832 8558
7832 7914
7832 7915
7833 7834
7833 7835
7834 7835
7834 8558
7835 7911
7835 8558
7837 7838
7837 7839
7837 7840
7837 7841
7837 7842
7838 7839
7838 7840
7838 7841
7838 7842
7839 7840
7839 7841
7839 7842
7840 7841
7840 7842
7841 7842
7845 7846
7846 7943
7848 7849
7848 7850
7850 7957
7850 7958
7850 7959
7850 8739
7850 7961
7851 8881
7851 8882
7852 7853
7852 7854
7852 7855
7852 7856
7852 7857
7853 7854
7853 7855
7853 7856
7854 7855
7854 7856
7855 7856
7856 7857
7858 7859
7858 7860
7858 7861
7858 7862
7859 7860
7859 7861
7859 7862
7859 8905
7860 8996
7860 7861
7860 8997
7860 7862
7860 8998
7860 8905
7861 8996
7861 8997
7861 7862
7861 8998
7861 8905
7862 8996
7862 8997
7862 8998
7862 8905
7863 7864
7866 8569
7878 8466
7879 8730
7879 8466
7879 8731
7880 8466
7881 7882
7881 8169
7881 7883
7882 7883
7885 7886
7885 7887
7886 7887
7886 9071
7886 9072
7886 9073
7887 8906
7887 9070
7887 8137
7887 8138
7887 8139
7887 8140
7887 8141
7887 9071
7887 9072
7888 7889
7888 7890
7888 7891
7889 7890
7889 7891
7890 8881
7890 7891
7891 8840
7893 7894
7896 7897
7898 7899
7898 7900
7898 7901
7899 7900
7899 7901
7900 7901
7904 7905
7905 8592
7906 7907
7908 7909
7908 7910
7909 7910
7911 7912
7911 7913
7911 7914
7911 7915
7912 7913
7912 8558
7912 7914
7912 7915
7913 7915
7914 7915
7915 8558
7916 7917
7916 7918
7917 7918
7920 7921
7920 7922
7920 7923
7920 7924
7921 7951
7921 7953
7922 9608
7922 7953
7922 7924
7922 9166
7923 7952
7923 9609
7924 7953
7924 9166
7926 8498
7926 8499
7926 7927
7932 8282
7935 8282
7937 8282
7941 8282
7949 7950
7950 8603
7951 7952
7951 7953
7952 9608
7952 9609
7952 7953
7952 9166
7956 7957
7956 7958
7956 7959
7956 7960
7956 7961
7957 7958
7957 7959
7957 7960
7957 8739
7957 8740
7958 7959
7958 7960
7958 8739
7958 8740
7958 8909
7959 7960
7959 8739
7959 8079
7959 8740
7959 8909
7959 7961
7960 8739
7960 8079
7960 8909
7960 7961
7961 8739
7961 8740
7968 7969
7968 7970
7969 9183
7969 9184
7970 9182
7972 7973
7974 7975
7974 7976
7974 7977
7974 7978
7974 7979
7974 7980
7974 7981
7975 7976
7975 7979
7976 7978
7976 7979
7976 7981
7978 7979
7978 7980
7979 8801
7980 7981
7985 7986
7986 8417
7986 8418
7986 8419
7986 8420
7986 8421
7987 8263
7987 8264
7989 7990
7989 7991
7989 7992
7990 7991
7990 9280
7990 9281
7990 7992
7993 7994
7994 9115
7999 8600
8004 8005
8006 8007
8010 8011
8010 8012
8010 8013
8010 8014
8010 8015
8011 8012
8011 8013
8011 8014
8011 8015
8012 8013
8013 8014
8014 8015
8015 8321
8019 8020
8019 8021
8019 8022
8020 8021
8020 8022
8021 8022
8023 8024
8035 9549
8035 8039
8053 8054
8053 8055
8053 8056
8053 8057
8053 8058
8053 8059
8053 8060
8053 8061
8054 8057
8055 8056
8055 8057
8055 8058
8055 8061
8056 8057
8056 8058
8056 8060
8056 8061
8057 8058
8057 8060
8057 8061
8058 8060
8059 9507
8059 9508
8059 9509
8059 9510
8059 9511
8059 8061
8060 8061
8063 8511
8065 9308
8066 8067
8066 8068
8067 8068
8069 8187
8070 8071
8070 8072
8070 8761
8070 8187
8070 8073
8071 8072
8071 8761
8072 8761
8072 8187
8072 8073
8073 8187
8074 8075
8075 8267
8075 8268
8085 9094
8086 8087
8086 8088
8086 8089
8086 8090
8086 8091
8087 8088
8087 8089
8087 8090
8088 8089
8088 8091
8089 8090
8090 8091
8092 8093
8092 8094
8093 8094
8096 8097
8096 9100
8098 9438
8100 8101
8100 8102
8100 8103
8100 8104
8101 8102
8101 8104
8102 8103
8102 8104
8103 8104
8106 8107
8113 8114
8113 8115
8113 8116
8113 8117
8114 9380
8114 8115
8114 8116
8114 8117
8114 9467
8115 9380
8115 8117
8115 9467
8116 8476
8116 8117
8117 8476
8117 9380
8117 9467
8123 8124
8123 8125
8124 8125
8126 8127
8129 8130
8129 8131
8129 8132
8129 8133
8129 8134
8129 8135
8130 8131
8130 8132
8130 8133
8130 8134
8130 8135
8131 8132
8131 8133
8131 8134
8131 8135
8132 8133
8132 8134
8132 8135
8133 8134
8133 8135
8134 8135
8136 8137
8136 8138
8136 8139
8136 8140
8136 8141
8137 9071
8142 8143
8142 9479
8142 9480
8144 8145
8144 8146
8144 8147
8144 8148
8145 8148
8146 8147
8147 9456
8147 8148
8148 9456
8149 8150
8149 8151
8150 8151
8152 8153
8152 8154
8153 8154
8155 8156
8157 8158
8157 8159
8158 8159
8160 8161
8160 8162
8160 8163
8161 8559
8161 8672
8161 8932
8161 9301
8161 9323
8161 9324
8161 8933
8161 9394
8161 9325
8161 9326
8161 9327
8161 9328
8161 9329
8161 8560
8161 9330
8161 9333
8161 9395
8161 9334
8161 8163
8162 8559
8162 8672
8162 8932
8162 9301
8162 9323
8162 9324
8162 8933
8162 9394
8162 9325
8162 9326
8162 9327
8162 9328
8162 9329
8162 8560
8162 9330
8162 9333
8162 9395
8162 9334
8162 8163
8163 9121
8163 9241
8163 9299
8163 9301
8163 9323
8163 8933
8163 9394
8163 9328
8163 8560
8163 9330
8163 9331
8163 9332
8163 9333
8163 9395
8163 9334
8166 8167
8173 8174
8175 8176
8175 8177
8175 8178
8175 8179
8178 8728
8178 9404
8178 8729
8178 9306
8178 9307
8180 8181
8182 8183
8182 8184
8182 8185
8182 8186
8183 8184
8183 8185
8183 8186
8184 8185
8184 8186
8185 8186
8187 8761
8188 8189
8188 8190
8189 8190
8189 9128
8190 9128
8193 9052
8195 8738
8195 9451
8195 8589
8195 8590
8201 8202
8202 8203
8202 8204
8202 8205
8209 8210
8209 8211
8210 8211
8210 8287
8211 8287
8216 8217
8216 8218
8216 8219
8216 8220
8217 8218
8217 8219
8217 8220
8217 8556
8218 8220
8218 8556
8219 8220
8219 8556
8220 8556
8221 8222
8221 8223
8221 8224
8221 8225
8221 8226
8222 8224
8222 8225
8223 8226
8223 9062
8224 9061
8224 9229
8224 9230
8224 9298
8224 9231
8224 9559
8224 9581
8224 9595
8224 9599
8224 9600
8224 8225
8224 9232
8224 8330
8224 8226
8224 9617
8224 9062
8224 8331
8225 9020
8225 9581
8226 8329
8226 9061
8226 9229
8226 9559
8226 9595
8226 9599
8226 9600
8226 8330
8226 9617
8226 9062
8226 8331
8227 9100
8228 9195
8228 8278
8228 8280
8232 8995
8238 8239
8238 8240
8238 8241
8239 8240
8239 8241
8240 8241
8242 8243
8242 8244
8243 8244
8245 8246
8245 8247
8245 8248
8246 8548
8246 8248
8249 8250
8249 8251
8249 8252
8249 8253
8250 8251
8250 9351
8251 8252
8251 9351
8253 9351
8259 8260
8259 8261
8260 8261
8263 8954
8263 8264
8264 8954
8267 8268
8270 8271
8270 8272
8270 8273
8270 8274
8271 8272
8271 8273
8271 8274
8272 8273
8272 8274
8273 8274
8275 8276
8275 8277
8276 8277
8277 8341
8278 9195
8278 8280
8279 9631
8280 9122
8280 9631
8289 8290
8289 8291
8289 8292
8289 8293
8290 8292
8291 8292
8291 8293
8292 8293
8294 8295
8295 8550
8295 8551
8296 8297
8296 8298
8296 8299
8296 8300
8296 8301
8297 8298
8297 8299
8297 8300
8298 8975
8298 8299
8298 8300
8298 8301
8299 8975
8299 8300
8299 8301
8300 8975
8301 8975
8304 8305
8306 8414
8307 8414
8310 8312
8313 8314
8317 9369
8318 8319
8319 9063
8320 8321
8320 8322
8321 8322
8323 8324
8323 8325
8323 8326
8323 8327
8323 8328
8324 8325
8324 8326
8324 8327
8325 8326
8325 8327
8325 8328
8326 8974
8326 8327
8326 8328
8327 8974
8329 8330
8329 8331
8330 9229
8330 9230
8330 9298
8330 9231
8330 9559
8330 9595
8330 9599
8330 9600
8330 9232
8330 9617
8330 9062
8330 8331
8331 9230
8331 9231
8331 9232
8331 9062
8332 8733
8332 9377
8332 8734
8332 9378
8332 8735
8336 8337
8338 8339
8338 8340
8339 8340
8352 8353
8352 8354
8353 8354
8355 8356
8357 8358
8357 8359
8358 8359
8358 9355
8359 9355
8360 8362
8361 8362
8364 8365
8364 8366
8364 8367
8364 8368
8365 9024
8365 8366
8365 8367
8366 9024
8366 8367
8366 8368
8367 9024
8367 8368
8368 9024
8369 8370
8384 8385
8384 8386
8385 8386
8387 8388
8387 8389
8387 8390
8387 8391
8388 8977
8388 8389
8388 8391
8389 8977
8389 8390
8389 8391
8391 8977
8393 8394
8395 8396
8395 8397
8396 8397
8400 8401
8400 8402
8400 8403
8400 8404
8400 8405
8401 8402
8401 8403
8401 8404
8401 8405
8402 8403
8402 8404
8402 8405
8403 8404
8403 8405
8404 8405
8408 8839
8408 8840
8412 8413
8413 8923
8413 8924
8415 9005
8415 8416
8416 9005
8417 8418
8417 8419
8418 8419
8418 8420
8419 8420
8423 8424
8423 8425
8423 8426
8424 8425
8424 8426
8425 8426
8427 8428
8427 8429
8428 9014
8428 8429
8429 9014
8431 8432
8433 8434
8433 8435
8433 8436
8433 8437
8433 8438
8434 8435
8434 8437
8434 8438
8435 8436
8435 8437
8435 8438
8436 8437
8436 8438
8437 8438
8440 8441
8440 8442
8440 8443
8441 8442
8441 8443
8444 8445
8444 8446
8446 8577
8447 8956
8447 8957
8447 8449
8448 8449
8449 8957
8453 8455
8454 8456
8457 8498
8457 8499
8457 9136
8457 9138
8457 9305
8467 8468
8467 8469
8467 8470
8467 8471
8467 8472
8467 8473
8467 8474
8467 8475
8468 9130
8468 8470
8468 8471
8468 8472
8468 9131
8468 9132
8468 9133
8468 8475
8469 8471
8469 8472
8469 8475
8470 9130
8470 9381
8470 9382
8470 8471
8470 8472
8470 8473
8470 8474
8471 9130
8471 9382
8471 8472
8471 8473
8471 9131
8471 9133
8472 9381
8472 9382
8472 8473
8472 8474
8472 8475
8473 9381
8473 9382
8474 9130
8474 9131
8474 9132
8474 9133
8475 9130
8475 9131
8475 9132
8475 9133
8480 8481
8480 8482
8481 8482
8493 8494
8493 8495
8493 8496
8494 8496
8502 8605
8508 9368
8515 8519
8517 8519
8518 8519
8519 8522
8523 8525
8523 8526
8524 8525
8524 8526
8525 8526
8527 8528
8527 8529
8527 8530
8527 8531
8528 9032
8528 8529
8528 8530
8528 8531
8529 8530
8529 8531
8530 9032
8530 8531
8531 9032
8535 8536
8535 8537
8535 8538
8535 8539
8535 8540
8535 8541
8536 8779
8536 9006
8536 8537
8536 8538
8536 8539
8536 8540
8536 8541
8537 8778
8537 8538
8537 8539
8537 8541
8538 8778
8538 8779
8538 9006
8538 8539
8538 8540
8538 8541
8539 8778
8539 8779
8539 9006
8539 8540
8539 8541
8540 8541
8541 8778
8541 8779
8541 9006
8542 8543
8542 8544
8543 8544
8545 8546
8548 8604
8549 8550
8549 8551
8550 8551
8553 8554
8553 8555
8554 9607
8555 9015
8555 9607
8559 8560
8560 9121
8560 9241
8560 9299
8560 9324
8560 9394
8560 9325
8560 9326
8560 9327
8560 9329
8560 9331
8560 9332
8560 9395
8561 8562
8561 8563
8561 8564
8561 8565
8561 8566
8561 8567
8561 8568
8562 8563
8562 8564
8562 8565
8562 8566
8562 8567
8562 8568
8562 9101
8562 9102
8563 8564
8563 8567
8563 8568
8564 8565
8564 8566
8564 8567
8564 9101
8564 9102
8565 8566
8565 8567
8565 8568
8565 9101
8565 9102
8566 8567
8566 8568
8566 9101
8566 9102
8567 9102
8568 9101
8571 8572
8571 8573
8571 8574
8571 8575
8572 8573
8572 8574
8572 8575
8573 8574
8573 8575
8574 8575
8582 9246
8582 9247
8582 9248
8583 8584
8583 8585
8583 8586
8584 8585
8584 8586
8585 8586
8589 8738
8589 9451
8589 8590
8590 8738
8590 9451
8591 8592
8592 9226
8602 9242
8602 9243
8602 8966
8604 8684
8606 8607
8606 8608
8606 8609
8606 8610
8606 8611
8607 8608
8607 8609
8607 8610
8607 8611
8607 9402
8608 8609
8608 8610
8608 8611
8608 9402
8609 8610
8609 8611
8609 9402
8610 8611
8610 9402
8611 9402
8612 8613
8613 9379
8616 8617
8616 8618
8617 8618
8623 8624
8623 8625
8624 9080
8624 9081
8624 8625
8625 9080
8625 9081
8626 8627
8626 8628
8626 8629
8626 8630
8626 8631
8627 8628
8627 8630
8628 8629
8628 8631
8629 8630
8629 8631
8630 8631
8633 8634
8633 8635
8633 8636
8634 9001
8634 9002
8634 8636
8635 9000
8635 9001
8635 8636
8636 8999
8636 9000
8636 9001
8636 9002
8636 9003
8639 8988
8639 8640
8639 9448
8639 9449
8640 8988
8640 9491
8640 9449
8644 8645
8644 8646
8644 8647
8644 8648
8645 8646
8645 8647
8645 8648
8646 8647
8646 8648
8647 8648
8654 9269
8654 9270
8658 8826
8659 8660
8660 8861
8663 8664
8663 8665
8664 8665
8668 8669
8668 8670
8668 8671
8669 8670
8669 8671
8670 8671
8673 8674
8673 8675
8673 8676
8674 9598
8674 8675
8674 8676
8675 8676
8680 8681
8682 8683
8690 8691
8690 8692
8690 8693
8692 8693
8694 8695
8694 8696
8694 8697
8694 8698
8694 8699
8694 8700
8695 9364
8695 8697
8695 9365
8695 8698
8695 9366
8695 8699
8695 9367
8696 9364
8696 9365
8696 8699
8696 8700
8697 9364
8697 9365
8697 9366
8697 8699
8697 9367
8698 9364
8698 9365
8698 9366
8698 8699
8698 8700
8698 9367
8699 9364
8699 9365
8699 9367
8700 9364
8700 9365
8703 8704
8703 8705
8703 8706
8703 8707
8703 8708
8704 8705
8704 8706
8704 8707
8704 8708
8705 8706
8705 8707
8706 8707
8706 8708
8707 8708
8710 8711
8710 8712
8711 8712
8714 8715
8718 8719
8718 8720
8718 8721
8718 8722
8719 8720
8719 9245
8719 8721
8719 8722
8720 9245
8720 8721
8720 8722
8721 8722
8723 8724
8723 8725
8723 8726
8724 8726
8725 8726
8728 8729
8733 9377
8733 8734
8733 9378
8733 8735
8733 8736
8734 9377
8734 8735
8734 8736
8735 8736
8736 9377
8736 9378
8738 9451
8739 8740
8745 9473
8745 9474
8745 8746
8746 9473
8746 9474
8746 9475
8748 8749
8748 8750
8749 8751
8749 8773
8749 8752
8749 9007
8749 9008
8749 8750
8750 8751
8750 8773
8750 9007
8751 8752
8752 9007
8752 9008
8755 8756
8755 8757
8755 8758
8755 8759
8755 8760
8756 8757
8756 8758
8756 8759
8756 8760
8757 8758
8757 8759
8757 8760
8758 8759
8758 8760
8759 8760
8762 8763
8762 8764
8763 8764
8765 8766
8765 8767
8766 8767
8768 9546
8768 8844
8768 9551
8768 8853
8774 8775
8774 8776
8774 8777
8775 9405
8775 8776
8775 8777
8776 8777
8778 8779
8779 9006
8781 8782
8781 8783
8781 8784
8782 8783
8782 8784
8783 8784
8801 9389
8807 8808
8807 8809
8807 8810
8808 8810
8809 8810
8813 9160
8814 9318
8815 8816
8815 8817
8815 8818
8815 8819
8815 8820
8816 8817
8816 8818
8816 8819
8816 8820
8817 8818
8817 8819
8817 8820
8818 8819
8818 8820
8819 8820
8822 8823
8822 8824
8823 8824
8825 8826
8827 8828
8829 8830
8829 8831
8829 8832
8830 8831
8830 8832
8833 8834
8833 8835
8833 8836
8833 8837
8833 8838
8834 8835
8834 8836
8834 8837
8834 8838
8835 8836
8835 8837
8835 8838
8836 8837
8836 8838
8837 8838
8842 8843
8842 8844
8842 8845
8843 8844
8843 9550
8843 8845
8844 8852
8844 9546
8844 8854
8844 9550
8844 8845
8845 8852
8845 9551
8845 8853
8845 8854
8845 9550
8847 8848
8847 8849
8847 8850
8847 8851
8848 9309
8848 9310
8848 8849
8848 8850
8848 8851
8849 9310
8849 8851
8850 9309
8850 8851
8851 9309
8851 9310
8852 8853
8852 8854
8853 8854
8854 9550
8855 8856
8857 8882
8857 8989
8857 8858
8858 8881
8858 8882
8858 8989
8860 8861
8865 8866
8865 8867
8865 8868
8865 8869
8865 8870
8866 8867
8866 8868
8866 8869
8866 9353
8867 8868
8867 8869
8867 9353
8867 8870
8868 8869
8868 9353
8868 8870
8869 9353
8869 8870
8870 9353
8871 8872
8872 9140
8874 8875
8874 8876
8875 8876
8881 8882
8882 8989
8885 8886
8885 8887
8885 8888
8885 8889
8885 8890
8886 8887
8886 8888
8886 8889
8886 8890
8887 8888
8887 8889
8887 8890
8888 8889
8888 8890
8889 8890
8892 8893
8892 8894
8892 8895
8892 8896
8893 8896
8894 8896
8895 8896
8899 8900
8899 8901
8899 8902
8899 8903
8901 8903
8905 8998
8911 8912
8911 8913
8911 8914
8911 8915
8911 8916
8911 8917
8911 8918
8912 8913
8912 9632
8912 9122
8912 8915
8912 8916
8912 8917
8913 9632
8913 8915
8913 8916
8913 8917
8913 8918
8914 9628
8914 8917
8914 8918
8915 9632
8915 9628
8915 9122
8915 8916
8915 8917
8915 8918
8916 9632
8916 9122
8916 8917
8917 9632
8917 8918
8918 9632
8918 9628
8918 9122
8923 8924
8928 8929
8929 9043
8929 9544
8932 8933
8933 9330
8934 8935
8934 8936
8935 9141
8935 8936
8936 9141
8936 9142
8941 8942
8942 9393
8943 9346
8946 8947
8946 8948
8946 8949
8956 9156
8956 8957
8957 9156
8960 8961
8960 8962
8961 8962
8965 9243
8965 8966
8966 8967
8971 8972
8976 9571
8978 8979
8981 9103
8982 8983
8982 8984
8982 8985
8982 8986
8982 8987
8983 8984
8983 8985
8983 8986
8983 8987
8984 8985
8984 8986
8984 8987
8985 8987
8986 8987
8991 9433
8991 9434
8992 8993
8992 9433
8993 9433
8996 8997
8997 8998
8999 9000
8999 9001
8999 9002
8999 9003
9001 9003
9002 9003
9007 9008
9010 9011
9011 9423
9011 9424
9011 9425
9015 9607
9016 9017
9016 9018
9017 9018
9021 9022
9021 9023
9022 9023
9029 9030
9030 9209
9033 9034
9039 9040
9039 9041
9040 9041
9044 9045
9044 9046
9045 9046
9048 9049
9053 9054
9053 9055
9053 9056
9053 9057
9053 9058
9053 9059
9053 9060
9054 9055
9054 9056
9054 9057
9054 9058
9054 9059
9054 9060
9055 9056
9055 9057
9055 9058
9055 9059
9055 9457
9055 9458
9056 9058
9056 9059
9057 9058
9057 9059
9058 9059
9058 9457
9058 9458
9058 9060
9059 9457
9059 9458
9059 9060
9061 9062
9062 9229
9062 9230
9062 9298
9062 9231
9062 9595
9062 9599
9062 9232
9062 9617
9065 9066
9065 9067
9066 9264
9066 9067
9066 9234
9066 9265
9067 9264
9067 9234
9067 9265
9070 9071
9071 9072
9071 9073
9074 9075
9074 9076
9074 9077
9074 9078
9074 9079
9075 9077
9075 9079
9076 9259
9076 9077
9076 9261
9076 9078
9076 9079
9077 9261
9077 9079
9078 9259
9078 9260
9078 9261
9078 9262
9078 9079
9078 9263
9079 9259
9079 9261
9079 9263
9084 9085
9084 9086
9085 9086
9095 9096
9095 9097
9095 9098
9095 9099
9096 9097
9096 9098
9096 9099
9097 9098
9097 9099
9098 9099
9103 9485
9104 9105
9104 9106
9104 9107
9104 9108
9105 9106
9105 9108
9106 9108
9107 9350
9107 9108
9108 9350
9109 9110
9109 9111
9109 9112
9109 9113
9109 9114
9109 9115
9110 9111
9110 9239
9110 9114
9110 9115
9111 9112
9111 9114
9111 9115
9112 9114
9113 9259
9113 9260
9113 9239
9113 9115
9113 9263
9114 9115
9115 9262
9115 9239
9122 9632
9123 9124
9123 9125
9123 9126
9123 9127
9124 9125
9124 9126
9124 9127
9126 9127
9130 9381
9130 9382
9130 9133
9137 9305
9137 9139
9138 9155
9138 9618
9138 9305
9138 9139
9139 9305
9141 9142
9144 9460
9145 9146
9145 9147
9145 9148
9145 9149
9145 9385
9145 9386
9145 9150
9145 9387
9145 9388
9146 9148
9147 9148
9148 9385
9148 9386
9148 9387
9148 9388
9151 9152
9151 9153
9152 9153
9154 9593
9154 9155
9155 9593
9155 9618
9157 9158
9157 9159
9158 9159
9166 9608
9166 9609
9169 9170
9177 9178
9177 9179
9177 9180
9177 9181
9178 9179
9178 9180
9178 9181
9179 9180
9179 9181
9180 9181
9182 9184
9183 9184
9195 9196
9196 9631
9196 9629
9202 9203
9202 9204
9202 9205
9202 9206
9202 9207
9203 9204
9203 9205
9203 9208
9203 9206
9203 9207
9204 9205
9204 9208
9204 9206
9204 9207
9205 9208
9205 9206
9205 9207
9206 9208
9206 9207
9207 9208
9219 9351
9221 9222
9223 9224
9223 9225
9224 9225
9227 9267
9227 9268
9229 9230
9229 9231
9229 9232
9234 9265
9239 9260
9239 9262
9239 9263
9246 9304
9246 9247
9246 9248
9247 9304
9247 9248
9248 9304
9253 9254
9253 9255
9253 9256
9253 9257
9254 9256
9259 9260
9259 9261
9259 9262
9259 9263
9260 9263
9261 9262
9261 9263
9262 9263
9264 9265
9267 9268
9269 9529
9269 9530
9270 9584
9272 9273
9272 9274
9273 9274
9275 9276
9275 9277
9275 9278
9276 9277
9276 9278
9277 9278
9280 9281
9283 9482
9292 9293
9292 9294
9292 9295
9293 9493
9293 9495
9293 9294
9293 9295
9294 9295
9309 9310
9312 9484
9323 9327
9324 9327
9325 9326
9326 9394
9326 9327
9326 9329
9326 9395
9327 9333
9335 9336
9335 9337
9336 9337
9339 9340
9339 9341
9343 9344
9348 9349
9357 9358
9359 9360
9359 9361
9359 9362
9360 9362
9361 9362
9364 9365
9364 9366
9364 9367
9365 9366
9369 9555
9369 9556
9381 9382
9405 9406
9405 9407
9405 9408
9405 9409
9406 9407
9406 9408
9406 9409
9407 9408
9407 9409
9408 9409
9411 9413
9416 9417
9416 9418
9416 9419
9417 9418
9417 9419
9418 9419
9423 9424
9423 9425
9424 9425
9427 9428
9430 9431
9430 9432
9430 9433
9430 9434
9430 9435
9431 9432
9431 9434
9431 9435
9432 9558
9432 9569
9432 9433
9432 9434
9432 9435
9433 9558
9433 9570
9433 9569
9433 9434
9433 9435
9434 9570
9434 9569
9434 9435
9435 9470
9435 9558
9435 9570
9435 9569
9435 9471
9439 9440
9439 9441
9440 9441
9449 9491
9449 9525
9452 9453
9452 9454
9452 9455
9453 9454
9454 9455
9460 9531
9461 9605
9470 9558
9471 9558
9473 9474
9473 9475
9474 9475
9481 9482
9482 9488
9492 9493
9492 9494
9492 9495
9493 9494
9493 9495
9494 9495
9496 9497
9498 9499
9498 9500
9498 9501
9499 9500
9499 9501
9500 9501
9502 9503
9502 9504
9503 9504
9505 9506
9505 9597
9506 9597
9507 9508
9507 9509
9507 9510
9507 9511
9508 9510
9508 9511
9509 9510
9509 9511
9514 9515
9514 9516
9514 9517
9514 9518
9514 9519
9515 9521
9515 9522
9516 9578
9516 9518
9516 9519
9517 9521
9517 9578
9517 9522
9518 9578
9518 9519
9520 9521
9520 9522
9521 9522
9529 9584
9529 9530
9530 9584
9537 9538
9537 9539
9538 9539
9538 9583
9539 9583
9540 9541
9540 9542
9540 9543
9542 9543
9550 9551
9554 9579
9555 9556
9560 9561
9563 9565
9564 9565
9565 9567
9569 9570
9575 9576
9575 9577
9576 9577
9590 9591
9590 9592
9591 9592
9596 9597
9597 9603
9608 9609
9610 9611
9610 9612
9611 9612
9613 9614
9613 9615
9614 9615
9622 9623
9622 9624
9623 9624
9625 9626
9630 9633
