0 1
0 2
0 3
0 4
1 524
1 2
1 3
1 525
1 526
1 527
1 528
2 524
2 3
2 4
2 525
2 526
2 527
2 528
3 2969
3 4
3 525
3 526
3 527
3 528
5 6
5 7
5 8
5 9
5 10
5 11
5 12
6 8
6 1749
6 1750
7 2096
7 2097
7 7457
7 624
7 2098
7 2099
7 2100
7 2101
7 2102
7 2103
7 2104
7 2105
8 8605
8 1749
8 9
8 10
8 11
8 12
8 1750
8 8606
8 8607
9 12
13 14
13 15
14 17
14 46
14 47
14 48
14 49
14 142
14 50
14 51
14 52
14 53
14 54
14 15
16 17
17 46
17 47
17 48
17 49
17 50
17 51
17 52
17 53
17 54
18 19
18 20
18 21
18 22
18 23
18 24
18 25
18 26
19 20
19 21
19 22
19 23
19 24
19 25
19 26
19 1020
19 1021
19 1022
20 21
20 22
20 23
20 24
20 25
20 26
20 1382
20 1383
20 1276
20 1384
20 1385
20 1386
20 70
20 1387
21 22
21 23
21 24
21 25
21 26
22 345
22 23
22 24
22 25
22 26
22 1945
23 24
23 25
23 26
24 25
24 26
25 26
27 28
27 29
27 30
27 31
27 32
28 2685
28 2686
28 29
28 2688
28 30
28 31
28 32
29 2686
29 2688
29 30
29 31
29 32
30 31
30 32
31 32
33 34
33 35
33 36
33 37
33 38
33 39
33 40
33 41
33 42
33 43
33 44
33 45
34 35
34 36
34 37
34 38
34 39
34 40
34 41
34 42
34 43
34 44
34 45
35 36
35 37
35 38
35 39
35 40
35 41
35 42
35 43
35 44
35 45
36 37
36 38
36 39
36 40
36 41
36 42
36 43
36 44
36 45
37 38
37 39
37 40
37 41
37 42
37 43
37 44
37 45
38 39
38 40
38 41
38 42
38 43
38 44
38 45
39 40
39 41
39 42
39 43
39 44
39 45
40 41
40 42
40 43
40 44
40 45
41 42
41 43
41 44
41 45
42 43
42 44
42 45
43 44
43 45
44 45
46 47
46 531
46 48
46 532
46 49
46 533
46 534
46 50
46 51
46 52
46 53
46 54
46 535
47 48
47 569
47 49
47 50
47 51
47 52
47 53
47 54
48 49
48 50
48 51
48 52
48 53
48 54
49 2515
49 2516
49 2517
49 2518
49 2519
49 50
49 51
49 52
49 53
49 54
50 51
50 52
50 53
50 54
51 52
51 53
51 54
52 53
52 54
53 54
55 56
55 57
55 58
55 59
55 60
55 61
55 62
55 63
55 64
56 57
56 58
56 59
56 60
56 61
56 62
56 63
56 64
57 58
57 59
57 60
57 61
57 62
57 63
57 64
58 59
58 60
58 61
58 62
58 63
58 64
59 60
59 61
59 62
59 63
59 64
60 61
60 62
60 63
60 64
61 62
61 63
61 64
62 63
62 64
63 64
65 66
65 67
65 68
65 69
65 70
66 194
66 195
66 196
66 197
66 198
66 199
67 68
67 69
67 891
67 892
67 893
67 894
67 895
67 896
68 69
70 1382
70 1383
70 1276
70 1384
70 1385
70 3811
70 5128
70 2678
70 1387
70 5129
71 72
71 73
71 74
71 75
71 76
71 77
71 78
71 79
71 80
71 81
71 82
71 83
71 84
71 85
71 86
72 73
72 74
72 75
72 76
72 77
72 78
72 79
72 80
72 81
72 82
72 83
72 84
72 85
72 86
73 74
73 75
73 76
73 77
73 78
73 79
73 80
73 81
73 82
73 83
73 84
73 85
73 86
74 75
74 76
74 77
74 78
74 79
74 80
74 81
74 82
74 83
74 84
74 85
74 86
75 76
75 77
75 78
75 79
75 80
75 81
75 82
75 83
75 84
75 85
75 86
76 6003
76 77
76 78
76 79
76 80
76 81
76 82
76 83
76 84
76 85
76 86
77 78
77 79
77 80
77 81
77 82
77 83
77 84
77 85
77 86
78 4704
78 7918
78 79
78 80
78 81
78 82
78 83
78 84
78 85
78 86
79 80
79 81
79 82
79 83
79 84
79 85
79 86
80 81
80 82
80 83
80 84
80 85
80 86
81 82
81 83
81 84
81 85
81 86
82 83
82 84
82 85
82 86
83 84
83 85
83 86
84 85
84 86
85 86
87 88
87 89
87 90
87 91
87 92
87 93
87 94
88 1682
88 1683
88 1684
89 2071
89 2072
89 2073
89 2074
89 2075
89 2076
89 2077
90 91
90 92
90 93
90 94
91 92
91 93
91 94
92 93
92 94
93 94
95 96
95 97
95 98
95 99
95 100
95 101
96 1371
96 3237
97 3170
97 3171
97 2735
97 4639
97 98
97 99
97 100
97 101
98 99
98 100
98 101
99 3171
99 4639
99 100
99 101
100 101
102 103
102 104
102 105
102 106
102 107
102 108
102 109
102 110
102 111
103 2526
103 2527
103 2528
103 2529
103 2530
103 2531
103 2532
103 2533
104 105
104 106
104 107
104 108
104 109
104 110
104 111
105 2055
105 2777
105 1146
105 2333
105 5560
105 5561
105 2779
105 106
105 107
105 108
105 109
105 110
105 111
106 107
106 108
106 109
106 110
106 111
107 108
107 109
107 110
107 111
108 109
108 110
108 111
109 110
109 111
110 111
112 113
112 114
112 115
112 116
112 117
112 118
112 119
112 120
112 121
113 1056
113 3572
113 3573
113 114
113 115
113 116
113 117
113 3574
113 3575
113 118
113 119
113 120
113 121
114 3572
114 3573
114 115
114 116
114 117
114 3574
114 118
114 119
114 120
114 121
115 3572
115 3573
115 116
115 117
115 3574
115 3575
115 118
115 119
115 120
115 121
116 117
116 3574
116 3575
116 118
116 119
117 3574
117 3575
117 118
117 119
118 3574
118 119
119 3574
120 121
122 123
122 124
122 125
122 126
122 127
122 128
122 129
123 125
123 126
123 127
124 125
125 127
126 772
126 5698
126 6884
126 127
126 128
127 5135
127 6884
127 5136
127 5137
127 128
127 129
128 6884
128 129
130 131
130 132
130 133
130 134
130 135
130 136
130 137
130 138
130 139
131 231
131 232
131 233
131 234
131 235
131 236
131 237
131 238
132 368
132 135
132 136
132 1393
132 1394
132 1395
132 1396
132 1397
132 1398
133 1443
133 1444
133 1445
133 1446
133 1155
133 1447
133 1448
133 1449
133 1450
133 1451
133 1452
133 1453
133 1454
133 1455
133 1456
134 2140
134 2141
134 2142
134 2143
134 2144
134 2145
134 2146
134 2147
135 136
135 1393
135 137
135 1398
136 137
136 138
136 139
136 5005
136 5006
136 5007
137 1393
137 138
137 139
137 5005
137 1398
138 139
138 5005
138 5006
138 5007
139 5005
139 5006
139 5007
140 141
140 142
140 143
140 144
141 142
141 143
141 144
142 395
142 9503
142 9504
142 3730
142 9506
142 143
142 144
143 144
145 146
145 147
145 148
145 149
145 150
145 151
145 152
145 153
145 154
145 155
145 156
145 157
146 5178
146 7910
146 147
146 7911
146 7912
146 7913
147 10633
147 10634
147 10635
147 10636
147 10637
147 10638
148 10919
148 149
148 150
148 151
148 152
148 153
148 154
148 155
148 156
148 157
148 10920
149 150
149 151
149 152
150 151
150 152
150 153
150 154
150 155
150 156
150 157
151 10919
151 152
151 10920
152 153
152 154
152 155
152 156
152 157
153 154
153 155
153 156
153 157
154 155
154 156
154 157
155 156
155 157
156 157
158 159
158 160
158 161
158 162
159 160
159 161
159 8030
159 8031
159 8032
159 8033
160 161
160 162
161 8030
161 8031
161 8032
161 162
163 164
163 165
163 166
163 167
163 168
163 169
163 170
163 171
163 172
163 173
163 174
163 175
163 176
163 177
164 461
164 165
164 166
164 167
164 168
164 169
164 170
164 171
164 172
164 173
164 177
165 166
165 167
165 168
165 169
165 170
165 171
165 172
165 173
165 177
166 167
166 168
166 169
166 170
166 171
166 172
166 173
166 177
167 168
167 169
167 170
167 171
167 172
167 173
167 177
168 169
168 170
168 171
168 172
168 173
168 177
169 170
169 171
169 172
169 173
169 177
170 171
170 172
170 173
170 177
171 172
171 173
171 177
172 173
172 177
173 177
174 175
174 176
175 176
178 179
178 180
178 181
178 182
178 183
178 184
178 185
179 180
179 181
179 182
179 183
179 184
179 185
180 181
180 182
180 183
180 6150
180 184
180 185
181 1833
181 1834
181 182
181 183
181 6150
181 184
181 185
182 183
182 184
182 185
183 184
183 185
184 185
186 187
186 188
186 189
186 190
186 191
186 192
186 193
187 188
187 2737
187 191
187 192
187 2738
187 2739
187 2740
188 3457
188 189
188 190
188 191
188 3458
188 192
188 3459
188 3460
188 3461
188 193
188 3462
188 3463
188 3464
188 3465
188 3466
188 3467
188 3468
188 3469
189 190
189 191
189 3459
190 191
190 3459
190 193
190 6184
191 4275
191 3458
191 192
191 2738
191 3461
191 193
191 7854
191 7855
191 6184
191 7856
191 7857
191 7858
191 7859
192 3457
192 2737
192 3459
192 2739
192 3460
192 3461
192 3462
192 3463
192 3464
192 3465
192 3466
192 3467
192 3468
192 3469
193 3458
193 2738
193 3461
193 7854
193 7855
193 7856
193 7857
193 7858
193 7859
194 195
194 196
194 197
194 198
194 199
195 196
195 197
195 198
195 199
196 197
196 198
196 199
197 198
197 199
198 199
200 201
200 202
200 203
200 204
200 205
200 206
200 207
201 202
201 203
201 204
201 205
201 657
202 204
202 205
203 204
203 205
203 206
203 207
204 205
205 657
208 209
208 210
208 211
208 212
208 213
208 214
208 215
208 216
208 217
208 218
208 219
208 220
208 221
208 222
209 250
209 251
209 252
209 253
209 254
209 255
209 256
209 257
209 258
209 259
209 260
209 261
209 262
209 263
209 264
209 265
210 213
210 214
210 215
210 216
210 217
210 218
210 219
210 220
210 221
211 212
211 213
211 214
211 222
212 213
212 214
212 222
213 214
213 215
213 216
213 217
213 218
213 219
213 220
213 221
214 252
214 215
214 216
214 217
214 218
214 219
214 220
214 221
215 216
215 217
215 218
215 2812
215 219
215 220
215 221
216 217
216 218
216 219
216 220
216 221
217 218
217 219
217 220
217 221
218 252
218 219
218 220
218 221
218 3668
219 220
219 221
220 221
222 7212
222 7213
222 7214
222 7215
222 7216
223 224
223 225
223 226
223 227
223 228
223 229
223 230
224 273
224 274
224 275
224 276
224 277
225 1353
225 1354
225 1355
225 1356
225 1357
226 227
226 228
226 229
226 230
227 4235
227 228
227 229
227 230
228 229
228 230
229 230
231 232
231 233
231 234
231 235
231 236
231 237
231 238
232 233
232 234
232 235
232 236
232 237
232 238
233 234
233 235
233 236
233 237
233 238
234 235
234 236
234 237
234 238
235 236
235 237
235 238
236 237
236 238
237 238
239 240
239 241
239 242
239 243
239 244
239 245
239 246
239 247
240 248
240 249
241 242
241 243
241 244
242 243
242 244
243 244
245 246
246 3291
247 2968
247 3291
247 4585
247 4586
247 4587
247 4588
247 4589
247 1288
247 1289
247 1290
248 249
250 1820
250 251
250 253
250 255
250 256
250 257
250 258
250 259
250 260
250 261
250 262
250 263
250 264
250 2307
251 253
251 255
251 256
251 257
251 258
251 259
251 260
251 261
251 262
251 263
251 264
251 3294
251 3295
251 3296
251 3297
251 3298
251 3299
251 3300
251 3301
251 3302
251 3303
252 254
252 3665
252 3666
252 3667
252 3668
252 3669
252 265
252 3670
253 255
253 256
253 257
253 258
253 259
253 260
253 261
253 3696
253 262
253 263
253 264
253 3697
253 3698
253 3699
254 4151
254 4152
254 4153
254 4154
254 4155
254 4156
254 265
254 4157
255 256
255 257
255 258
255 259
255 260
255 261
255 262
255 263
255 264
256 257
256 258
256 259
256 260
256 261
256 1127
256 262
256 263
256 264
256 4155
257 258
257 259
257 260
257 261
257 262
257 263
257 264
258 259
258 260
258 261
258 262
258 263
258 264
259 260
259 261
259 262
259 263
259 264
260 261
260 262
260 263
260 264
261 1127
261 262
261 263
261 264
261 4155
262 263
262 264
263 264
265 4151
265 4153
265 4154
265 4155
265 4156
265 4157
265 6971
265 7557
266 267
266 268
266 269
266 270
266 271
266 272
267 268
267 269
267 270
267 271
267 272
268 3782
268 269
268 270
268 271
268 272
269 270
269 271
269 272
270 271
270 272
271 272
273 274
273 275
273 276
273 277
274 275
274 276
274 277
275 276
275 277
276 277
278 279
278 280
278 281
278 282
278 283
278 284
278 285
278 286
278 287
278 288
278 289
279 280
279 281
279 282
279 283
279 284
279 285
279 286
279 287
279 288
279 289
280 281
280 282
280 283
280 284
280 285
280 286
280 287
280 288
280 289
281 282
281 283
281 284
281 285
281 286
281 287
281 288
281 289
282 283
282 284
282 285
282 286
282 287
282 288
282 289
283 284
283 285
283 286
283 287
283 288
283 289
284 2203
284 285
284 286
284 287
284 288
284 289
285 286
285 287
285 288
285 289
286 287
286 288
286 289
287 288
287 289
288 289
290 291
290 292
290 293
290 294
290 295
290 296
290 297
290 298
291 292
291 293
291 294
291 295
291 296
291 297
291 298
291 592
291 593
291 594
291 595
291 596
291 597
291 598
291 599
292 293
294 295
294 296
294 297
294 298
295 296
295 297
295 298
295 3292
295 3293
296 297
296 298
297 298
297 1740
299 300
299 301
299 302
299 303
299 304
299 305
299 306
299 307
299 308
299 309
299 310
299 311
299 312
299 313
299 314
299 315
299 316
299 317
299 318
299 319
299 320
299 321
299 322
299 323
299 324
300 5386
300 5387
300 309
300 311
300 5388
300 316
300 318
300 319
300 5389
300 323
301 302
301 307
301 308
301 309
301 6225
301 5841
301 6226
301 1192
301 6227
301 6228
301 6229
301 6230
301 5845
301 6231
301 6232
301 6233
301 6137
301 6234
301 6235
302 303
302 304
302 305
302 306
302 308
302 6292
302 312
302 313
302 6293
302 315
302 316
302 6229
302 6294
302 318
302 324
302 6295
303 304
303 305
303 306
303 308
303 6998
303 313
303 315
304 305
304 306
304 308
304 313
304 315
305 306
305 308
305 313
305 315
306 308
306 313
306 315
307 1629
307 5714
307 6826
307 8055
307 8492
307 8493
307 8494
307 5575
307 8495
307 8496
307 8497
307 8498
308 313
308 315
308 6229
309 5386
309 5387
309 6225
309 5841
309 6227
309 316
309 6229
309 6231
309 6232
309 6233
309 6234
309 6235
310 5202
310 8790
310 314
310 9739
311 318
311 319
311 5389
311 323
312 316
312 6294
312 317
312 318
312 324
313 315
313 318
313 320
313 321
313 322
313 323
315 6998
316 5386
316 5387
316 5388
316 317
316 318
316 319
316 321
316 10935
316 324
316 6295
317 318
318 6136
318 6294
318 319
318 321
318 322
318 323
318 324
319 5388
319 5389
319 323
320 6136
320 6137
320 323
321 6136
325 326
325 327
325 328
325 329
325 330
325 331
325 332
325 333
325 334
325 335
326 327
326 328
326 329
326 330
326 331
326 332
326 333
326 334
326 335
327 8490
327 10434
327 328
327 329
327 330
327 331
327 332
327 333
327 334
327 335
328 329
328 330
328 331
328 332
328 333
328 334
328 335
329 330
329 331
329 332
329 333
329 334
329 335
330 331
330 332
330 333
330 334
330 335
331 332
331 333
331 334
331 335
332 333
332 334
332 335
333 334
333 335
334 335
336 337
336 338
336 339
336 340
336 341
336 342
336 343
337 3312
337 5267
337 338
337 339
337 340
337 341
337 342
337 343
338 339
338 340
338 341
338 342
338 343
339 340
339 341
339 342
339 343
340 341
340 342
340 343
341 342
341 343
342 343
344 345
344 346
344 347
344 348
344 349
345 346
345 347
345 348
345 349
346 347
346 348
346 349
347 348
347 349
348 349
350 351
350 352
350 353
350 354
350 355
350 356
351 352
351 353
351 354
351 355
351 356
352 353
352 354
352 355
352 356
353 1023
353 354
353 355
353 356
354 355
354 356
355 356
357 358
357 359
357 360
358 2801
358 2802
358 2803
358 2804
358 359
358 360
358 2805
358 2806
359 360
359 2805
361 362
361 363
361 364
361 365
361 366
362 570
362 537
362 1250
362 2648
362 363
362 364
362 2649
363 572
363 2648
363 1348
363 1349
363 578
363 2310
363 1048
363 579
363 364
363 1351
363 1352
364 572
364 2648
364 1348
364 1349
364 578
364 2310
364 1048
364 579
364 1351
364 1352
365 5729
365 7485
365 366
365 5730
365 5731
365 5732
365 5733
365 5734
365 5735
366 5729
366 5730
366 5731
366 5732
366 5733
366 5734
366 5735
367 368
367 369
367 370
367 371
367 372
367 373
367 374
367 375
367 376
367 377
367 378
367 379
367 380
367 381
368 671
368 672
368 673
368 674
368 675
368 676
368 677
368 678
368 679
368 680
368 681
368 682
368 683
368 684
368 685
368 686
368 687
368 688
368 689
368 690
368 691
368 692
369 370
369 371
369 372
369 373
369 374
369 375
369 376
369 377
369 378
369 379
369 380
370 371
370 372
370 373
370 374
370 375
370 376
370 377
370 378
370 379
370 380
371 373
371 374
371 1291
371 376
371 377
371 378
371 1292
371 1293
372 375
372 377
372 1402
372 379
372 380
372 381
373 374
373 1457
373 376
373 377
373 378
374 376
374 377
374 378
375 377
375 379
375 380
376 4381
376 377
376 378
377 378
377 379
377 380
377 381
379 380
380 381
380 7606
382 383
382 384
382 385
382 386
382 387
382 388
382 389
383 6752
383 384
383 385
383 386
383 387
383 388
383 389
384 385
384 386
384 387
384 388
384 389
385 386
385 387
385 388
385 389
386 387
386 388
386 389
387 388
387 389
388 389
390 391
390 392
390 393
390 394
390 395
390 396
390 397
391 392
391 393
391 395
392 393
392 395
393 395
393 6393
394 396
398 399
398 400
398 401
399 6105
399 6106
399 6107
399 6108
399 6109
399 401
400 4522
400 4523
400 4524
402 403
402 404
402 405
402 406
402 407
402 408
402 409
402 410
402 411
402 412
402 413
402 414
402 415
402 416
403 405
403 406
403 1420
403 407
403 411
404 1057
404 2622
404 1612
404 2623
404 2624
405 5104
405 5105
405 409
405 5106
405 5107
405 5108
406 3959
406 1420
406 407
406 408
406 5464
406 410
406 411
406 5467
406 412
406 413
406 5468
406 414
406 415
406 416
407 1420
407 411
408 410
408 412
408 413
408 414
408 415
408 416
409 5104
409 5105
409 5106
409 5108
410 412
410 413
410 414
410 415
410 416
411 1420
412 413
412 414
412 415
412 416
413 414
413 415
413 416
414 415
414 416
415 416
417 418
417 419
417 420
417 421
417 422
417 423
418 419
418 974
418 975
418 976
418 977
418 978
419 975
419 976
419 977
419 978
420 4733
420 9208
420 6497
420 421
420 9212
420 422
420 423
421 4733
421 9208
421 6497
421 9212
421 422
421 423
424 425
424 426
424 427
425 6705
425 6706
425 6707
425 6708
425 6709
426 427
428 429
428 430
428 431
428 432
428 433
428 434
428 435
428 436
428 437
428 438
428 439
428 440
428 441
428 442
428 443
428 444
428 445
428 446
428 447
429 1164
429 1165
429 1166
429 1167
429 1168
429 1169
429 1170
430 431
430 432
430 434
430 435
430 436
430 437
430 438
430 439
430 440
430 441
430 442
430 443
430 444
430 445
430 446
430 447
431 732
431 432
431 434
431 435
431 436
431 437
431 438
431 439
431 440
431 441
431 442
431 443
431 444
431 445
431 446
431 447
432 434
432 435
432 436
432 437
432 438
432 439
432 440
432 441
432 442
432 443
432 444
432 445
432 446
432 447
433 7217
433 4120
433 7218
433 7219
433 7220
433 7221
433 7222
434 435
434 436
434 437
434 438
434 439
434 440
434 441
434 442
434 443
434 444
434 445
434 446
434 447
435 436
435 437
435 438
435 439
435 440
435 441
435 442
435 443
435 444
435 445
435 446
435 447
436 437
436 438
436 439
436 440
436 441
436 442
436 443
436 444
436 445
436 446
436 447
437 438
437 439
437 440
437 441
437 442
437 443
437 444
437 445
437 446
437 447
438 439
438 440
438 441
438 442
438 443
438 444
438 445
438 446
438 447
439 440
439 441
439 442
439 443
439 444
439 445
439 446
439 447
440 441
440 442
440 443
440 444
440 445
440 446
440 447
441 442
441 443
441 444
441 445
441 446
441 447
442 443
442 444
442 445
442 446
442 447
442 11390
442 11391
443 444
443 445
443 446
443 447
444 445
444 446
444 447
445 446
445 447
446 447
448 449
448 450
448 451
448 452
448 453
449 450
449 451
449 452
449 453
450 451
450 452
450 453
451 452
451 453
452 453
453 454
453 455
454 1011
454 1012
454 1013
454 1014
454 1015
454 1016
454 1017
454 1018
454 1019
455 571
455 1157
455 1158
455 1163
456 457
456 458
456 459
456 460
457 458
457 459
457 460
458 459
458 460
458 1083
459 460
460 1083
461 462
461 463
461 464
462 2355
462 463
464 513
464 514
464 3020
464 4297
464 3022
464 515
464 3023
464 516
464 4298
464 517
464 3024
464 3025
464 3026
464 3027
464 518
464 519
464 4299
464 520
464 521
464 522
464 523
465 466
465 467
465 468
465 469
465 470
465 471
465 472
466 467
466 468
466 469
466 470
466 471
466 472
467 468
467 469
467 470
467 471
467 472
468 469
468 470
468 471
468 472
468 1614
468 1615
468 1616
468 1617
468 1618
468 1619
469 470
469 471
469 472
470 471
470 472
471 472
471 1646
472 1466
473 474
473 475
473 476
473 477
473 478
473 479
473 480
473 481
473 482
474 475
474 477
474 504
474 505
474 479
474 480
474 481
474 482
474 506
475 897
475 898
475 477
475 899
475 900
475 901
475 902
475 903
475 904
475 905
475 906
475 907
475 908
475 909
475 910
475 911
475 912
475 913
475 914
475 915
475 916
475 917
475 918
475 919
475 920
475 921
475 922
475 923
475 924
475 925
475 926
475 927
476 1732
476 2023
476 478
476 767
476 2024
476 480
476 2025
476 2026
476 2027
477 2496
477 2497
477 2498
477 2499
477 2500
477 2501
477 2502
478 2023
478 3165
478 767
478 2024
478 2025
478 2026
478 3166
478 3167
478 3168
478 3169
479 2378
479 4175
479 4205
479 481
479 482
479 4206
479 7714
479 7715
479 5829
479 5830
479 4208
479 7716
480 902
480 5072
480 5911
480 481
480 2026
480 922
480 2027
481 1591
481 902
481 5911
481 482
482 506
482 11117
482 11118
483 484
483 485
483 486
483 487
483 488
483 489
483 490
483 491
483 492
483 493
483 494
483 495
483 496
484 485
484 486
484 487
484 732
484 488
484 489
484 490
484 491
484 492
484 493
484 494
484 495
484 496
484 733
485 486
485 1191
485 1179
485 487
485 488
485 489
485 490
485 491
485 492
485 493
485 494
485 495
485 496
485 1192
486 487
486 488
486 489
486 490
486 491
486 492
486 493
486 494
486 495
486 496
487 2367
487 732
487 488
487 489
487 490
487 491
487 492
487 493
487 494
487 495
487 496
487 733
488 732
488 489
488 490
488 491
488 492
488 493
488 494
488 495
488 496
488 733
489 1180
489 490
489 491
489 492
489 493
489 494
489 495
489 496
490 491
490 492
490 493
490 494
490 495
490 496
491 492
491 493
491 494
491 495
491 496
492 493
492 494
492 495
492 496
493 494
493 495
493 496
494 495
494 496
495 1191
495 496
495 5841
495 1192
495 5845
495 8544
497 498
497 499
497 500
497 501
497 502
497 503
498 2412
498 2413
498 499
498 2415
498 500
498 2416
498 501
498 502
498 503
499 500
499 501
499 502
499 503
499 10332
500 501
500 502
500 503
501 4460
501 502
501 503
502 503
504 2378
504 3207
504 2381
504 2382
504 2383
504 3208
505 4176
505 4532
506 884
507 508
507 509
507 510
507 511
507 512
508 509
508 510
508 511
508 512
509 510
509 511
509 512
510 511
510 512
510 5856
511 512
513 514
513 515
513 516
513 517
513 518
513 519
513 520
513 521
513 522
513 523
514 2784
514 2785
514 2786
514 2787
514 2788
514 2789
514 515
514 516
514 517
514 2790
514 518
514 519
514 520
514 521
514 522
514 2791
514 2792
514 523
515 7914
515 516
515 517
515 518
515 519
515 520
515 521
515 522
515 523
516 8906
516 517
516 518
516 519
516 520
516 521
516 522
516 523
517 2784
517 2786
517 2787
517 2788
517 2789
517 2790
517 518
517 519
517 520
517 521
517 522
517 2791
517 523
518 519
518 520
518 521
518 522
518 523
519 520
519 521
519 522
519 523
520 6828
520 521
520 522
520 523
521 522
521 523
522 523
523 7951
525 526
526 527
526 528
527 528
529 530
530 3962
530 4662
530 4663
531 797
531 798
531 799
531 800
531 801
531 802
531 803
531 804
531 805
531 806
531 807
532 1804
532 6074
532 6075
532 5628
532 6076
532 6077
532 6078
532 535
532 6079
532 6080
533 8026
533 8027
533 8028
533 8029
534 4501
534 4502
534 8854
534 8855
534 4504
535 1804
535 6074
535 6075
535 5628
535 6076
535 6077
535 6078
535 6079
535 6080
536 537
536 538
537 570
537 571
537 572
537 2308
537 573
537 575
537 576
537 577
537 2309
537 578
537 2310
537 2311
537 2312
537 2313
537 2314
537 1159
537 1160
537 1161
537 1162
539 540
539 541
539 542
539 543
539 544
539 545
539 546
539 547
540 541
540 542
540 543
540 544
540 545
540 546
541 542
541 543
541 544
541 545
541 546
542 543
542 544
542 545
542 546
543 544
543 545
543 546
544 545
544 546
545 546
547 1685
547 1686
547 1688
547 1689
547 1692
547 1693
547 1694
548 549
548 550
548 551
548 552
548 553
548 554
548 555
548 556
548 557
549 550
549 551
549 552
549 553
549 554
549 555
549 556
549 557
550 551
550 552
550 553
550 554
550 555
550 556
550 557
551 1056
551 552
551 553
551 554
551 555
551 556
551 557
552 553
552 554
552 555
552 556
552 557
553 554
553 555
553 556
553 557
553 1895
553 1896
554 555
554 556
554 557
555 556
555 557
556 557
558 559
558 560
558 561
558 562
558 563
558 564
558 565
558 566
558 567
558 568
559 561
559 562
559 563
559 564
560 9262
560 9263
560 567
560 568
561 562
561 563
561 564
562 563
562 564
563 564
565 566
567 568
569 1011
569 2078
569 2079
570 571
570 572
570 573
570 574
570 575
570 576
570 577
570 578
570 579
571 1157
571 1158
571 578
571 1159
571 1160
571 1161
571 1162
571 1163
572 641
572 642
572 643
572 644
572 645
572 646
572 647
572 579
573 2155
573 2156
573 2637
573 2157
573 2158
573 2159
574 1347
574 1906
574 1908
574 1348
574 1349
574 2141
574 1351
574 1909
575 576
575 577
576 577
577 578
578 2648
578 1348
578 1349
578 2310
578 1048
578 1351
578 1352
578 1159
578 1160
578 1161
578 1162
580 581
580 582
580 583
580 584
580 585
581 1105
581 1106
581 1107
581 1108
581 1109
581 1110
581 1111
581 1112
581 1113
581 1114
581 1115
581 1116
582 10149
582 10150
582 583
582 584
582 585
582 10151
582 10152
582 10153
583 584
583 585
584 585
586 587
586 588
586 589
586 590
586 591
587 588
587 589
587 590
587 591
587 6602
588 589
588 591
588 6602
589 591
589 6602
590 2008
590 7343
590 3805
590 7516
590 7517
590 7518
590 7519
590 7520
590 7521
591 6602
592 593
592 595
592 599
593 595
593 599
594 596
594 597
594 598
595 10740
595 10741
595 599
596 597
596 598
597 598
600 601
600 602
600 603
600 604
600 605
600 606
600 607
600 608
600 609
600 610
600 611
600 612
600 613
601 931
601 602
601 603
601 604
601 605
601 606
601 607
601 608
601 609
601 610
601 611
601 612
601 613
602 603
602 604
602 605
602 606
602 607
602 608
602 609
602 610
602 611
602 612
602 613
603 604
603 605
603 606
603 607
603 608
603 609
603 610
603 611
603 612
603 613
604 605
604 606
604 607
604 608
604 609
604 610
604 611
604 612
604 613
604 7556
605 7590
605 8026
605 606
605 607
605 608
605 609
605 610
605 611
605 612
605 613
606 4809
606 607
606 608
606 609
606 4812
606 610
606 611
606 612
606 613
607 7590
607 608
607 609
607 610
607 611
607 612
607 613
607 7591
608 609
608 610
608 611
608 612
608 613
609 4623
609 7590
609 610
609 611
609 612
609 613
610 7590
610 611
610 612
610 613
610 7591
611 2752
611 2753
611 2754
611 612
611 2755
611 613
611 2756
611 2757
611 2758
611 2759
612 613
613 2752
613 2753
613 2754
613 2755
613 2756
613 2757
613 2758
613 2759
614 615
614 616
614 617
614 618
614 619
614 620
614 621
614 622
615 616
615 617
615 618
615 619
615 620
615 621
615 622
616 617
616 618
616 619
616 620
616 621
616 622
617 618
617 619
617 620
617 621
617 622
618 619
618 620
618 621
618 622
619 620
619 621
619 622
620 621
620 622
621 622
623 624
623 625
623 626
623 627
623 628
623 629
623 630
623 631
624 7457
624 625
624 626
624 627
624 628
624 629
625 626
625 627
625 628
625 629
625 631
626 627
626 628
626 629
627 628
627 629
627 630
628 629
628 631
629 631
632 633
632 634
632 635
632 636
632 637
632 638
632 639
632 640
633 634
633 635
633 636
633 637
633 638
633 639
633 640
634 635
634 636
634 639
634 640
635 636
635 639
635 640
635 6414
636 639
636 640
636 6414
637 638
637 10551
639 640
641 642
641 643
641 644
641 645
641 646
641 647
642 643
642 644
642 645
642 646
642 647
643 644
643 645
643 646
643 647
644 645
644 646
644 647
645 646
645 647
646 647
648 649
648 650
648 651
648 652
648 653
648 654
648 655
648 656
649 650
649 651
649 652
649 653
649 654
649 655
649 656
650 651
650 652
650 653
650 654
650 655
650 656
651 652
651 653
651 654
651 655
651 656
652 653
652 654
652 655
652 656
653 654
653 655
653 656
654 655
654 656
655 656
658 659
658 660
658 661
658 662
658 663
658 664
659 4791
659 660
659 661
659 662
660 968
660 9452
660 9453
660 9454
660 9592
660 969
660 661
660 662
660 9593
660 663
660 664
660 9594
660 9595
660 9596
661 662
661 9594
661 9595
662 9593
665 666
665 667
665 668
665 669
665 670
666 667
666 668
666 669
666 670
667 668
667 669
667 670
668 669
668 670
669 670
670 1603
670 1796
670 1797
670 1607
671 1154
671 1024
671 2008
671 2553
671 2013
671 2554
671 2555
671 2556
671 2557
671 2558
671 2559
671 2560
672 1941
672 1457
672 678
672 2765
672 3069
672 2766
672 3070
672 3071
672 1942
672 3072
672 2767
672 1943
672 1944
672 2768
672 2769
672 2770
673 3133
673 674
673 676
673 677
673 3134
673 3135
673 679
673 680
673 681
673 3136
673 3137
673 3138
673 683
673 684
673 685
673 686
673 687
673 3139
673 688
673 689
673 690
673 691
673 692
674 1457
674 676
674 2496
674 677
674 679
674 680
674 681
674 683
674 684
674 685
674 686
674 687
674 688
674 689
674 690
674 691
674 692
675 1294
675 4713
675 3433
675 1298
675 1299
675 1300
676 2203
676 677
676 679
676 680
676 681
676 683
676 684
676 685
676 686
676 687
676 688
676 689
676 690
676 691
676 692
677 2203
677 4533
677 679
677 680
677 681
677 683
677 684
677 685
677 686
677 687
677 688
677 689
677 690
677 691
677 692
678 1941
678 1457
678 2765
678 1942
678 2767
678 1943
678 1944
678 2768
678 2769
678 2770
679 680
679 681
679 683
679 684
679 685
679 686
679 687
679 688
679 689
679 690
679 691
679 692
680 2203
680 1173
680 681
680 683
680 684
680 685
680 686
680 687
680 688
680 689
680 690
680 691
680 692
681 2203
681 6091
681 7326
681 683
681 684
681 685
681 686
681 687
681 688
681 689
681 690
681 691
681 692
682 7983
682 7984
682 7985
682 7986
682 7987
682 7988
683 2203
683 684
683 685
683 686
683 687
683 688
683 689
683 690
683 691
683 692
684 685
684 2026
684 686
684 687
684 688
684 689
684 690
684 691
684 692
685 686
685 687
685 688
685 689
685 690
685 691
685 692
686 2203
686 687
686 688
686 689
686 690
686 691
686 692
687 688
687 689
687 690
687 691
687 692
688 689
688 690
688 691
688 692
689 690
689 691
689 692
690 691
690 692
691 692
693 694
693 695
693 696
693 697
693 698
694 695
694 696
694 697
694 698
695 696
695 697
695 698
696 697
696 698
696 8201
696 2569
696 8202
696 8203
696 8204
697 698
699 700
699 701
699 702
699 703
699 704
699 705
699 706
699 707
700 701
700 702
700 703
700 704
700 705
700 706
700 707
701 702
701 703
701 704
701 705
701 706
701 707
701 1458
701 1242
702 703
702 704
702 705
702 706
702 707
703 704
703 705
703 706
703 707
704 705
704 706
704 707
705 706
705 707
706 707
708 709
708 710
708 711
708 712
708 713
708 714
708 715
709 975
709 3981
709 6505
709 710
709 711
709 712
709 713
709 714
709 715
709 6506
709 6507
710 711
710 712
710 713
710 714
710 715
711 3981
711 6505
711 10802
711 712
711 713
711 10803
711 714
711 715
711 6506
711 6507
712 713
712 714
712 715
713 714
713 715
713 6506
713 6507
714 715
714 6506
714 6507
716 717
716 718
716 719
716 720
717 3062
717 718
717 719
717 3063
717 3064
717 720
717 3065
717 3066
717 3067
717 3068
718 719
718 720
719 720
721 722
721 723
721 724
721 725
721 726
721 727
721 728
721 729
721 730
721 731
722 724
723 7644
723 7645
723 727
723 728
723 730
725 726
726 729
726 731
727 728
728 730
729 731
732 2367
732 4859
732 4860
732 733
732 4864
733 4357
733 4859
733 4860
733 4358
733 4360
733 4361
733 4362
733 4363
734 735
734 736
734 737
734 738
734 739
734 740
735 736
735 737
735 738
735 739
735 740
736 6534
736 7847
736 6535
736 6538
736 6539
736 7849
737 738
737 739
737 740
738 739
738 740
738 10105
738 10106
738 10107
738 10108
738 10109
738 10110
740 3921
741 742
741 743
741 744
741 745
741 746
741 747
741 748
741 749
741 750
741 751
742 7592
742 7593
742 7594
742 7595
742 7596
742 7597
743 744
743 745
743 746
743 747
743 748
743 749
743 750
743 751
744 745
744 746
744 747
744 748
744 749
744 750
744 751
745 4921
745 4923
745 4924
745 4192
745 746
745 747
745 748
745 749
745 750
745 751
745 4925
745 4926
745 4927
745 4928
745 4929
745 4930
745 4931
745 4932
745 4933
745 4934
745 4935
745 4936
745 4937
745 4938
745 4939
746 747
746 748
746 749
746 750
746 751
747 748
747 749
747 750
747 751
748 749
748 750
748 751
749 750
749 751
750 751
752 753
752 754
752 755
752 756
752 757
753 754
753 756
753 4490
754 755
754 9318
754 756
754 4490
754 4491
755 4490
755 757
757 10549
757 10550
758 759
758 760
758 761
758 762
758 763
758 764
758 765
759 2693
759 2694
759 2695
759 2696
759 2697
759 2698
760 3073
760 3074
760 3075
760 3076
760 3077
760 3078
760 3079
760 3080
761 762
761 763
761 764
761 765
762 763
762 764
762 765
763 764
763 765
764 765
766 767
766 768
766 769
766 770
766 771
767 2024
767 768
767 769
767 770
767 5237
767 771
767 5238
767 5239
767 5240
767 5241
767 5242
767 5243
767 5244
767 5245
767 5246
768 769
768 770
768 771
769 770
769 771
770 2024
770 771
770 5240
770 5241
770 5242
771 4205
772 773
772 774
772 775
772 776
772 777
773 774
773 775
773 776
773 777
774 775
774 776
774 777
775 776
775 777
776 777
778 779
778 780
778 781
778 782
778 783
778 784
779 4380
779 3597
779 5381
779 5382
779 5383
779 783
779 784
779 5384
779 5385
780 5654
780 5655
780 5656
780 5657
780 5658
780 5659
780 5660
780 5661
780 4484
780 5662
780 5663
780 5664
780 5665
780 5666
780 5667
781 10325
781 10326
781 10327
781 10328
781 782
783 5383
783 784
783 5384
783 5385
783 9994
784 5383
785 786
785 787
785 788
785 789
785 790
785 791
785 792
785 793
785 794
785 795
785 796
786 788
786 789
786 790
786 791
786 792
786 793
786 794
786 795
786 796
787 2553
787 2097
787 4646
787 4647
788 789
788 790
788 791
788 792
788 793
788 794
788 795
788 796
789 7140
789 790
789 791
789 792
789 793
789 794
789 795
789 796
790 791
790 792
790 793
790 794
790 795
790 796
791 792
791 793
791 794
791 795
791 796
792 793
792 794
792 795
792 796
793 794
793 795
793 796
794 795
794 796
795 796
797 798
797 799
797 800
797 801
797 802
797 803
797 804
797 805
797 806
797 807
798 1877
798 1878
798 1879
798 1880
799 7326
799 8413
799 8414
799 8415
799 8416
799 8417
799 8418
799 8419
799 8420
800 801
800 802
800 803
800 804
800 805
800 806
800 807
801 803
801 804
801 805
801 806
803 804
803 805
803 806
804 805
804 806
805 806
807 9431
807 9432
807 9433
807 9434
807 9435
807 9436
807 9437
808 809
808 810
808 811
808 812
808 813
808 814
808 815
808 816
808 817
808 818
808 819
808 820
808 821
808 822
808 823
808 824
808 825
808 826
808 827
808 828
808 829
808 830
808 831
808 832
808 833
808 834
808 835
808 836
808 837
808 838
808 839
808 840
808 841
808 842
808 843
809 812
809 815
809 816
809 2933
809 817
809 818
809 819
809 822
809 825
809 826
809 828
809 832
809 833
809 834
809 835
809 836
809 837
809 838
809 840
809 842
809 2934
809 2935
809 2936
809 2937
809 2938
809 2939
809 2940
809 2941
809 2942
809 2943
809 2944
809 2945
809 2946
809 2947
810 815
810 817
810 818
810 819
810 820
810 821
810 823
810 824
810 826
810 827
810 829
810 830
810 831
810 834
810 835
810 839
810 840
810 841
810 842
810 4028
811 4140
811 4141
811 4142
811 843
811 4143
811 4144
811 4145
811 4146
811 4147
811 4148
811 4149
811 4150
812 815
812 816
812 817
812 819
812 822
812 825
812 826
812 828
812 832
812 833
812 834
812 835
812 836
812 837
812 838
813 1719
813 4768
813 4769
813 4770
813 4771
813 4772
813 4773
813 4774
813 4775
813 4776
814 1769
814 5060
814 5061
814 5062
814 5063
814 5064
814 5065
814 5066
814 5067
814 5068
814 5069
814 5070
814 5071
815 816
815 817
815 818
815 819
815 820
815 821
815 822
815 823
815 824
815 825
815 826
815 827
815 828
815 829
815 830
815 831
815 832
815 833
815 834
815 835
815 836
815 837
815 838
815 839
815 840
815 841
815 842
816 817
816 819
816 822
816 825
816 826
816 828
816 832
816 833
816 834
816 835
816 836
816 837
816 838
817 818
817 819
817 820
817 821
817 822
817 823
817 824
817 825
817 826
817 827
817 828
817 829
817 830
817 831
817 832
817 833
817 834
817 835
817 836
817 837
817 838
817 839
817 840
817 841
817 842
818 2933
818 819
818 820
818 821
818 823
818 824
818 826
818 827
818 829
818 830
818 831
818 834
818 835
818 839
818 840
818 841
818 842
818 2934
818 2935
818 2936
818 2937
818 2938
818 2939
818 2940
818 2941
818 2942
818 2943
818 2944
818 2945
818 2946
818 2947
819 820
819 821
819 822
819 823
819 824
819 825
819 826
819 827
819 828
819 829
819 830
819 831
819 832
819 833
819 834
819 835
819 836
819 837
819 838
819 839
819 840
819 841
819 842
820 821
820 823
820 824
820 826
820 827
820 829
820 830
820 831
820 834
820 835
820 839
820 840
820 841
820 842
821 823
821 824
821 826
821 827
821 829
821 830
821 831
821 834
821 835
821 839
821 840
821 841
821 842
822 825
822 826
822 828
822 832
822 833
822 834
822 835
822 836
822 837
822 838
823 824
823 826
823 827
823 829
823 830
823 831
823 834
823 835
823 839
823 840
823 841
823 842
824 826
824 827
824 829
824 830
824 831
824 834
824 835
824 839
824 840
824 841
824 842
825 826
825 828
825 832
825 833
825 834
825 835
825 836
825 837
825 838
826 827
826 828
826 829
826 830
826 831
826 832
826 833
826 834
826 835
826 836
826 837
826 838
826 839
826 840
826 841
826 842
827 829
827 830
827 831
827 834
827 835
827 839
827 840
827 841
827 842
828 832
828 833
828 834
828 835
828 836
828 837
828 838
829 830
829 831
829 834
829 835
829 839
829 840
829 841
829 842
830 831
830 834
830 835
830 839
830 840
830 841
830 842
831 834
831 835
831 839
831 840
831 841
831 842
832 833
832 834
832 835
832 836
832 837
832 838
833 834
833 835
833 836
833 837
833 838
834 835
834 836
834 837
834 838
834 839
834 840
834 841
834 842
835 836
835 837
835 838
835 839
835 840
835 841
835 842
836 837
836 838
837 838
839 840
839 841
839 842
840 2933
840 841
840 842
840 2934
840 2935
840 2936
840 2937
840 2938
840 2939
840 2940
840 2941
840 2942
840 2943
840 2944
840 2945
840 2946
840 2947
841 842
842 2933
842 2934
842 2935
842 2936
842 2937
842 2938
842 2939
842 2940
842 2941
842 2942
842 2943
842 2944
842 2945
842 2946
842 2947
843 4140
843 4141
843 4142
843 4143
843 4144
843 4145
843 4146
843 4147
843 4148
843 4149
843 4150
844 845
844 846
844 847
844 848
844 849
844 850
844 851
844 852
845 853
845 854
845 855
845 856
845 857
846 3311
846 3312
846 3619
846 3313
846 3314
846 3315
846 3316
846 3317
846 3318
846 3319
847 1719
847 3175
847 848
847 849
847 850
847 851
847 852
848 849
848 850
848 851
848 852
849 850
849 851
849 852
850 851
850 852
851 852
853 854
853 855
853 856
853 857
854 855
854 856
854 857
855 856
855 857
856 857
858 859
858 860
858 861
858 862
858 863
858 864
858 865
859 6128
859 4958
859 6129
860 3412
860 3413
860 3414
860 5317
860 7646
860 8950
860 8951
860 8952
861 862
861 863
861 864
861 865
862 863
862 864
862 865
863 864
863 865
864 865
866 867
866 868
866 869
866 870
866 871
866 872
866 873
866 874
866 875
866 876
866 877
866 878
866 879
866 880
866 881
866 882
866 883
867 1315
867 1316
867 868
867 869
867 870
867 871
867 872
867 873
867 874
867 877
867 878
867 879
867 880
868 3671
868 869
868 870
868 871
868 872
868 873
868 874
868 9758
868 875
868 876
868 877
868 878
868 879
868 880
868 881
868 882
868 9759
868 9760
868 883
868 9761
868 9762
868 9763
869 870
869 871
869 872
869 873
869 874
869 877
869 878
869 879
869 880
870 871
870 872
870 873
870 874
870 9758
870 877
870 878
870 879
870 880
870 9762
871 872
871 873
871 874
871 877
871 878
871 879
871 880
872 873
872 874
872 9758
872 877
872 878
872 879
872 880
873 874
873 9758
873 877
873 878
873 879
873 880
873 9762
874 877
874 878
874 879
874 880
875 876
877 878
877 879
877 880
878 879
878 880
878 881
878 882
878 883
879 880
881 882
881 883
882 883
884 885
884 886
884 887
884 888
884 889
884 890
885 6556
885 1523
885 6557
886 3816
886 10023
886 10024
886 10025
886 10026
886 10027
886 10028
887 4879
887 4880
887 4881
887 888
887 889
887 4882
887 4883
887 890
887 10025
888 4879
888 4880
888 4881
888 889
888 4882
888 4883
888 890
889 4879
889 4880
889 4881
889 4882
889 4883
891 892
891 893
891 894
891 895
891 896
892 1099
892 1101
892 1102
892 1103
893 894
893 895
893 896
894 895
894 896
895 896
897 2028
897 1592
897 2029
897 905
897 2030
897 2031
897 2032
897 910
897 912
897 2033
897 2034
897 913
897 2035
897 2036
897 2037
897 1597
897 2038
897 2039
897 2040
897 2041
897 2042
897 1600
897 2043
897 2044
897 2045
898 899
898 900
898 902
898 906
898 908
898 909
898 911
898 915
898 917
898 919
898 920
898 922
899 900
899 902
899 906
899 908
899 909
899 911
899 915
899 917
899 919
899 920
899 922
900 902
900 906
900 908
900 909
900 911
900 915
900 917
900 919
900 920
900 922
901 2331
901 1457
901 4037
901 4038
901 908
901 4039
901 4040
901 4041
901 4042
901 4043
901 4044
902 906
902 908
902 909
902 911
902 915
902 917
902 1597
902 919
902 920
902 922
903 2029
903 4130
903 4131
903 4132
903 916
903 4539
903 4540
903 4541
903 4542
903 4543
904 4525
904 4526
904 4544
904 4545
904 4546
904 4547
904 4548
905 1592
905 2032
905 910
905 912
905 2033
905 913
905 4844
905 2036
905 2037
905 4845
905 2040
905 2042
905 4846
905 4847
906 908
906 909
906 911
906 915
906 917
906 919
906 920
906 922
907 4844
907 6130
907 6131
907 6132
908 4029
908 909
908 911
908 915
908 917
908 919
908 920
908 922
909 911
909 915
909 917
909 919
909 920
909 922
910 2031
910 2032
910 912
910 2033
910 913
910 914
910 916
910 2036
910 2037
910 1597
910 923
910 926
911 3046
911 3049
911 915
911 917
911 919
911 920
911 922
912 1592
912 2032
912 2033
912 913
912 2036
912 2037
912 2039
912 4845
912 2040
912 2041
912 2042
912 4846
912 2044
912 2045
913 1592
913 2032
913 7683
913 7684
913 2033
913 2034
913 2035
913 6592
913 2036
913 2037
913 1597
913 918
913 2038
913 2041
913 7685
913 7686
913 8041
913 1600
913 8042
913 2043
913 8043
913 8044
914 4205
914 923
914 4206
914 5831
915 917
915 919
915 920
915 922
915 9278
915 9279
916 4320
916 4539
916 926
916 4541
916 4543
917 919
917 920
917 922
918 4204
918 4214
918 4215
918 10495
918 3265
918 10497
918 10498
918 926
918 4219
918 4222
918 10500
918 10501
918 10504
918 10505
918 4223
918 4224
919 920
919 922
920 922
921 10155
921 4530
921 9140
921 923
921 926
921 9141
921 11172
924 925
925 2028
925 2597
925 926
925 927
926 927
928 929
928 930
928 931
928 932
928 933
928 934
928 935
928 936
928 937
928 938
928 939
928 940
928 941
928 942
928 943
928 944
929 930
929 931
929 2489
929 934
929 935
929 936
929 937
929 938
929 939
929 940
929 941
929 942
929 943
929 944
930 931
930 934
930 935
930 936
930 937
930 938
930 939
930 940
930 941
930 942
930 943
930 944
931 934
931 935
931 936
931 937
931 938
931 939
931 940
931 941
931 942
931 943
931 944
932 3721
932 4334
932 4335
932 4336
932 4337
932 4338
932 4339
932 4340
933 6442
933 4432
933 6443
933 6444
933 6445
933 6446
933 6447
933 2512
933 2513
933 6448
933 6449
933 6450
933 6451
933 6452
933 6453
933 6454
933 6455
933 6456
933 6457
934 935
934 936
934 937
934 938
934 939
934 940
934 941
934 942
934 943
934 944
935 936
935 937
935 938
935 939
935 940
935 941
935 942
935 943
935 944
936 937
936 938
936 939
936 940
936 941
936 942
936 943
936 944
937 938
937 939
937 940
937 941
937 942
938 939
938 940
938 941
938 942
939 940
939 941
939 942
939 943
939 944
940 941
940 942
940 943
940 944
941 942
943 944
945 946
945 947
945 948
945 949
945 950
945 951
945 952
945 953
945 954
945 955
945 956
945 957
945 958
945 959
946 1522
946 2197
946 1526
946 2198
946 2199
946 2200
946 1530
947 955
947 956
948 949
948 950
948 951
948 952
948 953
948 954
949 950
949 951
949 952
949 953
949 954
950 951
950 952
950 953
950 954
951 952
951 953
951 954
952 953
952 954
953 954
955 956
957 958
957 959
958 959
960 961
960 962
960 963
960 964
960 965
960 966
960 967
961 962
961 963
961 964
961 965
961 966
962 963
962 964
962 965
962 966
963 964
963 965
963 966
964 965
964 966
965 966
967 3734
967 3735
967 2898
967 7297
967 3737
967 3738
967 3739
967 3740
968 969
968 970
969 9592
971 972
971 973
972 4640
972 4641
972 4642
972 4643
972 4644
972 4645
974 1696
974 1705
974 1706
974 1707
974 1708
974 1709
975 2520
975 3981
975 2521
975 2522
976 6753
976 977
977 3686
977 7289
977 7290
977 7291
977 7292
977 7293
977 7294
977 7295
977 7296
979 980
979 981
979 982
979 983
980 981
980 982
980 983
981 8656
981 8657
981 10255
981 10257
981 10258
981 11142
981 11143
981 6150
981 982
981 983
981 11144
981 10259
981 11037
981 11145
981 11146
981 11147
981 11148
981 11149
981 11150
981 11151
981 11152
981 8658
981 11153
981 11154
982 983
984 985
984 986
984 987
984 988
984 989
984 990
984 991
984 992
984 993
984 994
984 995
985 5403
985 986
985 988
985 5695
985 5404
985 5696
985 5697
986 8477
986 987
986 988
986 5695
986 8914
986 8915
986 8916
986 8917
986 8918
986 5107
986 8919
986 8920
986 4273
986 5696
986 5697
986 8921
986 8922
986 8923
986 8924
987 990
987 9242
988 10116
988 10117
988 10118
988 10119
988 10120
988 10121
989 9817
989 991
990 992
993 994
996 997
996 998
996 999
996 1000
996 1001
996 1002
996 1003
996 1004
996 1005
996 1006
996 1007
996 1008
996 1009
996 1010
997 998
997 999
997 1000
997 1001
997 1002
997 1003
997 1004
997 1005
997 1006
997 1007
997 1008
997 1009
997 1010
998 7608
998 999
998 1000
998 1001
998 1002
998 1003
998 1004
998 1005
998 1006
998 1007
998 1008
998 1009
998 1010
999 1000
999 1001
999 1002
999 1003
999 1004
999 1005
999 1006
999 1007
999 1008
999 1009
999 1010
1000 1001
1000 1002
1000 1003
1000 1004
1000 1005
1000 1006
1000 1007
1000 1008
1000 1009
1000 1010
1001 1002
1001 1003
1001 1004
1001 1005
1001 1006
1001 1007
1001 1008
1001 1009
1001 1010
1002 1003
1002 1004
1002 1005
1002 1006
1002 1007
1002 1008
1002 1009
1002 1010
1003 1004
1003 1005
1003 1006
1003 1007
1003 1008
1003 1009
1003 1010
1004 1005
1004 1006
1004 1007
1004 1008
1004 1009
1004 1010
1005 3242
1005 1006
1005 1007
1005 1008
1005 1009
1005 1010
1006 1007
1006 1008
1006 1009
1006 1010
1007 1008
1007 1009
1007 1010
1008 1009
1008 1010
1009 1010
1011 1463
1011 1012
1011 1013
1011 1014
1011 2078
1011 1015
1011 1016
1011 1017
1011 1018
1011 1019
1011 2079
1012 1013
1012 1014
1012 1015
1012 1016
1012 1017
1012 1018
1012 1019
1013 1014
1013 1015
1013 1016
1013 1017
1013 1018
1013 1019
1014 1015
1014 1016
1014 1017
1014 1018
1014 1019
1015 1016
1015 1017
1015 1018
1015 1019
1016 1017
1016 1018
1016 1019
1017 1018
1017 1019
1018 1019
1020 1384
1020 2542
1020 2540
1020 2543
1020 2544
1020 2545
1020 2546
1020 2547
1020 2548
1020 2549
1020 2550
1020 2551
1020 2552
1021 2496
1021 5141
1021 5142
1021 5143
1021 5144
1021 5145
1021 5146
1021 5147
1022 6112
1022 6685
1022 6686
1022 6687
1022 6688
1022 6689
1022 6690
1023 1024
1023 1025
1023 1026
1023 1027
1023 1028
1023 1029
1023 1030
1023 1031
1023 1032
1023 1033
1023 1034
1024 1025
1024 1027
1024 1028
1024 1029
1024 3140
1024 3141
1024 1030
1024 1031
1024 1032
1024 1033
1024 1034
1025 1028
1025 1029
1025 3842
1025 1030
1025 1031
1025 1032
1025 1033
1025 1034
1026 5090
1026 5091
1026 5092
1026 5093
1026 5094
1027 1029
1027 5525
1027 5526
1027 5527
1027 5528
1027 5529
1027 5530
1028 1029
1028 1490
1028 1030
1028 1031
1028 1032
1028 1033
1028 1034
1029 3842
1029 1030
1029 1031
1029 1032
1029 1033
1029 1034
1030 1031
1030 1032
1030 1033
1030 1034
1031 1032
1031 1033
1031 1034
1032 1033
1032 1034
1033 1034
1035 1036
1035 1037
1035 1038
1035 1039
1035 1040
1035 1041
1035 1042
1035 1043
1036 4380
1036 1038
1036 1039
1036 1040
1036 1041
1037 1042
1037 10473
1037 10474
1037 10475
1037 10476
1037 10477
1038 1039
1038 1040
1038 1041
1038 1043
1038 10626
1038 10627
1039 2823
1039 2825
1039 1040
1039 1041
1040 4380
1040 1041
1041 2823
1041 2825
1042 10474
1042 10475
1042 10476
1043 10626
1043 10627
1044 1045
1044 1046
1044 1047
1044 1048
1045 1046
1045 8399
1045 8400
1046 7688
1046 8399
1046 8400
1046 4030
1046 4032
1047 1048
1048 2648
1048 1348
1048 1349
1048 2310
1048 1351
1048 1352
1049 1050
1049 1051
1049 1052
1049 1053
1049 1054
1049 1055
1050 1051
1050 1052
1050 1053
1050 1054
1050 1055
1051 1052
1051 1053
1051 1054
1051 1055
1052 1053
1052 1054
1052 1055
1053 10986
1053 10987
1053 1054
1053 1055
1053 10988
1053 10989
1053 10990
1053 10991
1054 1840
1054 1843
1054 1055
1056 1057
1056 1058
1056 1059
1056 1060
1056 1061
1056 1062
1056 1063
1056 1064
1056 1065
1056 1066
1056 1067
1056 1068
1056 1069
1056 1070
1056 1071
1056 1072
1056 1073
1057 1334
1057 1335
1057 1336
1057 1337
1058 1060
1058 1061
1058 1062
1058 1063
1058 1064
1058 1065
1058 1066
1058 1067
1058 1068
1058 1069
1058 1070
1058 1071
1058 1072
1058 1073
1059 3304
1059 3305
1059 3306
1059 3307
1059 3308
1059 3309
1059 3310
1061 1062
1061 1063
1061 1064
1061 1065
1061 1066
1061 1067
1061 1068
1061 1069
1061 1070
1061 1071
1061 1072
1061 1073
1062 1063
1062 1064
1062 1065
1062 1066
1062 1067
1062 1068
1062 1069
1062 1070
1062 1071
1062 1072
1062 1073
1063 1064
1063 1065
1063 1066
1063 1067
1063 1068
1063 1069
1063 1070
1063 1071
1063 1072
1063 1073
1064 1065
1064 1066
1064 1067
1064 1068
1064 1069
1064 1070
1064 1071
1064 1072
1064 1073
1065 1066
1065 1067
1065 1068
1065 1069
1065 1070
1065 1071
1065 1072
1065 1073
1066 1067
1066 1068
1066 1069
1066 1070
1066 1071
1066 1072
1066 1073
1067 1068
1067 1069
1067 1070
1067 1071
1067 1072
1067 1073
1068 1069
1068 1070
1068 1071
1068 1072
1068 1073
1069 1070
1069 1071
1069 1072
1069 1073
1070 1071
1070 1072
1070 1073
1071 1072
1071 1073
1072 1073
1074 1075
1074 1076
1074 1077
1074 1078
1074 1079
1075 1482
1075 1076
1075 1077
1075 1078
1075 1079
1076 1077
1076 1078
1076 1079
1077 1078
1077 1079
1078 1079
1080 1081
1080 1082
1080 1083
1080 1084
1080 1085
1081 1082
1081 1083
1081 1084
1081 1085
1082 1083
1082 1084
1082 1085
1083 1084
1083 1085
1084 1085
1086 1087
1086 1088
1086 1089
1086 1090
1086 1091
1086 1092
1086 1093
1086 1094
1086 1095
1086 1096
1086 1097
1086 1098
1087 1088
1087 1089
1087 1090
1087 1091
1087 1092
1087 1093
1087 1094
1087 1095
1087 1096
1087 1097
1087 1098
1088 1089
1088 1090
1088 1091
1088 1092
1088 1093
1088 1094
1088 1095
1088 1096
1088 1097
1088 1098
1088 7564
1088 7565
1088 7566
1088 7567
1088 7568
1088 7569
1088 7570
1088 7571
1089 1090
1089 1091
1089 1092
1089 1093
1089 1094
1089 1095
1089 1096
1089 1097
1089 1098
1090 1091
1090 1092
1090 1093
1090 1094
1090 1095
1090 1096
1090 1097
1090 1098
1091 1092
1091 1093
1091 1094
1091 1095
1091 1096
1091 1097
1091 1098
1092 1093
1092 1094
1092 1095
1092 1096
1092 1097
1092 1098
1093 1094
1093 1095
1093 1096
1093 1097
1093 1098
1094 1095
1094 1096
1094 1097
1094 1098
1095 1096
1095 1097
1095 1098
1096 1097
1096 1098
1097 1098
1099 1100
1099 1101
1099 1102
1099 1103
1099 1104
1100 1378
1100 1379
1100 1380
1100 1381
1101 3455
1101 1102
1101 1103
1102 1103
1104 5632
1104 7086
1104 7096
1105 1106
1105 1107
1105 1108
1105 2046
1106 2201
1106 1107
1106 1108
1106 2046
1106 2202
1107 1108
1107 2202
1107 3789
1107 1110
1107 1111
1107 1116
1107 3790
1108 3789
1108 1112
1108 1113
1108 3818
1109 2046
1109 1110
1110 2046
1111 2202
1112 1113
1114 1115
1114 1116
1115 1116
1116 2202
1116 3790
1116 3818
1116 4682
1117 1118
1117 1119
1117 1120
1117 1121
1117 1122
1117 1123
1117 1124
1118 1119
1118 1120
1118 1121
1118 1122
1118 1123
1119 1120
1119 1121
1119 1122
1119 1123
1120 1121
1120 1122
1120 1123
1121 1122
1121 1123
1121 1124
1122 1123
1124 6647
1124 6648
1124 6649
1124 6650
1124 6651
1124 6513
1124 6652
1124 6653
1125 1126
1125 1127
1126 3081
1126 1127
1127 3081
1127 4155
1128 1129
1128 1130
1128 1131
1128 1132
1128 1133
1128 1134
1128 1135
1128 1136
1128 1137
1128 1138
1128 1139
1128 1140
1128 1141
1128 1142
1128 1143
1128 1144
1129 1130
1129 1131
1129 1132
1129 1133
1129 1134
1129 1135
1129 1136
1129 1137
1129 1138
1129 1139
1129 1140
1129 1141
1129 1142
1129 1143
1129 1144
1130 1131
1130 1132
1130 1133
1130 1134
1130 1135
1130 1136
1130 1137
1130 1138
1130 1139
1130 1140
1130 1141
1130 1142
1130 1143
1130 1144
1131 1132
1131 1133
1131 1134
1131 1135
1131 1136
1131 1137
1131 1138
1131 1139
1131 1140
1131 1141
1131 1142
1131 1143
1131 1144
1132 1133
1132 1134
1132 1136
1132 1137
1132 1138
1132 1139
1132 1140
1132 1141
1132 1144
1133 1134
1133 1135
1133 1136
1133 1137
1133 1138
1133 1139
1133 1140
1133 1141
1133 1142
1133 1143
1133 1144
1134 1135
1134 1136
1134 1137
1134 1138
1134 1139
1134 1140
1134 1141
1134 1142
1134 1143
1134 1144
1135 1136
1135 1137
1135 1138
1135 1139
1135 1140
1135 1141
1135 1142
1135 1143
1136 1137
1136 1138
1136 1139
1136 1140
1136 1141
1136 1142
1136 1143
1136 1144
1137 1138
1137 1139
1137 1140
1137 1141
1137 1142
1137 1143
1137 1144
1138 1139
1138 1140
1138 1141
1138 1142
1138 1143
1138 1144
1139 1140
1139 1141
1139 1142
1139 1143
1139 1144
1140 1141
1140 1142
1140 1143
1140 1144
1141 1142
1141 1143
1141 1144
1142 1143
1145 1146
1145 1147
1145 1148
1145 1149
1145 1150
1145 1151
1145 1152
1146 3692
1146 4493
1146 3693
1146 3694
1146 4494
1146 4495
1146 4496
1146 4497
1147 7242
1147 7243
1147 7244
1147 7245
1147 7246
1147 7247
1147 7248
1148 1149
1148 1150
1148 1151
1148 1152
1149 1150
1149 1151
1149 1152
1150 1151
1150 1152
1151 1152
1153 1154
1153 1155
1153 1156
1154 1457
1154 1155
1154 1156
1155 8802
1155 8803
1155 8804
1155 8805
1155 8806
1155 8807
1155 8808
1157 7687
1157 1158
1157 7691
1157 1163
1158 1163
1159 1160
1159 1161
1159 1162
1160 1161
1160 1162
1161 1162
1164 4681
1164 3512
1164 5508
1165 1166
1165 1167
1165 1168
1165 1169
1165 1170
1166 1167
1166 1168
1166 1169
1166 1170
1166 9425
1166 9426
1166 9427
1166 9428
1166 9429
1167 1168
1167 1169
1167 1170
1168 1169
1168 1170
1169 1170
1171 1172
1171 1173
1171 1174
1171 1175
1171 1176
1171 1177
1172 1173
1172 1236
1173 1236
1174 4664
1174 7269
1174 4665
1174 4666
1174 4667
1174 4668
1174 4669
1174 4670
1175 1177
1175 11027
1175 11028
1175 11029
1177 8610
1177 11027
1177 11028
1177 11029
1177 11831
1178 1179
1178 1180
1178 1181
1178 1182
1178 1183
1178 1184
1178 1185
1178 1186
1178 1187
1178 1188
1178 1189
1178 1190
1179 1180
1179 1181
1179 1182
1179 1183
1179 1184
1179 1185
1179 1186
1179 1187
1179 1188
1179 1189
1179 1190
1180 2991
1180 1181
1180 1182
1180 1183
1180 1184
1180 1185
1180 1186
1180 1187
1180 1188
1180 1189
1180 1190
1181 1182
1181 1183
1181 1184
1181 1185
1181 1186
1181 1187
1181 1188
1181 1189
1181 1190
1182 1183
1182 1184
1182 1185
1182 1186
1182 1187
1182 1188
1182 1189
1182 1190
1183 1184
1183 1185
1183 1186
1183 1187
1183 1188
1183 1189
1183 1190
1184 1185
1184 1186
1184 1187
1184 1188
1184 1189
1184 1190
1185 1186
1185 1187
1185 1188
1185 1189
1185 1190
1186 1187
1186 1188
1186 1189
1186 1190
1187 1188
1187 1189
1187 1190
1188 1189
1188 1190
1189 1190
1191 3186
1191 3187
1191 3188
1191 3189
1191 3190
1191 3191
1191 3192
1191 3193
1191 3194
1191 3195
1191 3196
1191 3197
1191 3198
1191 3199
1191 3200
1191 3201
1191 3202
1191 3203
1192 1634
1192 6226
1192 6228
1192 6233
1192 9899
1192 9900
1192 9901
1193 1194
1193 1195
1193 1196
1193 1197
1193 1198
1193 1199
1193 1200
1193 1201
1193 1202
1193 1203
1193 1204
1193 1205
1193 1206
1193 1207
1193 1208
1194 1195
1194 1196
1194 1197
1194 1198
1194 1199
1194 1200
1194 1804
1194 1201
1194 1202
1194 1203
1194 1204
1194 1205
1194 1206
1194 1207
1194 1208
1194 1805
1195 1196
1195 1197
1195 1198
1195 1199
1195 1200
1195 1201
1195 1202
1195 1203
1195 1204
1195 1205
1195 1206
1195 1207
1195 1208
1196 1197
1196 1198
1196 1199
1196 1200
1196 1201
1196 1202
1196 1203
1196 1204
1196 1205
1196 1206
1196 1207
1196 1208
1197 1198
1197 1199
1197 1200
1197 1804
1197 1201
1197 1202
1197 1203
1197 1204
1197 1205
1197 1206
1197 1207
1197 1208
1198 1199
1198 1200
1198 1804
1198 1201
1198 1202
1198 1203
1198 1204
1198 1205
1198 1206
1198 1207
1198 1208
1199 1200
1199 1201
1199 1202
1199 1203
1199 1204
1199 1205
1199 1206
1199 1207
1199 1208
1199 4479
1199 4480
1200 1201
1200 1202
1200 1203
1200 1204
1200 1205
1200 1206
1200 1207
1200 1208
1201 1202
1201 1203
1201 1204
1201 1205
1201 1206
1201 1207
1201 1208
1202 1203
1202 1204
1202 1205
1202 1206
1202 1207
1202 1208
1203 1204
1203 1205
1203 1206
1203 1207
1203 1208
1204 1205
1204 1206
1204 1207
1204 1208
1205 1206
1205 1207
1205 1208
1206 1207
1206 1208
1207 1208
1209 1210
1209 1211
1209 1212
1209 1213
1209 1214
1209 1215
1209 1216
1210 1211
1210 1212
1210 1213
1210 1214
1210 1215
1210 1216
1211 1212
1211 1213
1211 1214
1211 1215
1211 1216
1212 1213
1212 1214
1212 1215
1212 1216
1213 1214
1213 1215
1213 1216
1214 1215
1214 1216
1215 1216
1215 6073
1215 7783
1215 7784
1215 7785
1215 7786
1215 7787
1217 1218
1217 1219
1217 1220
1217 1221
1217 1222
1217 1223
1218 2826
1218 4814
1218 4815
1218 3555
1218 4816
1218 2819
1218 4817
1218 4818
1218 4819
1218 4820
1218 4821
1218 4822
1219 2636
1219 1221
1219 1222
1219 1223
1220 6335
1220 1221
1220 6336
1220 6337
1220 6338
1221 1222
1221 1223
1222 1223
1224 1225
1224 1226
1224 1227
1225 1226
1225 9516
1225 1227
1225 5432
1225 9517
1225 9518
1226 3143
1226 9516
1226 1227
1226 5432
1226 9752
1226 9753
1227 9516
1227 5432
1227 9752
1227 9753
1228 1229
1228 1230
1228 1231
1228 1232
1228 1233
1228 1234
1228 1235
1229 1230
1229 1231
1229 1232
1229 1233
1229 1234
1229 1235
1229 2190
1229 2191
1229 2192
1229 2193
1229 2194
1229 2195
1229 2196
1230 1231
1230 1232
1230 1233
1230 1234
1230 1235
1231 1232
1231 1233
1231 1234
1231 1235
1232 1233
1232 1234
1232 1235
1233 2201
1233 1234
1233 1235
1234 1235
1237 1238
1237 1239
1237 1240
1237 1241
1237 1242
1237 1243
1237 1244
1238 2950
1238 5998
1238 5999
1238 1239
1238 6000
1238 6001
1238 9381
1238 9382
1239 5998
1239 5999
1239 6000
1239 6001
1240 1241
1240 1242
1240 1243
1240 1244
1241 1242
1241 1243
1241 1244
1242 1243
1242 1244
1243 1244
1245 1246
1245 1247
1245 1248
1245 1249
1245 1250
1245 1251
1245 1252
1245 1253
1245 1254
1245 1255
1245 1256
1245 1257
1245 1258
1245 1259
1245 1260
1245 1261
1245 1262
1245 1263
1245 1264
1245 1265
1245 1266
1245 1267
1245 1268
1245 1269
1245 1270
1245 1271
1245 1272
1245 1273
1245 1274
1246 1247
1246 1248
1246 1249
1246 1250
1246 1251
1246 1252
1246 1253
1246 1254
1246 1255
1246 1256
1246 1257
1246 1258
1246 1259
1246 1260
1246 1261
1246 1262
1246 1263
1246 1264
1246 1265
1246 1266
1246 1267
1246 1268
1246 1269
1246 1270
1246 1271
1246 1272
1246 1273
1246 1274
1247 1769
1247 1771
1247 1248
1247 1249
1247 1772
1247 1773
1247 1250
1247 1774
1247 1775
1247 1776
1247 1251
1247 1252
1247 1253
1247 1254
1247 1255
1247 1256
1247 1257
1247 1258
1247 1777
1247 1259
1247 1260
1247 1261
1247 1262
1247 1263
1247 1264
1247 1265
1247 1266
1247 1267
1247 1268
1247 1269
1247 1270
1247 1778
1247 1779
1247 1780
1247 5909
1247 1271
1247 1781
1247 1782
1247 1783
1247 1272
1247 1273
1247 1274
1247 1784
1247 1785
1247 1786
1248 1249
1248 1250
1248 1251
1248 1252
1248 1253
1248 1254
1248 1255
1248 1256
1248 1257
1248 1258
1248 1259
1248 1260
1248 1261
1248 1262
1248 1263
1248 1264
1248 1265
1248 1266
1248 1267
1248 1268
1248 1269
1248 1270
1248 1271
1248 1272
1248 1273
1248 1274
1249 1250
1249 1251
1249 1252
1249 1253
1249 1254
1249 1255
1249 1256
1249 1257
1249 1258
1249 1259
1249 1260
1249 1261
1249 1262
1249 1263
1249 1264
1249 1265
1249 1266
1249 1267
1249 1268
1249 1269
1249 1270
1249 1271
1249 1272
1249 1273
1249 1274
1250 7501
1250 1251
1250 1252
1250 1253
1250 1254
1250 1255
1250 1256
1250 1257
1250 1258
1250 1259
1250 1260
1250 1261
1250 1262
1250 1263
1250 1264
1250 1265
1250 1266
1250 1267
1250 1268
1250 1269
1250 1270
1250 1271
1250 1272
1250 1273
1250 1274
1251 1252
1251 1253
1251 1254
1251 1255
1251 1256
1251 1257
1251 1258
1251 1259
1251 1260
1251 1261
1251 1262
1251 1263
1251 1264
1251 1265
1251 1266
1251 1267
1251 1268
1251 1269
1251 1270
1251 1271
1251 1272
1251 1273
1251 1274
1252 1253
1252 1254
1252 1255
1252 1256
1252 1257
1252 1258
1252 1259
1252 1260
1252 1261
1252 1262
1252 1263
1252 1264
1252 1265
1252 1266
1252 1267
1252 1268
1252 1269
1252 1270
1252 1271
1252 1272
1252 1273
1252 1274
1253 1254
1253 1255
1253 1256
1253 1257
1253 1258
1253 1259
1253 1260
1253 1261
1253 1262
1253 1263
1253 1264
1253 1265
1253 1266
1253 1267
1253 1268
1253 1269
1253 1270
1253 1271
1253 1272
1253 1273
1253 1274
1254 1255
1254 1256
1254 1257
1254 1258
1254 1259
1254 1260
1254 1261
1254 1262
1254 1263
1254 1264
1254 1265
1254 1266
1254 1267
1254 1268
1254 1269
1254 1270
1254 1271
1254 1272
1254 1273
1254 1274
1255 1256
1255 1257
1255 1258
1255 1259
1255 1260
1255 1261
1255 1262
1255 1263
1255 1264
1255 1265
1255 1266
1255 1267
1255 1268
1255 1269
1255 1270
1255 1271
1255 1272
1255 1273
1255 1274
1256 1257
1256 1258
1256 1259
1256 1260
1256 1261
1256 1262
1256 1263
1256 1264
1256 1265
1256 1266
1256 1267
1256 1268
1256 1269
1256 1270
1256 1271
1256 1272
1256 1273
1256 1274
1257 1769
1257 1771
1257 1772
1257 1773
1257 1774
1257 1775
1257 1776
1257 1258
1257 1777
1257 1259
1257 1260
1257 1261
1257 1262
1257 1263
1257 1264
1257 1265
1257 1266
1257 1267
1257 1268
1257 1269
1257 1270
1257 1778
1257 1779
1257 1780
1257 5909
1257 1271
1257 1781
1257 1782
1257 1783
1257 1272
1257 1273
1257 1274
1257 1784
1257 1785
1257 1786
1258 7717
1258 7718
1258 7719
1258 1335
1258 7720
1258 7721
1258 6448
1258 1259
1258 1260
1258 1261
1258 1262
1258 1263
1258 1264
1258 1265
1258 1266
1258 1267
1258 1268
1258 1269
1258 1270
1258 1271
1258 1272
1258 1273
1258 1274
1259 1260
1259 1261
1259 1262
1259 1263
1259 1264
1259 1265
1259 1266
1259 1267
1259 1268
1259 1269
1259 1270
1259 1271
1259 1272
1259 1273
1259 1274
1260 1261
1260 1262
1260 1263
1260 1264
1260 1265
1260 1266
1260 1267
1260 1268
1260 1269
1260 1270
1260 1271
1260 1272
1260 1273
1260 1274
1261 1262
1261 1263
1261 1264
1261 1265
1261 1266
1261 1267
1261 1268
1261 1269
1261 1270
1261 1271
1261 1272
1261 1273
1261 1274
1262 1263
1262 1264
1262 1265
1262 1266
1262 1267
1262 1268
1262 1269
1262 1270
1262 1271
1262 1272
1262 1273
1262 1274
1263 1264
1263 1265
1263 1266
1263 1267
1263 1268
1263 1269
1263 1270
1263 1271
1263 1272
1263 1273
1263 1274
1264 1265
1264 1266
1264 1267
1264 1268
1264 1269
1264 1270
1264 1271
1264 1272
1264 1273
1264 1274
1265 1266
1265 1267
1265 1268
1265 1269
1265 1270
1265 1271
1265 1272
1265 1273
1265 1274
1266 1267
1266 1268
1266 1269
1266 1270
1266 1271
1266 1272
1266 1273
1266 1274
1267 1268
1267 1269
1267 1270
1267 1271
1267 1272
1267 1273
1267 1274
1268 1269
1268 1270
1268 1271
1268 1272
1268 1273
1268 1274
1269 1270
1269 1271
1269 1272
1269 1273
1269 1274
1270 1271
1270 1272
1270 1273
1270 1274
1271 1272
1271 1273
1271 1274
1272 1273
1272 1274
1273 1274
1275 1276
1275 1277
1275 1278
1275 1279
1275 1280
1276 2476
1276 2477
1276 1385
1276 2478
1276 2479
1276 2480
1276 2481
1276 2482
1276 2483
1276 1387
1276 2484
1276 2485
1276 2486
1276 2487
1276 2488
1277 2996
1277 1278
1277 1280
1277 6999
1277 7000
1277 7001
1277 7002
1278 6999
1278 7000
1278 7001
1278 7002
1279 10224
1279 10225
1280 1564
1280 1568
1280 1572
1280 1573
1280 1574
1280 1575
1281 1282
1281 1283
1281 1284
1281 1285
1281 1286
1281 1287
1282 1283
1282 1284
1282 1285
1282 1286
1282 1287
1283 1284
1283 1285
1283 1286
1283 1287
1283 1288
1283 1289
1283 1290
1284 1285
1284 1286
1284 1287
1285 1286
1285 1287
1286 1287
1288 2968
1288 1289
1288 1290
1289 2968
1289 1290
1290 2968
1291 1751
1291 1752
1291 1353
1291 1753
1291 1754
1291 1755
1292 3959
1292 1395
1292 6826
1293 2925
1293 10371
1293 10372
1293 10373
1293 10374
1293 10375
1294 1295
1294 1296
1294 1297
1294 1298
1294 1299
1294 1300
1294 1301
1294 1302
1295 1296
1295 1297
1295 1301
1295 1302
1296 1297
1296 1301
1296 1302
1298 1299
1298 1300
1301 1302
1303 1304
1303 1305
1303 1306
1303 1307
1303 1308
1303 1309
1304 1305
1304 1306
1304 1307
1304 1308
1304 1309
1305 8275
1305 1306
1305 1307
1305 1308
1305 1309
1306 8275
1306 1307
1306 1308
1306 1309
1307 1308
1307 1309
1308 1309
1310 1311
1310 1312
1310 1313
1310 1314
1311 1312
1311 1313
1311 1314
1312 1366
1312 1313
1312 1314
1312 1367
1312 1368
1312 1369
1312 1370
1313 1366
1313 1314
1313 1367
1313 1368
1313 1369
1313 1370
1315 1316
1315 1317
1315 1318
1315 1319
1315 1320
1315 1321
1315 1322
1316 1317
1316 1319
1316 1320
1316 1321
1316 1322
1317 2214
1317 2215
1317 2216
1317 2218
1317 1319
1317 2226
1317 2227
1317 2228
1318 3406
1318 3408
1318 3409
1318 3410
1319 2214
1319 2215
1319 2216
1319 2218
1319 2226
1319 2227
1319 2228
1320 1321
1320 1322
1321 1322
1323 1324
1323 1325
1323 1326
1323 1327
1323 1328
1323 1329
1323 1330
1323 1331
1323 1332
1323 1333
1324 2526
1324 3945
1324 3946
1324 3947
1324 3948
1324 3949
1324 3950
1324 3951
1324 3952
1324 3953
1324 3954
1324 3955
1324 3956
1324 3957
1324 3958
1325 1326
1325 1327
1325 1328
1325 1329
1325 1330
1325 1331
1326 11038
1326 11039
1326 11040
1326 11041
1326 8064
1326 1327
1326 1328
1326 1329
1326 1330
1326 1331
1327 1328
1327 1329
1327 1330
1327 1331
1328 1329
1328 1330
1328 1331
1329 1330
1329 1331
1330 1331
1332 1333
1334 8209
1334 8210
1334 7846
1334 8211
1334 8212
1334 8213
1334 8214
1334 8215
1334 8216
1334 1337
1335 7717
1335 7718
1335 7719
1335 7720
1335 7721
1335 6448
1335 1336
1337 8209
1337 8213
1337 8214
1337 8215
1338 1339
1338 1340
1338 1341
1338 1342
1338 1343
1338 1344
1338 1345
1338 1346
1339 1341
1339 1342
1339 1343
1339 1344
1339 1345
1339 1346
1340 1965
1340 2561
1340 2562
1340 2563
1340 2564
1340 2565
1340 2566
1340 2567
1341 1342
1341 1343
1341 1344
1341 1345
1341 1346
1342 1343
1342 1344
1342 1345
1342 1346
1343 1344
1343 1345
1343 1346
1344 1345
1344 1346
1345 1346
1347 1348
1347 1349
1347 1350
1347 1351
1347 1352
1348 2648
1348 1349
1348 2310
1348 1351
1348 1352
1349 2648
1349 2310
1349 1351
1349 1352
1350 9780
1350 9781
1350 9782
1350 9783
1350 9784
1350 9785
1350 9786
1351 2648
1351 2310
1351 1352
1352 2648
1352 2310
1353 1751
1353 1752
1353 1354
1353 1753
1353 1355
1353 1754
1353 1356
1353 1357
1353 1755
1354 1355
1354 1356
1354 1357
1355 1356
1355 1357
1356 1357
1358 1359
1358 1360
1358 1361
1358 1362
1358 1363
1358 1364
1358 1365
1359 2638
1359 2639
1359 2641
1359 2642
1359 2643
1359 2644
1359 2319
1359 2645
1359 2646
1359 2647
1360 1361
1360 1362
1360 1363
1360 1364
1360 1365
1361 1362
1361 1363
1361 1364
1361 1365
1362 1363
1362 1364
1362 1365
1363 1364
1363 1365
1364 1365
1366 1367
1366 1368
1366 1369
1366 1370
1367 1368
1367 1369
1367 1370
1368 1369
1368 1370
1369 1370
1371 1372
1371 1373
1371 1374
1371 1375
1371 1376
1371 1377
1372 1373
1372 1374
1372 1375
1372 1376
1372 1377
1373 1374
1373 1375
1373 1376
1373 1377
1374 1375
1374 1376
1374 1377
1375 1376
1375 1377
1376 1377
1378 4809
1378 8179
1378 4810
1378 1379
1378 4813
1378 7735
1378 1380
1378 1381
1379 4813
1379 1380
1379 1381
1380 1381
1382 1383
1382 1384
1382 1387
1383 1384
1383 1387
1384 2662
1384 1387
1384 2663
1384 2664
1384 2665
1384 2552
1384 2666
1385 1566
1385 2477
1385 2996
1385 2478
1385 2481
1385 1387
1385 2485
1385 2486
1386 1577
1386 1566
1386 1583
1386 1584
1386 1585
1386 1586
1386 1587
1386 1588
1386 1589
1386 1590
1387 2476
1387 2478
1387 2481
1387 2485
1387 2486
1387 2487
1387 2488
1388 1389
1388 1390
1388 1391
1388 1392
1389 4045
1389 4115
1389 4046
1389 4116
1390 1391
1390 1392
1390 5472
1390 5473
1390 5474
1390 5475
1390 5476
1390 5477
1391 1392
1391 5474
1391 5475
1391 5476
1391 5477
1393 1398
1395 7578
1395 7579
1395 6826
1395 1396
1395 1397
1395 7580
1396 1929
1396 2009
1396 2010
1396 2015
1396 2018
1396 1397
1396 2019
1396 2020
1396 2021
1397 1929
1397 2009
1397 2010
1397 2015
1397 2018
1397 2019
1397 2020
1397 2021
1399 1400
1399 1401
1400 6536
1400 1401
1400 10909
1400 10910
1400 10911
1400 10912
1402 5910
1402 4906
1402 5912
1402 5913
1402 5914
1402 5915
1402 5916
1402 5917
1402 5918
1402 5919
1402 5920
1402 5921
1402 5922
1402 5923
1402 5924
1402 5925
1402 5926
1402 5927
1402 5928
1402 5929
1402 5930
1402 5931
1402 5932
1402 5933
1403 1404
1403 1405
1403 1406
1403 1407
1403 1408
1403 1409
1403 1410
1403 1411
1404 1405
1404 1406
1404 1407
1404 1408
1404 1409
1404 1410
1404 1411
1405 1406
1405 1407
1405 1408
1405 1409
1405 1410
1405 1411
1406 1407
1406 1408
1406 1409
1406 1410
1406 1411
1407 1408
1407 1409
1407 1410
1407 1411
1408 1409
1408 1410
1408 1411
1409 1410
1409 1411
1410 1411
1412 1413
1412 1414
1412 1415
1412 1416
1412 1417
1412 1418
1412 1419
1413 8183
1413 8184
1413 8185
1413 8186
1413 8187
1414 1415
1415 8188
1415 1416
1415 7573
1415 8189
1415 9173
1415 9174
1415 9175
1415 9176
1416 1417
1416 1419
1417 1419
1418 11471
1418 11472
1418 11473
1418 11474
1418 11475
1418 11476
1418 11477
1418 11478
1418 11479
1421 1422
1421 1423
1421 1424
1421 1425
1422 1423
1424 5032
1424 9409
1424 9410
1424 9411
1424 9412
1424 9413
1426 1427
1426 1428
1426 1429
1426 1430
1426 1431
1426 1432
1427 4086
1428 1429
1428 1432
1429 7845
1429 8394
1429 7846
1429 8395
1429 8396
1429 8397
1429 1432
1430 7845
1430 1431
1431 7844
1431 7845
1431 7846
1433 1434
1433 1435
1433 1436
1433 1437
1433 1438
1433 1439
1433 1440
1433 1441
1433 1442
1434 1435
1434 1436
1434 1437
1434 1438
1434 1439
1434 1440
1434 1441
1434 1442
1435 2496
1435 1436
1435 1437
1435 1438
1435 1439
1435 1440
1435 1441
1435 1442
1436 5553
1436 1437
1436 1438
1436 1439
1436 1440
1436 1441
1436 1442
1437 5553
1437 6960
1437 1438
1437 1439
1437 1440
1437 1441
1437 1442
1438 1439
1438 1440
1438 1441
1438 1442
1439 1440
1439 1441
1439 1442
1440 1441
1440 1442
1441 1442
1443 1444
1443 1445
1443 1446
1443 1447
1443 1448
1443 1449
1443 1450
1443 1451
1443 1452
1443 1453
1443 1454
1443 1455
1443 1456
1444 1445
1444 1446
1444 7040
1444 1447
1444 1448
1444 1449
1444 1450
1444 1451
1444 1452
1444 1453
1444 1454
1444 1455
1444 1456
1445 1446
1445 7040
1445 1447
1445 1448
1445 1449
1445 1450
1445 1451
1445 1452
1445 1453
1445 1454
1445 1455
1445 1456
1446 1447
1446 1448
1446 1449
1446 1450
1446 1451
1446 1452
1446 1453
1446 1454
1446 1455
1446 1456
1447 1448
1447 1449
1447 1450
1447 1451
1447 1452
1447 1453
1447 1454
1447 1455
1447 1456
1448 1449
1448 1450
1448 1451
1448 1452
1448 1453
1448 1454
1448 1455
1448 1456
1449 1450
1449 1451
1449 1452
1449 1453
1449 1454
1449 1455
1449 1456
1450 1451
1450 1452
1450 1453
1450 1454
1450 1455
1450 1456
1451 1452
1451 1453
1451 1454
1451 1455
1451 1456
1452 1453
1452 1454
1452 1455
1452 1456
1453 1454
1453 1455
1453 1456
1454 1455
1454 1456
1455 1456
1457 2765
1457 2766
1457 2767
1457 1944
1457 2768
1457 2769
1457 2770
1458 5990
1458 5991
1459 1460
1459 1461
1459 1462
1459 1463
1459 1464
1459 1465
1459 1466
1460 1461
1460 1462
1460 1463
1460 1464
1460 1465
1460 1466
1460 1467
1460 1468
1461 1462
1461 1463
1461 1464
1461 1465
1461 1466
1462 1463
1462 1464
1462 1465
1462 1466
1463 1464
1463 1465
1463 1466
1463 1482
1464 1465
1464 1466
1465 1466
1466 1467
1466 1468
1467 1468
1469 1470
1469 1471
1469 1472
1469 1473
1469 1474
1469 1475
1469 1476
1469 1477
1469 1478
1469 1479
1469 1480
1469 1481
1470 5072
1470 1472
1470 1473
1470 1474
1470 1475
1470 1476
1471 1472
1471 1473
1471 1477
1471 1478
1471 1479
1471 1480
1471 1481
1472 1473
1472 1474
1472 1475
1472 1476
1472 1477
1472 1478
1472 1479
1472 1480
1472 1481
1473 1474
1473 1475
1473 1476
1473 1477
1473 1478
1473 1479
1473 1480
1473 1481
1474 1475
1474 1476
1475 1476
1477 1478
1477 1479
1477 1480
1477 1481
1478 1479
1478 1480
1478 1481
1479 1480
1479 1481
1480 1481
1482 1756
1482 1757
1482 1758
1482 1759
1483 1484
1483 1485
1483 1486
1483 1487
1483 1488
1483 1489
1483 1490
1483 1491
1483 1492
1483 1493
1483 1494
1483 1495
1483 1496
1483 1497
1483 1498
1483 1499
1483 1500
1483 1501
1483 1502
1483 1503
1483 1504
1484 1485
1484 1487
1484 1488
1484 2596
1484 1489
1484 1490
1484 1491
1484 1492
1484 1493
1484 1494
1484 1495
1484 1496
1484 1497
1484 1498
1484 1499
1484 1500
1484 1501
1484 1502
1484 1503
1484 1504
1485 1489
1485 1490
1485 1491
1485 1492
1485 3836
1485 3837
1485 3838
1485 3839
1485 3840
1485 3841
1486 5208
1486 5209
1486 5210
1486 5211
1486 5212
1487 1488
1487 1490
1487 1493
1487 1494
1487 1495
1487 1496
1488 1490
1488 1493
1488 1494
1488 1495
1488 1496
1489 1491
1489 1492
1490 3137
1490 1493
1490 1494
1490 1495
1490 1496
1490 1497
1490 1498
1490 1499
1490 1500
1490 1501
1490 1502
1490 1503
1490 1504
1491 1492
1493 1494
1493 1495
1493 1496
1494 1495
1494 1496
1495 1496
1496 3355
1497 1498
1497 1499
1497 1500
1497 1501
1497 1502
1497 1503
1497 1504
1498 1499
1498 1500
1498 1501
1498 1502
1498 1503
1498 1504
1499 1500
1499 1501
1499 1502
1499 1503
1499 1504
1500 1501
1500 1502
1500 1503
1500 1504
1501 1502
1501 1503
1501 1504
1502 1503
1502 1504
1503 1504
1505 1506
1505 1507
1505 1508
1505 1509
1506 3968
1506 1507
1506 3969
1506 3970
1506 3971
1506 3972
1506 1508
1506 1509
1506 3973
1507 3968
1507 3969
1507 3970
1507 3971
1507 3972
1507 3973
1508 10851
1508 1509
1508 10852
1509 10851
1509 10852
1510 1511
1510 1512
1510 1513
1510 1514
1511 2711
1511 2712
1511 2713
1511 2714
1511 2715
1511 2716
1511 2717
1511 2718
1512 2868
1512 2870
1512 2871
1512 2872
1512 2874
1512 2875
1512 2876
1513 4603
1513 1514
1513 4604
1513 4605
1514 4603
1514 4604
1514 4605
1515 1516
1515 1517
1515 1518
1515 1519
1515 1520
1516 1517
1516 1518
1516 1519
1516 1520
1517 1518
1517 1519
1517 1520
1518 1519
1518 1520
1519 1520
1519 1612
1519 1613
1521 1522
1521 1523
1521 1524
1521 1525
1521 1526
1521 1527
1521 1528
1521 1529
1521 1530
1521 1531
1521 1532
1521 1533
1521 1534
1521 1535
1522 1523
1522 1524
1522 1525
1522 1526
1522 1527
1522 1528
1522 1529
1522 1530
1522 1531
1522 1532
1522 1533
1522 1534
1522 1535
1523 6595
1523 7741
1523 1525
1523 1526
1523 1527
1523 1528
1523 1529
1523 1530
1523 1531
1523 1532
1524 1531
1524 1533
1524 1534
1524 1535
1525 1526
1525 1527
1525 1528
1525 1529
1525 1530
1525 1531
1525 1532
1526 2826
1526 2197
1526 2198
1526 2199
1526 2200
1526 1527
1526 1528
1526 1529
1526 1530
1526 1531
1526 1532
1527 1528
1527 1529
1527 1530
1527 1531
1527 1532
1528 6076
1528 1529
1528 1530
1528 1531
1528 1532
1529 2198
1529 1530
1529 1531
1529 1532
1530 2200
1530 1531
1530 1532
1531 1532
1531 1533
1531 1534
1531 1535
1533 1534
1533 1535
1534 1535
1536 1537
1536 1538
1536 1539
1536 1540
1536 1541
1536 1542
1536 1543
1536 1544
1536 1545
1537 1546
1537 1547
1537 1548
1537 1549
1537 1550
1537 1551
1537 1552
1537 1553
1537 1554
1537 1555
1537 1556
1537 1557
1537 1558
1537 1559
1537 1560
1537 1561
1537 1562
1537 1563
1538 1539
1538 1540
1538 1544
1539 1540
1539 1544
1540 1544
1541 1542
1541 1543
1541 1545
1542 1543
1542 1545
1543 1545
1546 1547
1546 1548
1546 1549
1546 1550
1546 1551
1546 1552
1546 1553
1546 1554
1546 1555
1546 1556
1546 1557
1546 1558
1546 1559
1546 1560
1546 1561
1546 1562
1546 1563
1547 1548
1547 1549
1547 1550
1547 1551
1547 1552
1547 1553
1547 1554
1547 1555
1547 1556
1547 1557
1547 1558
1547 1559
1547 1560
1547 1561
1547 1562
1547 1563
1548 7782
1548 1549
1548 1550
1548 1551
1548 1552
1548 1553
1548 1554
1548 1555
1548 1556
1548 1557
1548 1558
1548 1559
1548 1560
1548 1561
1548 1562
1548 1563
1549 1550
1549 1551
1549 1552
1549 1553
1549 1554
1549 1555
1549 1556
1549 1557
1549 1558
1549 1559
1549 1560
1549 1561
1549 1562
1549 1563
1550 1551
1550 1552
1550 1553
1550 1554
1550 1555
1550 1556
1550 1557
1550 1558
1550 1559
1550 1560
1550 1561
1550 1562
1550 1563
1551 1552
1551 1553
1551 1554
1551 1555
1551 1556
1551 1557
1551 1558
1551 1559
1551 1560
1551 1561
1551 1562
1551 1563
1552 1553
1552 1554
1552 1555
1552 1556
1552 1557
1552 1558
1552 1559
1552 1560
1552 1561
1552 1562
1552 1563
1553 1554
1553 1555
1553 1556
1553 1557
1553 1558
1553 1559
1553 1560
1553 1561
1553 1562
1553 1563
1554 1555
1554 1556
1554 1557
1554 1558
1554 1559
1554 1560
1554 1561
1554 1562
1554 1563
1555 1556
1555 1557
1555 1558
1555 1559
1555 1560
1555 1561
1555 1562
1555 1563
1556 2667
1556 1557
1556 1558
1556 1559
1556 1560
1556 1561
1556 1562
1556 1563
1556 2669
1557 1558
1557 1559
1557 1560
1557 1561
1557 1562
1557 1563
1558 2667
1558 1559
1558 1560
1558 1561
1558 1562
1558 1563
1558 2669
1559 1560
1559 1561
1559 1562
1559 1563
1560 1561
1560 1562
1560 1563
1561 1562
1561 1563
1562 1563
1564 1565
1564 1566
1564 1567
1564 1568
1564 1569
1564 1570
1564 1571
1564 1572
1564 1573
1564 1574
1564 1575
1565 2263
1565 1662
1565 2264
1565 2265
1565 2266
1566 1577
1566 1583
1566 2734
1566 1584
1566 1585
1566 1586
1566 1587
1566 1588
1566 1589
1566 2735
1566 1590
1566 2736
1567 3455
1567 3456
1568 1571
1568 1572
1568 1573
1568 1574
1568 1575
1569 8034
1569 8035
1569 8036
1569 8037
1569 8038
1569 8039
1569 8040
1570 10143
1570 10144
1570 10145
1570 10146
1570 10147
1570 10148
1571 3685
1571 3687
1571 3688
1571 3689
1571 3690
1571 3691
1572 1573
1572 1574
1572 1575
1573 1574
1573 1575
1574 1575
1576 1577
1576 1578
1576 1579
1576 1580
1576 1581
1576 1582
1577 1583
1577 1584
1577 1585
1577 1586
1577 1587
1577 1588
1577 1589
1577 1590
1578 1579
1578 1580
1578 9637
1578 1581
1578 1582
1578 9638
1579 4407
1579 6205
1579 2542
1579 1580
1579 9637
1579 1581
1579 1582
1579 6206
1579 9638
1579 4408
1579 4409
1579 4410
1579 6207
1579 7283
1579 9639
1579 9640
1579 9641
1579 6208
1579 7284
1579 7285
1580 1581
1580 1582
1581 1582
1583 2734
1583 1584
1583 1585
1583 1586
1583 1587
1583 1588
1583 1589
1583 1590
1583 2736
1584 2734
1584 1585
1584 1586
1584 1587
1584 1588
1584 1589
1584 1590
1584 2736
1585 1586
1585 1587
1585 1588
1585 1589
1585 1590
1586 2734
1586 1587
1586 1588
1586 1589
1586 1590
1586 2736
1587 1588
1587 1589
1587 1590
1588 1589
1588 1590
1589 2734
1589 1590
1590 2734
1590 6736
1590 6740
1591 1592
1591 1593
1591 1594
1591 1595
1591 1596
1591 1597
1591 1598
1591 1599
1591 1600
1591 1601
1592 1593
1592 1595
1592 2032
1592 2033
1592 1597
1592 3204
1592 3205
1592 3206
1593 5327
1593 1596
1593 3204
1593 1600
1593 1601
1593 5328
1593 5329
1594 6590
1594 6591
1594 6592
1594 4770
1594 6593
1594 1599
1594 6594
1595 7164
1595 7165
1595 7166
1595 7167
1595 7168
1595 7169
1596 3204
1596 1600
1596 1601
1596 5328
1596 5329
1597 4202
1597 2030
1597 2031
1597 2033
1597 4209
1597 2036
1597 2026
1597 4206
1597 2027
1597 2041
1597 4207
1597 7127
1597 4211
1597 4208
1597 5831
1599 6591
1599 4770
1599 6593
1599 6594
1600 2035
1600 2036
1600 3204
1600 2041
1600 8045
1600 1601
1600 5328
1600 5329
1601 3204
1601 5328
1601 5329
1602 1603
1602 1604
1602 1605
1602 1606
1602 1607
1602 1608
1602 1609
1602 1610
1602 1611
1603 1604
1603 1795
1603 1796
1603 1797
1603 1607
1603 1798
1603 1799
1603 1800
1603 1801
1603 1802
1603 1803
1604 1795
1604 1797
1604 1607
1604 1801
1604 1802
1604 1803
1605 1606
1605 1608
1605 1609
1605 1610
1606 1608
1606 1609
1606 1610
1607 1796
1607 1797
1607 1799
1607 1801
1607 1802
1607 1803
1608 1609
1608 1610
1609 1610
1609 1611
1611 10099
1611 10552
1611 11545
1611 11546
1611 11547
1611 10553
1611 10554
1612 2622
1612 2623
1612 2624
1613 8627
1613 8628
1613 8629
1613 8630
1613 8631
1613 8632
1613 8633
1613 8634
1613 8635
1613 8636
1614 1615
1614 4382
1614 1616
1614 1617
1614 4738
1614 1618
1614 1619
1614 7692
1615 4737
1615 1617
1615 4738
1615 4739
1615 7692
1616 1617
1616 1618
1616 1619
1617 4737
1617 4738
1617 4739
1617 1618
1617 1619
1618 1619
1620 1621
1620 1622
1620 1623
1620 1624
1620 1625
1620 1626
1621 1622
1621 1623
1621 1624
1621 1625
1621 1626
1623 1624
1623 1625
1623 1626
1624 1625
1624 1626
1625 3569
1625 1626
1627 1628
1627 1629
1627 1630
1627 1631
1627 1632
1627 1633
1627 1634
1627 1635
1627 1636
1627 1637
1627 1638
1627 1639
1627 1640
1627 1641
1627 1642
1627 1643
1627 1644
1627 1645
1628 1632
1628 1633
1628 6287
1628 1635
1628 6288
1628 6289
1628 6290
1628 6291
1629 1630
1629 1633
1629 6826
1629 1634
1629 1635
1629 1637
1629 1638
1629 1639
1629 6827
1630 1638
1630 1639
1630 1643
1630 1645
1631 7436
1631 7437
1631 7438
1631 7439
1631 7440
1631 7441
1631 1634
1631 7447
1631 7443
1631 7445
1631 7448
1631 7449
1631 7450
1631 7451
1632 6111
1632 1636
1632 7632
1632 7633
1632 7634
1633 1634
1633 1637
1633 1640
1633 1641
1633 1644
1634 5714
1634 9897
1634 1637
1634 6228
1634 1640
1634 1641
1634 1642
1634 9898
1634 9899
1634 9900
1634 9901
1634 7450
1635 6288
1636 6111
1636 8812
1636 9658
1636 1643
1636 1645
1636 9660
1636 9661
1636 9662
1636 10459
1637 7441
1638 1639
1639 1645
1640 1641
1641 1644
1643 8812
1643 9658
1643 1645
1643 9660
1643 9661
1643 9662
1644 8811
1644 8812
1644 9659
1645 8812
1645 9658
1645 9660
1645 9661
1645 9662
1646 3057
1646 3058
1646 3059
1646 3060
1646 3061
1647 1648
1647 1649
1647 1650
1647 1651
1648 4799
1648 4800
1648 4801
1648 4802
1649 8608
1649 8609
1649 8610
1649 8611
1650 1651
1652 1653
1652 1654
1652 1655
1652 1656
1652 1657
1652 1658
1652 1659
1652 1660
1653 1654
1653 1655
1653 1656
1653 1657
1653 1658
1653 1659
1653 1660
1653 2650
1653 2651
1653 2652
1653 2653
1653 2654
1653 2655
1653 2656
1654 1655
1654 1656
1654 1657
1654 1658
1654 1659
1654 1660
1655 1656
1655 1657
1655 1658
1655 1659
1655 1660
1655 4761
1655 2650
1655 2651
1655 2653
1656 1657
1656 1658
1656 1659
1656 1660
1657 1658
1657 1659
1657 1660
1658 1659
1658 1660
1659 1660
1661 1662
1661 1663
1661 1664
1661 1665
1661 1666
1661 1667
1662 2263
1662 2264
1662 2265
1662 2266
1663 1664
1663 1665
1663 1666
1663 1667
1664 1665
1664 1666
1664 1667
1665 1666
1665 1667
1666 1667
1668 1669
1668 1670
1668 1671
1668 1672
1668 1673
1668 1674
1668 1675
1668 1676
1668 1677
1668 1678
1668 1679
1668 1680
1668 1681
1669 1670
1669 1671
1669 1672
1670 1671
1670 1672
1671 1672
1671 3715
1672 1673
1674 1675
1674 1676
1674 1677
1674 1678
1675 1676
1675 1677
1675 1678
1676 1677
1676 1678
1677 1678
1679 10724
1679 10725
1679 1680
1679 1681
1679 10726
1680 10725
1680 1681
1681 10724
1681 10725
1681 10726
1682 3238
1682 8253
1682 8254
1682 3386
1682 1683
1682 1684
1683 1684
1685 1686
1685 1687
1685 1688
1685 1689
1685 1690
1685 1691
1685 1692
1685 1693
1685 1694
1685 1695
1686 1688
1686 1689
1686 1692
1686 1693
1686 1694
1686 5445
1686 5446
1686 5447
1686 5448
1686 5449
1686 5450
1687 6483
1687 6484
1687 6485
1687 6486
1687 2038
1687 6487
1687 1690
1687 1691
1687 1694
1688 1689
1688 1692
1688 1693
1688 1694
1689 1692
1689 1693
1689 1694
1691 2038
1691 1694
1691 1695
1692 1693
1692 1694
1693 1694
1694 2038
1696 1697
1696 1698
1696 1699
1696 1700
1696 1701
1696 1702
1696 1703
1696 1704
1696 1705
1696 1706
1696 1707
1696 1708
1696 1709
1697 2539
1697 1698
1697 1699
1697 2540
1697 1700
1697 1701
1697 1702
1697 1703
1697 1704
1698 1996
1698 2539
1698 1699
1698 1997
1698 1700
1698 2585
1698 2586
1698 4621
1698 1998
1698 1999
1698 2000
1698 2001
1699 1700
1699 1701
1699 4621
1700 1701
1700 1702
1700 1703
1700 1704
1701 1702
1701 1703
1701 1704
1702 1703
1702 1704
1703 1704
1705 1706
1707 1708
1707 1709
1708 1709
1710 1711
1710 1712
1710 1713
1710 1714
1710 1715
1710 1716
1711 1739
1711 1740
1711 1741
1711 1742
1712 1713
1712 1714
1712 1715
1712 1716
1713 1714
1713 1715
1713 1716
1714 1715
1714 1716
1715 1716
1717 1718
1717 1719
1717 1720
1717 1721
1717 1722
1717 1723
1718 1720
1718 1721
1718 1722
1718 1723
1718 2229
1718 2230
1719 2049
1719 3170
1719 3171
1719 3172
1719 3173
1719 3174
1719 3175
1719 3176
1719 3177
1719 3178
1719 3179
1719 3180
1719 3181
1719 3182
1719 3183
1719 3184
1719 3185
1720 9974
1720 1721
1720 1722
1720 1723
1720 2229
1720 9975
1720 2230
1721 1722
1721 1723
1721 2229
1721 2230
1722 1723
1724 1725
1724 1726
1724 1727
1724 1728
1724 1729
1724 1730
1724 1731
1725 1726
1725 1727
1725 11884
1725 1728
1725 1729
1725 1731
1726 1727
1726 1728
1726 1729
1726 1731
1727 1728
1727 1729
1727 1731
1728 4386
1728 11884
1728 11945
1728 11962
1728 11963
1728 1729
1728 1730
1728 1731
1728 4387
1729 1730
1729 1731
1732 1733
1732 1734
1732 1735
1732 1736
1732 1737
1732 1738
1733 1734
1733 1735
1733 1736
1733 1737
1733 1738
1734 1735
1734 1736
1734 1738
1735 1736
1735 1738
1736 1738
1739 1740
1739 1741
1739 5042
1740 5247
1740 1741
1740 1742
1740 5042
1741 1820
1741 1742
1741 5042
1743 1744
1743 1745
1743 1746
1743 1747
1743 1748
1744 1745
1744 1746
1744 1747
1744 1748
1745 10581
1745 1746
1745 1747
1745 1748
1746 1747
1746 1748
1747 1748
1749 11225
1749 11226
1751 1752
1751 1753
1751 1754
1751 1755
1752 1753
1752 1754
1752 1755
1753 1864
1753 2826
1753 1754
1753 2827
1753 2831
1753 2832
1753 1755
1754 1755
1756 1757
1756 2372
1756 2373
1756 2374
1756 2375
1756 1759
1756 2376
1756 2377
1757 2436
1757 2372
1757 2373
1757 2374
1757 2437
1757 1759
1757 2438
1757 2439
1757 2440
1758 5743
1758 5744
1760 1761
1760 1762
1760 1763
1760 1764
1760 1765
1760 1766
1760 1767
1760 1768
1761 1762
1761 1763
1761 1764
1761 1765
1761 1766
1761 1767
1761 1768
1762 1763
1762 1764
1762 1765
1762 1766
1762 1767
1762 1768
1763 1764
1763 1765
1763 1766
1763 1767
1763 1768
1764 1765
1764 1766
1764 1767
1764 1768
1765 1768
1766 1767
1766 1768
1767 1768
1769 1770
1769 1771
1769 1772
1769 1773
1769 1774
1769 1775
1769 1776
1769 1777
1769 1778
1769 1779
1769 1780
1769 1781
1769 1782
1769 1783
1769 1784
1769 1785
1769 1786
1770 3002
1770 1776
1770 3003
1770 3004
1770 1784
1770 1785
1771 1772
1771 1773
1771 1774
1771 3695
1771 1775
1771 1776
1771 1777
1771 1778
1771 1779
1771 1780
1771 1781
1771 1782
1771 1783
1771 1784
1771 1785
1771 1786
1772 1773
1772 1774
1772 1775
1772 1776
1772 6671
1772 1777
1772 1778
1772 1779
1772 1780
1772 1781
1772 1782
1772 1783
1772 1784
1772 1785
1772 1786
1773 1774
1773 1775
1773 1776
1773 1777
1773 1778
1773 1779
1773 1780
1773 1781
1773 7327
1773 1782
1773 1783
1773 1784
1773 1785
1773 1786
1774 4391
1774 3143
1774 1775
1774 7635
1774 1776
1774 7636
1774 1777
1774 7637
1774 1778
1774 1779
1774 1780
1774 1781
1774 7638
1774 7639
1774 7327
1774 1782
1774 1783
1774 7640
1774 7641
1774 1784
1774 1785
1774 1786
1775 6752
1775 7635
1775 1776
1775 7636
1775 1777
1775 7637
1775 1778
1775 1779
1775 1780
1775 1781
1775 7638
1775 7639
1775 1782
1775 1783
1775 7640
1775 7641
1775 1784
1775 1785
1775 1786
1776 1777
1776 1778
1776 1779
1776 1780
1776 3003
1776 3004
1776 1781
1776 1782
1776 1783
1776 1784
1776 1785
1776 1786
1777 6671
1777 1778
1777 1779
1777 1780
1777 1781
1777 1782
1777 1783
1777 1784
1777 1785
1777 1786
1778 1779
1778 1780
1778 5909
1778 1781
1778 1782
1778 1783
1778 1784
1778 1785
1778 1786
1779 1780
1779 5909
1779 1781
1779 1782
1779 1783
1779 1784
1779 1785
1779 1786
1780 5909
1780 1781
1780 1782
1780 1783
1780 1784
1780 1785
1780 1786
1781 1782
1781 1783
1781 1784
1781 1785
1781 1786
1782 1783
1782 1784
1782 1785
1782 1786
1783 1784
1783 1785
1783 1786
1784 3003
1784 1785
1784 1786
1785 3003
1785 3004
1785 1786
1787 1788
1787 1789
1787 1790
1787 1791
1787 1792
1787 1793
1787 1794
1788 1789
1788 1790
1788 1791
1788 1792
1788 1793
1788 1794
1789 1790
1789 1791
1789 1792
1789 1793
1790 1791
1790 1792
1790 1793
1791 1792
1791 1793
1791 10460
1792 1793
1792 10460
1793 1794
1795 6527
1795 6528
1795 6529
1795 6530
1795 6531
1795 6532
1795 6533
1796 1797
1796 1798
1796 1799
1796 1800
1797 1799
1798 1800
1801 1802
1801 1803
1802 1803
1804 6074
1804 6075
1804 2780
1804 5628
1804 6076
1804 6077
1804 6078
1804 6079
1804 6080
1805 1881
1805 1882
1805 1883
1805 1884
1805 1885
1805 1886
1806 1807
1806 1808
1806 1809
1806 1810
1806 1811
1806 1812
1806 1813
1806 1814
1806 1815
1806 1816
1806 1817
1806 1818
1806 1819
1807 1808
1807 1809
1807 1810
1807 1811
1807 1812
1807 1813
1807 1814
1807 1815
1807 1816
1807 1817
1808 1809
1808 1810
1808 1811
1808 1812
1808 1813
1808 1814
1808 1815
1808 1816
1808 1817
1809 1810
1809 1811
1809 1812
1809 1813
1809 1814
1809 1815
1809 1816
1809 1817
1810 1811
1810 1812
1810 1813
1810 1814
1810 1815
1810 1816
1810 1817
1811 1812
1811 1813
1811 1814
1811 1815
1811 1816
1811 1817
1812 4275
1812 1813
1812 1814
1812 1815
1812 1816
1812 1817
1812 4940
1812 4941
1812 4942
1812 10430
1812 4943
1813 1814
1813 1815
1813 1816
1813 1817
1814 4275
1814 1815
1814 1816
1814 1817
1814 4940
1814 4941
1814 4942
1814 10430
1814 4943
1815 1816
1815 1817
1816 1817
1818 11738
1818 6520
1818 6521
1818 1819
1820 1821
1820 1822
1820 1823
1820 1824
1820 1825
1820 1826
1821 1822
1821 1823
1821 1824
1821 1825
1821 1826
1822 1823
1822 1824
1823 1824
1825 1826
1827 1828
1827 1829
1828 1829
1829 9538
1829 9540
1829 5944
1829 9539
1830 1831
1830 1832
1830 1833
1830 1834
1830 1835
1830 1836
1830 1837
1830 1838
1831 2461
1831 3143
1831 2466
1831 2467
1831 4803
1832 7023
1832 7024
1832 7025
1832 7026
1832 7027
1833 1834
1833 1835
1833 1836
1833 1837
1833 1838
1834 1835
1834 1836
1834 1837
1834 1838
1835 1836
1835 1837
1835 1838
1836 1837
1836 1838
1837 1838
1839 1840
1839 1841
1839 1842
1839 1843
1839 1844
1839 1845
1840 9213
1840 1841
1840 1842
1840 1843
1840 1844
1840 1845
1840 2663
1840 9214
1840 9215
1840 9216
1840 9217
1840 9218
1840 9219
1840 9220
1840 9221
1840 9222
1840 9223
1840 9224
1840 9225
1840 9226
1840 9227
1840 9228
1840 9229
1840 9230
1840 9231
1841 1842
1841 1843
1841 1844
1841 1845
1842 1843
1842 1844
1842 1845
1842 9215
1842 10628
1842 10629
1842 9216
1842 9217
1842 10630
1842 10631
1842 10632
1843 9213
1843 1844
1843 1845
1843 2663
1843 9214
1843 9215
1843 9216
1843 9217
1843 9218
1843 9219
1843 9220
1843 9221
1843 9222
1843 9223
1843 9224
1843 9225
1843 9226
1843 9227
1843 9228
1843 9229
1843 9230
1843 9231
1844 7081
1844 7156
1844 10761
1844 1845
1844 8483
1844 7087
1844 10762
1844 10763
1844 7158
1844 7094
1844 10764
1844 10765
1846 1847
1846 1848
1846 1849
1847 1873
1847 1874
1847 1875
1847 1876
1848 1849
1850 1851
1850 1852
1850 1853
1850 1854
1850 1855
1850 1856
1850 1857
1850 1858
1850 1859
1850 1860
1850 1861
1850 1862
1851 1852
1851 1853
1851 1854
1851 1855
1851 1856
1851 1857
1852 1853
1852 1854
1852 1855
1852 1856
1852 1857
1853 1854
1853 1855
1853 1856
1853 1857
1854 1855
1854 1856
1854 1857
1855 1856
1855 1857
1856 1857
1858 1859
1858 1860
1858 1861
1858 1862
1859 1860
1859 1861
1859 1862
1860 1861
1860 1862
1861 1862
1863 1864
1863 1865
1864 2826
1864 2827
1864 2828
1864 2829
1864 2830
1864 1865
1864 2831
1864 2832
1866 1867
1866 1868
1866 1869
1866 1870
1866 1871
1866 1872
1867 1868
1867 1869
1867 1870
1867 1871
1867 1872
1868 1869
1868 1870
1868 1871
1868 1872
1869 1870
1869 1871
1869 1872
1870 2808
1870 1871
1870 1872
1871 1872
1873 1874
1873 1876
1873 2683
1874 1875
1874 6236
1875 5788
1875 5789
1875 5790
1875 6236
1877 4326
1877 4327
1877 4328
1877 4329
1877 4330
1877 4331
1877 4332
1877 4333
1878 8909
1878 8910
1878 8911
1878 8912
1878 1879
1878 8949
1878 8913
1879 8909
1879 8911
1879 8913
1880 2873
1880 9495
1880 9496
1880 9497
1880 9498
1880 9499
1880 9500
1881 1882
1881 1883
1881 1884
1881 1885
1881 1886
1882 1883
1882 1884
1882 1885
1882 1886
1883 8637
1883 4137
1883 1884
1883 1885
1883 1886
1884 8637
1884 4137
1884 1885
1884 1886
1885 1886
1887 1888
1887 1889
1887 1890
1887 1891
1888 2315
1888 2319
1888 2320
1888 2322
1888 2328
1888 1889
1888 1890
1888 1891
1889 1890
1889 1891
1890 1891
1892 1893
1892 1894
1893 1991
1893 1894
1895 7317
1895 1896
1895 7318
1895 7319
1895 7320
1895 7321
1896 7318
1896 7319
1896 9703
1896 9704
1896 9705
1896 7320
1896 7321
1897 1898
1897 1899
1898 1899
1898 1900
1898 1901
1898 1902
1898 1903
1899 1904
1899 1905
1899 1900
1900 1904
1900 1905
1900 1985
1900 1986
1900 1987
1900 1988
1901 2424
1901 1902
1901 2425
1901 2426
1901 2427
1901 2428
1901 2429
1901 2430
1901 2431
1901 2432
1901 2433
1901 2434
1901 1903
1901 2435
1902 2426
1902 2428
1902 1903
1904 1905
1906 1907
1906 1908
1906 1909
1906 1910
1906 1911
1906 1912
1906 1913
1906 1914
1906 1915
1907 1963
1907 1964
1907 1908
1907 1975
1907 1966
1907 1967
1907 1910
1907 1968
1907 1969
1907 1970
1907 1971
1907 1972
1907 1973
1907 1974
1908 1909
1908 1910
1908 1911
1908 1912
1908 1913
1908 1914
1908 1915
1910 1914
1910 1915
1911 1912
1911 1913
1911 1915
1913 1915
1914 1915
1916 1917
1916 1918
1916 1919
1916 1920
1916 1921
1916 1922
1916 1923
1916 1924
1916 1925
1917 1926
1917 1927
1918 1921
1918 1922
1918 1923
1918 1924
1918 1925
1919 4365
1919 4366
1919 4367
1919 4368
1919 4369
1919 4370
1919 4371
1919 4372
1919 4373
1919 4374
1920 5301
1920 5302
1920 5303
1920 5306
1920 5307
1920 5304
1920 5305
1920 5308
1921 1922
1921 1923
1921 1924
1921 1925
1922 1923
1922 1924
1922 1925
1923 1924
1923 1925
1924 1925
1926 1927
1928 1929
1928 1930
1928 1931
1928 1932
1928 1933
1928 1934
1928 1935
1928 1936
1928 1937
1928 1938
1928 1939
1928 1940
1929 2008
1929 1934
1929 2009
1929 2010
1929 2011
1929 2012
1929 2013
1929 2014
1929 2015
1929 2016
1929 2017
1929 2018
1929 2019
1929 2020
1929 2021
1929 2022
1930 1931
1930 1932
1930 1934
1930 2009
1930 1935
1930 5401
1930 2012
1930 5402
1930 1940
1931 3716
1931 1933
1931 2009
1931 1935
1931 5401
1931 2012
1931 3717
1931 3718
1931 5402
1931 5559
1932 1933
1932 1934
1932 2009
1932 5401
1932 1936
1932 1937
1932 1938
1933 3716
1933 1934
1933 2009
1933 3717
1933 3718
1933 1936
1933 1937
1933 1938
1933 5559
1934 2009
1934 1935
1934 2012
1934 1936
1934 1937
1934 1938
1934 2016
1934 2017
1934 5402
1935 5888
1935 2009
1935 5889
1935 5401
1935 2012
1935 5714
1935 5402
1935 3413
1935 5891
1935 5893
1936 1937
1936 1938
1937 1938
1939 3411
1939 3412
1939 3413
1939 3414
1939 3415
1939 8541
1939 9602
1939 9603
1940 11798
1941 1942
1941 1943
1941 1944
1942 3071
1942 2767
1942 1943
1942 1944
1943 3071
1943 2767
1943 1944
1944 2766
1945 10915
1945 10916
1945 10917
1945 10918
1946 1947
1946 1948
1946 1949
1946 1950
1946 1951
1946 1952
1946 1953
1946 1954
1946 1955
1946 1956
1946 1957
1946 1958
1946 1959
1946 1960
1946 1961
1946 1962
1947 1948
1947 1949
1947 1950
1947 1951
1947 1952
1947 1953
1947 1954
1947 1955
1947 1956
1947 1957
1947 1958
1947 1959
1947 1960
1947 1961
1947 1962
1948 1949
1948 1950
1948 1951
1948 1952
1948 1953
1948 1954
1948 1955
1948 1956
1948 1957
1948 1958
1948 1959
1948 1960
1948 1961
1948 1962
1949 1950
1949 1951
1949 1952
1949 1953
1949 1954
1949 1955
1949 1956
1949 1957
1949 1958
1949 1959
1949 1960
1949 1961
1949 1962
1950 1951
1950 1952
1950 1953
1950 1954
1950 1955
1950 1956
1950 1957
1950 1958
1950 1959
1950 1960
1950 1961
1950 1962
1951 1952
1951 1953
1951 1954
1951 1955
1951 1956
1951 1957
1951 1958
1951 1959
1951 1960
1951 1961
1951 1962
1952 1953
1952 1954
1952 1955
1952 1956
1952 1957
1952 1958
1952 1959
1952 1960
1952 1961
1952 1962
1953 1954
1953 1955
1953 1956
1953 1957
1953 1958
1953 1959
1953 1960
1953 1961
1953 1962
1954 1955
1954 1956
1954 1957
1954 1958
1954 1959
1954 1960
1954 1961
1954 1962
1955 1956
1955 1957
1955 1958
1955 1959
1955 1960
1955 1961
1955 1962
1956 1957
1956 1958
1956 1959
1956 1960
1956 1961
1956 1962
1957 1958
1957 1959
1957 1960
1957 1961
1957 1962
1958 1959
1958 1960
1958 1961
1958 1962
1959 1960
1959 1961
1959 1962
1960 1961
1960 1962
1961 1962
1963 1964
1963 1965
1963 1966
1963 1967
1963 1968
1963 1969
1963 1970
1963 1971
1963 1972
1963 1973
1963 1974
1964 1966
1964 1967
1964 1968
1964 1969
1964 1970
1964 1971
1964 1972
1964 1973
1964 1974
1965 2561
1965 2563
1965 2564
1965 2565
1965 2566
1965 2567
1966 1967
1966 1968
1966 1969
1966 1970
1966 1971
1966 1972
1966 1973
1966 1974
1967 1968
1967 1969
1967 1970
1967 1971
1967 1972
1967 1973
1967 1974
1968 1969
1968 1970
1968 1971
1968 1972
1968 1973
1968 1974
1968 3094
1969 1970
1969 1971
1969 1972
1969 1973
1969 1974
1969 3094
1970 7384
1970 7385
1970 7386
1970 7387
1970 7388
1970 7389
1970 1971
1970 1972
1970 1973
1970 1974
1970 7390
1970 7391
1970 7392
1971 1972
1971 1973
1971 1974
1972 1973
1972 1974
1973 4165
1973 2553
1973 4170
1973 4171
1973 4172
1973 1974
1975 4152
1975 4158
1975 7128
1975 7129
1975 7130
1975 7131
1975 7132
1975 7133
1975 7134
1975 7135
1975 7136
1976 1977
1976 1978
1976 1979
1976 1980
1976 1981
1976 1982
1976 1983
1976 1984
1977 8953
1977 8954
1977 8955
1977 8956
1977 8957
1977 1978
1978 1979
1978 1982
1978 1983
1978 1984
1979 1980
1979 1981
1980 1981
1982 1983
1982 1984
1983 1984
1985 2245
1985 1986
1985 2246
1985 2250
1985 2247
1985 2248
1985 2249
1985 2251
1985 1987
1986 2245
1986 2246
1986 2250
1986 2248
1986 2249
1986 2251
1986 2363
1986 2364
1986 1987
1987 1988
1989 1990
1989 1991
1989 1992
1989 1993
1989 1994
1989 1995
1990 1991
1990 1992
1990 1993
1990 1994
1990 1995
1991 1992
1991 1993
1991 1994
1991 1995
1992 1993
1992 1994
1992 1995
1993 1994
1993 1995
1994 1995
1996 1997
1996 1998
1996 1999
1996 2000
1996 2001
1997 1998
1997 2000
1997 2001
1998 2585
1998 2001
1999 2000
2000 2001
2002 2003
2002 2004
2002 2005
2002 2006
2002 2007
2003 7405
2003 7406
2003 2004
2003 2005
2003 2006
2003 2007
2004 2005
2004 2006
2004 2007
2005 2006
2005 2007
2006 2007
2008 3804
2008 2013
2008 3805
2008 3806
2009 5401
2009 2012
2009 2015
2009 2016
2009 2017
2009 2018
2009 5402
2009 2019
2010 6645
2010 2015
2010 6646
2010 2020
2010 2021
2011 2168
2011 2169
2011 2170
2011 2171
2011 2172
2011 3279
2011 2174
2011 2175
2011 2176
2012 5401
2012 2016
2012 2017
2012 5402
2012 2020
2013 3804
2013 3806
2014 2022
2015 6645
2015 6646
2015 2018
2015 2019
2015 2020
2015 7843
2015 2021
2016 2017
2018 2019
2020 2021
2021 6645
2021 6646
2023 3156
2023 3157
2023 3158
2023 3159
2023 3160
2023 3161
2023 3162
2023 3163
2023 3164
2024 5237
2024 5238
2024 5239
2024 5240
2024 5243
2024 5244
2024 5246
2025 2026
2025 9140
2025 3166
2025 3167
2025 3168
2025 9141
2025 3169
2025 9142
2026 4202
2026 4206
2026 2027
2026 4207
2026 4208
2027 4202
2027 4209
2027 4206
2027 4207
2027 4211
2027 4208
2027 5831
2028 2597
2028 2598
2028 2599
2028 2600
2029 4130
2029 4131
2029 4132
2030 2031
2030 2036
2030 2041
2030 7127
2031 4225
2031 2036
2031 2041
2031 7127
2032 2033
2032 2035
2032 2036
2032 2037
2032 4845
2032 2040
2032 4847
2033 2035
2033 2036
2033 2037
2033 2038
2034 2991
2034 2992
2034 2993
2034 2035
2034 2994
2034 2995
2035 4343
2035 8045
2036 3259
2036 3260
2036 3261
2036 2037
2036 3262
2036 3263
2036 3266
2036 3267
2036 2041
2036 2043
2037 2039
2037 4845
2037 8041
2037 4846
2037 4847
2040 2041
2040 2042
2040 2044
2040 2045
2041 2042
2041 7127
2041 8043
2041 2044
2041 2045
2042 2044
2042 2045
2043 8044
2044 2045
2047 2048
2047 2049
2047 2050
2047 2051
2047 2052
2047 2053
2047 2054
2048 2049
2048 2050
2048 2051
2048 2052
2048 2053
2048 2054
2049 3773
2049 2050
2049 2051
2049 2052
2049 2053
2049 2054
2050 2051
2050 2052
2050 2053
2050 2054
2051 2052
2051 2053
2051 2054
2052 2053
2052 2054
2053 2054
2055 2056
2055 2057
2055 2058
2055 2059
2055 2060
2055 2061
2055 2062
2055 2063
2055 2064
2055 2065
2055 2066
2055 2067
2055 2068
2055 2069
2055 2070
2056 2057
2056 2058
2056 2060
2056 2067
2056 2068
2056 2069
2056 2070
2057 2058
2057 2060
2057 2067
2057 2068
2057 2069
2057 2070
2058 2060
2058 2067
2058 2068
2058 2069
2058 2070
2059 2061
2059 2062
2059 2063
2059 2064
2059 2065
2059 2066
2060 2067
2060 2068
2060 2069
2060 2070
2061 2062
2061 2063
2061 2064
2061 2065
2061 2066
2062 2063
2062 2064
2062 2065
2062 2066
2063 2064
2063 2065
2063 2066
2064 2065
2064 2066
2065 2066
2067 2068
2067 2069
2067 2070
2068 2069
2068 2070
2069 2070
2071 2760
2071 2761
2071 2762
2071 2763
2071 2764
2072 2074
2072 2075
2072 2076
2072 2077
2073 4058
2073 5725
2073 5766
2073 5767
2073 5768
2073 5769
2074 2075
2074 2076
2074 2077
2075 2076
2075 2077
2076 2077
2077 6142
2078 2079
2080 2081
2080 2082
2080 2083
2080 2084
2080 2085
2080 2086
2080 2087
2080 2088
2080 2089
2080 2090
2080 2091
2080 2092
2080 2093
2080 2094
2080 2095
2081 2085
2081 2086
2082 2084
2082 2087
2082 2088
2082 2094
2082 2095
2083 2084
2083 2086
2083 2087
2083 2088
2083 2093
2084 2086
2084 2087
2084 2088
2084 2090
2084 2093
2084 2094
2085 2086
2085 2089
2085 2090
2085 2091
2085 2092
2085 2093
2086 2087
2086 2088
2086 2089
2086 2090
2086 2091
2086 2092
2086 2093
2087 2088
2087 2090
2087 2093
2087 2094
2088 2090
2088 2093
2088 2094
2089 2090
2089 2091
2089 2092
2089 2093
2090 2091
2090 2092
2090 2093
2091 2092
2091 2093
2092 2093
2094 2095
2096 2097
2096 2098
2096 2099
2096 2100
2096 2101
2096 2102
2096 2103
2096 2104
2096 2105
2097 2098
2097 2099
2097 5781
2097 5782
2097 2100
2097 2101
2097 2102
2097 2103
2097 2104
2097 5783
2097 2105
2097 5784
2098 2203
2098 2099
2098 2100
2098 2101
2098 2102
2098 2103
2098 2104
2098 2105
2099 2100
2099 2101
2099 2102
2099 2103
2099 2104
2099 2105
2100 2101
2100 2102
2100 2103
2100 2104
2100 2105
2101 2102
2101 2103
2101 2104
2101 2105
2102 2103
2102 2104
2102 2105
2103 2104
2103 2105
2104 2105
2106 2107
2106 2108
2106 2109
2106 2110
2106 2111
2106 2112
2107 9089
2107 9090
2108 2109
2108 2110
2108 2111
2108 2112
2109 2110
2109 2111
2109 2112
2110 2111
2110 2112
2111 2112
2113 2114
2113 2115
2113 2116
2113 2117
2113 2118
2113 2119
2113 2120
2113 2121
2113 2122
2113 2123
2113 2124
2114 2652
2114 5939
2114 9182
2114 9183
2114 9184
2115 9508
2115 9509
2115 9510
2115 9511
2115 9512
2116 2117
2116 2118
2116 2119
2116 2120
2116 2121
2116 2122
2116 2123
2116 2124
2117 2118
2117 2119
2117 2120
2117 2121
2117 2122
2117 2123
2117 2124
2118 2120
2118 2121
2118 2122
2118 2123
2118 2124
2119 2120
2120 2121
2120 2122
2120 2123
2120 2124
2121 2122
2121 2123
2121 2124
2122 2123
2122 2124
2123 2124
2125 2126
2125 2127
2125 2128
2125 2129
2125 2130
2125 2131
2125 2132
2125 2133
2126 2127
2126 2128
2126 2129
2126 2130
2126 2131
2126 2132
2126 2133
2127 2128
2127 2129
2127 2130
2127 2131
2127 2132
2127 2133
2128 2129
2128 2130
2128 2131
2128 2132
2128 2133
2129 2130
2129 2131
2129 2132
2129 2133
2130 2131
2130 2132
2130 2133
2131 2132
2131 2133
2132 2133
2134 2135
2134 2136
2134 2137
2134 2138
2134 2139
2135 4023
2135 4024
2135 4025
2135 4026
2135 4027
2136 2137
2136 2138
2136 2139
2137 2138
2137 11880
2137 2139
2137 11881
2137 11612
2137 11882
2138 10934
2138 11880
2138 2139
2138 11881
2138 11611
2138 11612
2138 11882
2139 10934
2139 11880
2139 11881
2139 11611
2139 11612
2139 11882
2140 2142
2140 2144
2140 2145
2140 2146
2141 2146
2141 2147
2142 2144
2142 2145
2142 2146
2143 2146
2144 2145
2144 2146
2145 2146
2146 11857
2146 11858
2146 11859
2146 2147
2148 2149
2148 2150
2148 2151
2148 2152
2148 2153
2148 2154
2149 2927
2149 2928
2149 2929
2149 2930
2149 2931
2149 2932
2149 10543
2149 10544
2149 10545
2149 10546
2149 10547
2150 4995
2150 2151
2150 2152
2150 2153
2150 2154
2151 2152
2151 2153
2151 2154
2152 2153
2152 2154
2153 2154
2155 2156
2155 2157
2155 2158
2155 2159
2156 2157
2156 2158
2156 2159
2157 2158
2157 2159
2158 2159
2160 2161
2160 2162
2160 2163
2160 2164
2160 2165
2160 2166
2160 2167
2161 2162
2161 2163
2161 2165
2161 2166
2161 2167
2162 2163
2162 2165
2162 2166
2162 2167
2163 2165
2163 2166
2163 2167
2164 4889
2164 4890
2164 4891
2164 4892
2164 4893
2164 4894
2164 4895
2164 4896
2166 2167
2168 2169
2168 2170
2168 2171
2168 2172
2168 2173
2168 2174
2168 2175
2168 2176
2168 2177
2168 2178
2168 2179
2168 2180
2168 2181
2168 2182
2168 2183
2168 2184
2168 2185
2168 2186
2168 2187
2168 2188
2168 2189
2169 2170
2169 2171
2169 2172
2169 2173
2169 2174
2169 2175
2169 2176
2169 2541
2169 2177
2169 2178
2169 2179
2169 2180
2169 2181
2169 2182
2169 2183
2169 2184
2169 2185
2169 2186
2169 2187
2169 2188
2169 2189
2170 2441
2170 2171
2170 3959
2170 2172
2170 2173
2170 2174
2170 2175
2170 2176
2171 2172
2171 2174
2171 2175
2171 2176
2172 6149
2172 2174
2172 2175
2172 2176
2173 2541
2173 2177
2173 2178
2173 2179
2173 2180
2173 2181
2173 2182
2173 2183
2173 2184
2173 2185
2173 2186
2173 2187
2173 2188
2173 2189
2174 2175
2174 2176
2175 2176
2177 4118
2177 4692
2177 2178
2177 2179
2177 2180
2177 2181
2177 2182
2177 2183
2177 2184
2177 2185
2177 2186
2177 2187
2177 2188
2177 2189
2178 2541
2178 2179
2178 2180
2178 2181
2178 2182
2178 2183
2178 2184
2178 2185
2178 2186
2178 2187
2178 2188
2178 2189
2179 2541
2179 2180
2179 2181
2179 2182
2179 2183
2179 2184
2179 2185
2179 2186
2179 2187
2179 2188
2179 2189
2180 2181
2180 2182
2180 2183
2180 2184
2180 2185
2180 2186
2180 2187
2180 2188
2180 2189
2181 2182
2181 2183
2181 2184
2181 2185
2181 2186
2181 2187
2181 2188
2181 2189
2182 2183
2182 2184
2182 2185
2182 2186
2182 2187
2182 2188
2182 2189
2183 2184
2183 2185
2183 2186
2183 2187
2183 2188
2183 2189
2184 2185
2184 2186
2184 2187
2184 2188
2184 2189
2185 2186
2185 2187
2185 2188
2185 2189
2186 2187
2186 2188
2186 2189
2187 2188
2187 2189
2188 2189
2190 2191
2190 2192
2190 2193
2191 2192
2191 2193
2192 2193
2193 2194
2193 2195
2193 2196
2194 2195
2194 2196
2195 2711
2195 2712
2195 4609
2195 2196
2197 2198
2197 2199
2197 2200
2198 2199
2198 2200
2199 2200
2201 3384
2201 3385
2201 3386
2201 3387
2201 3388
2203 2204
2203 2205
2203 2206
2203 2207
2203 2208
2203 2209
2203 2210
2203 2211
2203 2212
2203 2213
2204 2205
2204 2210
2204 2211
2204 2212
2204 2213
2205 2210
2205 2211
2205 2212
2205 2213
2206 11205
2206 2207
2206 2208
2206 2209
2207 11205
2207 2208
2207 2209
2208 11205
2208 2209
2210 2211
2210 2212
2210 2213
2211 2212
2211 2213
2212 2213
2214 2215
2214 2216
2214 2217
2214 2218
2214 2219
2214 2220
2214 2221
2214 2222
2214 2223
2214 2224
2214 2225
2214 2226
2214 2227
2214 2228
2215 2216
2215 2218
2215 2226
2215 2227
2215 2228
2216 2218
2216 2226
2216 2227
2216 2228
2217 2219
2217 2220
2217 2221
2217 2222
2217 2223
2217 2224
2217 2225
2218 2226
2218 2227
2218 2228
2219 2354
2219 2355
2219 2220
2219 2221
2219 2222
2219 2223
2219 2224
2219 2225
2220 2221
2220 2222
2220 2223
2220 2224
2220 2225
2221 2222
2221 2223
2221 2224
2221 2225
2222 2223
2222 2224
2222 2225
2222 6078
2223 2224
2223 2225
2224 2225
2226 2227
2226 2228
2227 2228
2229 2230
2231 2232
2231 2233
2231 2234
2231 2235
2231 2236
2231 2237
2232 2238
2232 2239
2232 2240
2232 2241
2232 2242
2232 2243
2232 2244
2233 5374
2233 2237
2233 5375
2233 5377
2234 2235
2234 2236
2235 2236
2238 2239
2238 2240
2238 2241
2238 2242
2238 7617
2238 2243
2238 2244
2238 8111
2239 2240
2239 2241
2239 2242
2239 2243
2239 2244
2239 8112
2239 8113
2239 8114
2240 2241
2240 2242
2240 2243
2240 2244
2241 2242
2241 2243
2241 2244
2242 2243
2242 2244
2243 3911
2243 3912
2243 2244
2245 2246
2245 2247
2245 2248
2245 2249
2246 2250
2246 2247
2246 2248
2246 2249
2246 2251
2246 2365
2246 2366
2247 2248
2247 2249
2248 2249
2250 2251
2252 2253
2252 2254
2252 2255
2252 2256
2253 2573
2253 2254
2253 7665
2253 7666
2253 7667
2253 2580
2253 2255
2253 2256
2253 7668
2254 2255
2254 2256
2255 2256
2256 2573
2256 2580
2257 2258
2257 2259
2257 2260
2257 2261
2257 2262
2258 2259
2258 2260
2258 2261
2258 2262
2259 6986
2259 2260
2259 2261
2259 2262
2260 2261
2260 2262
2261 2262
2263 2264
2263 2265
2263 2266
2264 2265
2264 2266
2265 2266
2267 2268
2267 2269
2267 2270
2267 2271
2267 2272
2267 2273
2267 2274
2268 2269
2268 2270
2268 2271
2268 2272
2268 2273
2268 2274
2269 2270
2269 2271
2269 2272
2269 2273
2269 2274
2270 2271
2270 2272
2270 2273
2270 2274
2271 2272
2271 2273
2271 2274
2271 2275
2272 2273
2272 2274
2273 2274
2274 2503
2275 2504
2275 2505
2275 2506
2275 2507
2275 2508
2275 2509
2275 2510
2275 2511
2276 2277
2276 2278
2276 2279
2276 2280
2276 2281
2276 2282
2276 2283
2276 2284
2276 2285
2276 2286
2276 2287
2276 2288
2276 2289
2276 2290
2276 2291
2276 2292
2276 2293
2276 2294
2276 2295
2276 2296
2276 2297
2276 2298
2276 2299
2276 2300
2276 2301
2276 2302
2276 2303
2276 2304
2276 2305
2276 2306
2277 2278
2277 2279
2277 2281
2277 2282
2277 2284
2277 2287
2277 2289
2277 2290
2277 2295
2278 2279
2278 2280
2278 2281
2278 2282
2278 2283
2278 2284
2278 2287
2278 2289
2278 2290
2278 2295
2279 2281
2279 2282
2279 2284
2279 2285
2279 2286
2279 2287
2279 2288
2279 2289
2279 2290
2279 2291
2279 2292
2279 2293
2279 2294
2279 2295
2279 2296
2279 2297
2280 5869
2280 7385
2280 2282
2280 2283
2280 6239
2280 6437
2280 7548
2280 5112
2280 7549
2280 7550
2280 3951
2280 3953
2280 3955
2280 6440
2280 7551
2280 7552
2280 7553
2280 7554
2280 7555
2280 3957
2281 2282
2281 2284
2281 2285
2281 2286
2281 2287
2281 2288
2281 2289
2281 2290
2281 2291
2281 2292
2281 2293
2281 2294
2281 2295
2281 2296
2281 2297
2282 2283
2282 2284
2282 2287
2282 2289
2282 2290
2282 2295
2283 8504
2284 2287
2284 2289
2284 2290
2284 2295
2285 2286
2285 2287
2285 2288
2285 2289
2285 2290
2285 2292
2285 2293
2285 2294
2285 2296
2285 2297
2286 2287
2286 2288
2286 2289
2286 2290
2286 2291
2286 2292
2286 2293
2286 2294
2286 2296
2286 2297
2287 2289
2287 2290
2287 2291
2287 2292
2287 2293
2287 2295
2288 2289
2288 2290
2288 2294
2288 2296
2288 2297
2289 2290
2289 2291
2289 2292
2289 2293
2289 2294
2289 2295
2289 2296
2289 2297
2290 2291
2290 2292
2290 2293
2290 2294
2290 2295
2290 2296
2290 2297
2292 11198
2292 11199
2292 2293
2292 11200
2292 11201
2292 11202
2293 11198
2293 11199
2293 11200
2293 11201
2293 11202
2294 2296
2294 2297
2296 2297
2298 2299
2298 2300
2298 2301
2298 2302
2298 11440
2298 11441
2298 11442
2298 11443
2298 11444
2298 11445
2298 2303
2298 2304
2298 2305
2298 2306
2298 11446
2299 2300
2299 2303
2299 2304
2299 2305
2300 2301
2300 2302
2300 2303
2300 2304
2300 2305
2300 2306
2301 2302
2301 11440
2301 11441
2301 11442
2301 11443
2301 11444
2301 11445
2301 2303
2301 2304
2301 2305
2301 2306
2301 11446
2302 11440
2302 11441
2302 11442
2302 11443
2302 11444
2302 11445
2302 2303
2302 2304
2302 2305
2302 2306
2303 2304
2303 2305
2303 2306
2304 2305
2304 2306
2305 11440
2305 11441
2305 11442
2305 11443
2305 11444
2305 11445
2305 2306
2305 11446
2307 6248
2307 8081
2307 8082
2307 8083
2307 8084
2307 8085
2307 8086
2308 2309
2308 2310
2308 2311
2308 2312
2308 2313
2308 2314
2308 2490
2309 2310
2309 2311
2309 2312
2309 2313
2309 2314
2310 2648
2310 2311
2310 2312
2310 2313
2310 2314
2311 2312
2311 2313
2311 2314
2312 2313
2312 2314
2313 2314
2315 2316
2315 2317
2315 2318
2315 2319
2315 2320
2315 2321
2315 2322
2315 2323
2315 2324
2315 2325
2315 2326
2315 2327
2315 2328
2315 2329
2315 2330
2316 2318
2317 9971
2317 9972
2317 9973
2317 2320
2317 2323
2317 2324
2317 2325
2317 2326
2317 2327
2318 2321
2318 2329
2319 2638
2319 2639
2319 2641
2319 2642
2319 2644
2319 2320
2319 2321
2319 2645
2319 2646
2320 2321
2320 2323
2320 2324
2320 2325
2320 2326
2320 2327
2321 2329
2322 2328
2323 2324
2323 2325
2323 2326
2323 2327
2324 2325
2324 2326
2324 2327
2325 2326
2325 2327
2326 2327
2329 2330
2331 2332
2331 2333
2331 2334
2331 2335
2331 2336
2331 2337
2331 2338
2331 2339
2331 2340
2331 2341
2333 2777
2333 2778
2333 2780
2333 2781
2333 2782
2333 2783
2334 2335
2334 2336
2334 2337
2334 2338
2334 2339
2334 2340
2334 2341
2335 2336
2335 2337
2335 2338
2335 2339
2335 2340
2335 2341
2336 2337
2336 2338
2336 2339
2336 2340
2336 2341
2337 2338
2337 2339
2337 2340
2337 2341
2338 2339
2338 2340
2338 2341
2339 2340
2339 2341
2340 2341
2342 2343
2342 2344
2342 2345
2342 2346
2342 2347
2342 2348
2342 2349
2342 2350
2342 2351
2342 2352
2342 2353
2343 3727
2343 3728
2343 3729
2343 3730
2343 3731
2343 3732
2343 3733
2344 8063
2344 2347
2344 2348
2344 8064
2344 8065
2344 8066
2345 3399
2345 4622
2345 4623
2345 4624
2345 4625
2345 4626
2345 3401
2345 3402
2345 3403
2345 3404
2345 3405
2346 2351
2346 2352
2346 2353
2347 2348
2347 2349
2347 2350
2347 2351
2348 8063
2348 2350
2348 8065
2348 8066
2348 2351
2349 2350
2351 2352
2351 2353
2352 2353
2354 2355
2354 2356
2354 2357
2354 2358
2354 2359
2354 2360
2354 2361
2354 2362
2355 2512
2355 2513
2355 2514
2356 2357
2356 2358
2356 2359
2356 2360
2356 2361
2356 2362
2357 2358
2357 2359
2357 2360
2357 2361
2357 2362
2358 2359
2358 2360
2358 2361
2358 2362
2359 2360
2359 2361
2359 2362
2360 2361
2360 2362
2361 2362
2363 2364
2364 2863
2366 2807
2366 2808
2366 2810
2367 2368
2367 2369
2367 2370
2367 2371
2368 7041
2368 7042
2368 7043
2368 7045
2368 7046
2368 2369
2368 2370
2369 2370
2369 2371
2370 2371
2372 2436
2372 2373
2372 2374
2372 2437
2372 2439
2373 2374
2375 2376
2375 2377
2376 2377
2378 2379
2378 2380
2378 2381
2378 2382
2378 2383
2379 2380
2380 4354
2380 7126
2381 2382
2381 2383
2382 2383
2384 2385
2384 2386
2384 2387
2384 2388
2384 2389
2384 2390
2384 2391
2384 2392
2384 2393
2385 2386
2385 2387
2385 2388
2385 2389
2385 2390
2385 2391
2385 2392
2385 2393
2386 2387
2386 2388
2386 2389
2386 2390
2386 2391
2386 2392
2386 2393
2387 2388
2387 2389
2387 2390
2387 2391
2387 2392
2387 2393
2388 2389
2388 2390
2388 2391
2388 2392
2388 2393
2389 2390
2389 2391
2389 2392
2389 2393
2390 2391
2390 2392
2390 2393
2391 2392
2391 2393
2392 2393
2394 2395
2394 2396
2394 2397
2394 2398
2394 2399
2394 2400
2394 2401
2394 2402
2394 2403
2395 2396
2395 2397
2395 2398
2395 4431
2395 2553
2395 4168
2395 4432
2395 4433
2395 4434
2395 4435
2395 4436
2395 4437
2395 3384
2395 2399
2395 2400
2395 4438
2395 4439
2395 4440
2395 4441
2395 4442
2395 4443
2395 4444
2395 4445
2395 4446
2395 4447
2395 4448
2395 4449
2395 4450
2395 2401
2395 2402
2395 2403
2396 2398
2396 4492
2396 4436
2396 4437
2396 4438
2396 4440
2396 4443
2396 4444
2396 4445
2396 4446
2396 4447
2397 2399
2397 2400
2397 2401
2397 2402
2397 2403
2398 4492
2398 4627
2398 4436
2398 4437
2398 2400
2398 4438
2398 4440
2398 4443
2398 4444
2398 4445
2398 4446
2398 4447
2398 4448
2399 2400
2399 2401
2399 2402
2399 2403
2400 4434
2400 4436
2400 4444
2400 4448
2400 2401
2400 2402
2400 2403
2401 2402
2401 2403
2402 2403
2404 2405
2404 2406
2404 2407
2404 2408
2404 2409
2404 2410
2404 2411
2405 2406
2405 2409
2405 2410
2406 2407
2406 2408
2406 2409
2406 2410
2406 2411
2407 4380
2407 2408
2407 2410
2407 2411
2408 2410
2408 2411
2410 2411
2412 2413
2412 2414
2412 2415
2412 2416
2412 2417
2413 2414
2413 2415
2413 2416
2413 2417
2414 2415
2414 2416
2414 2417
2415 2416
2415 2417
2416 2417
2418 2419
2418 2420
2418 2421
2418 2422
2418 2423
2419 2420
2419 2421
2419 2422
2419 2423
2420 2421
2420 2422
2420 7542
2420 2423
2421 2422
2421 2423
2422 2423
2424 2425
2426 2635
2427 2636
2427 2429
2427 2430
2427 2431
2427 2432
2427 2433
2427 2434
2429 2430
2429 2431
2429 2432
2430 2431
2430 2432
2431 2432
2433 2434
2435 4047
2436 2437
2436 2438
2436 2439
2436 2440
2437 2439
2438 2439
2438 2440
2439 2440
2441 2442
2441 2443
2441 2444
2441 2445
2441 2446
2441 2447
2442 2444
2442 2445
2442 2446
2442 8341
2443 6551
2443 2444
2443 9642
2443 9643
2443 9644
2443 9645
2443 9646
2443 9647
2444 6551
2444 9642
2444 2447
2444 9643
2444 9644
2445 2446
2446 8341
2448 2449
2448 2450
2448 2451
2448 2452
2448 2453
2448 2454
2448 2455
2448 2456
2448 2457
2448 2458
2448 2459
2448 2460
2449 2453
2449 2454
2449 2455
2449 2456
2449 2457
2449 2458
2449 2459
2449 2460
2450 2727
2450 2728
2450 2729
2450 2730
2450 2731
2450 2732
2450 2733
2451 2452
2451 4069
2451 4070
2451 4071
2451 4072
2451 4073
2451 4074
2451 4075
2451 4076
2452 6719
2452 6720
2452 6721
2452 6722
2452 6723
2452 6724
2452 6725
2452 6726
2453 2454
2453 2455
2453 2456
2453 2457
2453 2458
2453 2459
2453 2460
2454 2455
2455 2456
2455 2457
2455 2458
2455 2459
2455 2460
2456 10084
2456 10085
2456 10086
2456 10087
2456 10088
2456 10089
2456 2459
2456 2460
2457 2458
2459 2460
2461 2462
2461 2463
2461 2464
2461 2465
2461 2466
2461 2467
2461 2468
2462 7363
2462 2468
2462 7364
2463 7621
2463 7622
2464 2466
2465 5343
2465 5344
2465 5345
2465 5346
2465 5347
2466 2467
2468 7363
2468 7364
2469 2470
2469 2471
2469 2472
2469 2473
2469 2474
2469 2475
2470 10766
2470 10767
2470 10768
2470 10769
2470 10770
2471 2472
2471 2473
2471 2474
2471 2475
2472 2473
2472 2474
2472 2475
2473 2474
2473 2475
2474 2475
2476 2478
2476 2487
2476 2488
2477 2996
2477 2997
2477 2998
2477 2999
2477 3000
2477 3001
2478 2481
2478 2485
2478 2486
2478 2487
2478 2488
2479 2480
2479 2481
2479 2482
2479 2483
2480 2481
2480 2482
2480 2483
2481 2482
2481 2483
2481 2485
2481 2486
2482 2483
2484 5194
2484 5195
2484 5196
2484 5197
2484 5198
2484 5199
2484 5200
2485 2486
2487 2488
2489 5433
2489 5434
2489 5435
2489 5436
2489 5437
2489 5438
2489 5439
2490 7393
2490 6200
2490 7395
2491 2492
2491 2493
2491 2494
2491 2495
2492 6783
2492 6784
2492 6785
2492 6786
2492 6787
2492 6788
2493 2849
2493 8789
2493 2494
2493 8754
2493 8811
2493 8812
2493 2495
2493 8792
2493 8813
2493 8793
2493 8814
2493 8815
2493 8794
2493 8795
2493 8816
2493 8817
2493 8796
2493 8818
2494 6297
2494 8811
2494 8812
2494 2495
2494 5577
2494 8813
2494 8814
2494 8815
2494 8816
2494 8817
2495 6297
2495 8754
2495 8811
2495 8812
2495 8813
2495 8814
2495 8815
2495 8816
2495 8817
2496 5115
2496 5116
2496 5117
2496 5118
2496 5119
2496 5120
2496 5121
2496 5122
2496 5123
2496 5124
2496 5125
2496 5126
2496 5127
2497 2498
2497 2499
2497 2500
2497 2501
2497 2502
2498 2499
2498 2500
2498 2501
2498 2502
2499 2500
2499 2501
2499 2502
2500 2501
2500 2502
2501 2502
2503 3429
2503 3430
2503 3432
2503 3433
2503 3436
2503 3437
2503 3438
2503 5017
2504 2505
2504 2506
2504 2507
2504 2508
2504 2509
2504 2510
2504 2511
2505 2506
2505 2507
2505 2508
2505 2509
2505 2510
2505 2511
2506 2507
2506 2508
2506 2509
2506 2510
2506 2511
2507 2508
2507 2509
2507 2510
2507 2511
2508 8324
2508 2509
2508 2510
2508 2511
2509 2510
2509 2511
2510 2511
2512 6442
2512 7432
2512 6443
2512 6445
2512 5995
2512 6446
2512 5714
2512 9254
2512 6447
2512 7433
2512 2513
2512 7434
2512 6448
2512 8644
2512 9258
2512 6450
2512 6945
2512 6946
2512 6947
2512 6452
2512 6453
2512 6454
2512 6455
2512 10300
2512 8647
2512 10301
2512 6456
2512 6457
2512 7435
2512 8648
2512 10302
2512 2514
2513 6442
2513 6443
2513 6445
2513 6446
2513 5714
2513 9254
2513 6447
2513 6448
2513 8644
2513 9258
2513 6450
2513 6945
2513 6946
2513 6452
2513 6453
2513 6454
2513 6455
2513 10300
2513 8647
2513 10301
2513 6456
2513 6457
2513 8648
2513 8650
2513 10302
2513 2514
2514 10300
2514 10302
2515 2516
2515 2517
2515 2518
2515 2519
2516 2517
2516 2518
2516 2519
2517 2518
2517 2519
2518 2519
2519 6988
2520 2521
2520 2522
2520 2523
2520 2524
2520 2525
2523 2524
2523 2525
2524 2525
2526 3943
2526 3944
2526 3945
2526 3946
2526 3947
2526 3948
2526 3949
2526 3950
2526 3951
2526 3952
2526 3953
2526 3954
2526 3955
2526 3956
2526 3957
2526 3958
2527 2528
2527 2529
2527 2530
2527 2531
2527 2532
2527 2533
2528 2529
2528 2530
2528 2531
2528 2532
2528 2533
2529 2530
2529 2531
2529 2532
2529 2533
2530 2531
2530 2532
2530 2533
2531 2532
2531 2533
2532 2533
2534 2535
2534 2536
2534 2537
2534 2538
2535 2703
2535 2536
2535 2704
2535 2705
2535 2537
2535 2538
2535 2706
2535 2707
2535 2708
2535 2709
2535 2710
2536 2704
2536 2537
2536 4823
2536 2707
2536 4824
2536 4825
2537 2705
2537 2708
2537 2709
2537 2710
2539 2585
2539 2586
2540 2543
2540 2544
2540 2551
2541 7369
2541 9767
2541 10818
2541 10819
2542 7282
2542 7283
2542 5761
2542 5762
2542 7284
2542 7285
2542 7286
2542 7287
2542 7288
2543 2544
2543 2551
2544 2551
2545 2546
2545 2547
2545 2548
2545 2549
2545 2550
2545 2552
2546 2547
2546 2548
2546 2549
2546 2550
2546 2552
2547 2548
2547 2549
2547 2550
2547 2552
2548 2549
2548 2550
2548 2552
2549 2550
2549 2552
2550 2552
2553 4165
2553 4166
2553 4167
2553 5168
2553 4168
2553 4432
2553 4436
2553 4170
2553 2554
2553 4171
2553 4439
2553 4172
2553 4173
2553 4441
2553 4442
2553 4174
2554 9490
2554 2555
2554 2556
2554 2557
2554 2558
2554 2559
2555 2556
2555 2557
2555 2558
2555 2559
2556 2557
2556 2558
2556 2559
2557 2558
2557 2559
2558 2559
2560 8462
2560 11630
2560 11631
2561 7665
2561 7666
2561 2563
2561 2564
2561 2565
2561 2566
2561 2567
2562 4168
2562 6745
2562 4441
2562 6747
2562 5019
2562 6748
2562 6749
2562 6750
2562 6751
2563 2564
2563 2565
2563 2566
2563 2567
2564 2565
2564 2566
2564 2567
2565 2566
2565 2567
2566 2567
2568 2569
2568 2570
2568 2571
2568 2572
2569 8201
2569 11657
2569 11658
2569 11659
2569 11660
2569 11661
2569 11662
2569 2570
2569 8202
2569 8203
2569 8204
2569 11025
2569 2571
2569 2572
2570 2571
2570 2572
2571 2572
2573 2574
2573 2575
2573 2576
2573 2577
2573 2578
2573 2579
2573 2580
2574 2581
2574 2582
2574 2583
2574 2584
2575 2576
2575 2577
2575 2578
2575 2579
2576 2577
2576 2578
2576 2579
2577 2578
2577 2579
2578 2579
2581 2582
2581 2583
2581 2584
2582 2583
2582 2584
2583 2584
2585 2586
2587 2588
2587 2589
2587 2590
2587 2591
2587 2592
2587 2593
2587 2594
2587 2595
2588 4525
2588 4526
2588 4376
2588 4527
2588 4378
2588 5947
2589 2590
2589 2593
2589 2594
2589 2595
2590 6696
2590 2593
2590 2594
2590 2595
2591 8560
2591 2592
2591 8561
2591 8562
2591 8563
2591 11667
2591 11668
2591 11669
2591 11670
2592 11667
2592 11668
2592 11669
2592 11670
2593 2594
2593 2595
2594 2595
2596 9019
2596 9020
2596 9021
2596 9022
2596 9023
2596 9024
2596 9025
2596 9026
2596 9027
2596 9028
2596 9029
2596 9030
2596 9031
2596 9032
2596 9033
2596 9034
2596 9035
2596 9036
2597 2598
2597 2599
2597 2600
2598 2599
2598 10405
2599 10405
2601 2602
2601 2603
2601 2604
2601 2605
2601 2606
2601 2607
2601 2608
2601 2609
2601 2610
2601 2611
2601 2612
2601 2613
2602 2603
2602 2604
2602 2605
2602 2606
2602 2607
2602 2608
2602 2609
2602 2610
2602 2611
2602 2612
2602 2613
2603 2604
2603 2605
2603 2606
2603 2607
2603 2608
2603 2609
2603 2610
2603 2611
2603 2612
2603 2613
2604 2605
2604 2606
2604 2607
2604 2608
2604 2609
2604 2610
2604 2611
2604 2612
2604 2613
2605 2606
2605 2607
2605 2608
2605 2609
2605 2610
2605 2611
2605 2612
2605 2613
2606 2607
2606 2608
2606 2609
2606 2610
2606 2611
2606 2612
2606 2613
2607 2608
2607 2609
2607 2610
2607 2611
2607 2612
2607 2613
2608 2609
2608 2610
2608 2611
2608 2612
2608 2613
2609 2610
2609 2611
2609 2612
2609 2613
2610 2611
2610 2612
2610 2613
2611 2612
2611 2613
2612 2613
2614 2615
2614 2616
2614 2617
2614 2618
2615 2616
2615 2617
2615 2618
2616 2617
2616 2618
2617 2618
2618 6073
2618 7783
2618 7786
2618 10111
2619 2620
2619 2621
2620 11068
2620 11069
2620 11070
2620 11071
2620 11072
2620 11073
2620 11074
2620 2621
2620 11075
2622 4367
2622 2623
2622 2624
2623 9902
2623 9903
2623 9904
2623 9905
2623 2624
2625 2626
2625 2627
2625 2628
2626 3107
2626 8865
2626 9040
2626 9041
2626 2628
2626 9042
2626 9043
2627 3616
2627 3617
2627 3618
2629 2630
2629 2631
2629 2632
2629 2633
2629 2634
2630 2631
2630 2632
2630 2633
2630 2634
2630 5330
2630 5331
2630 5332
2631 2632
2631 2633
2631 8047
2631 2634
2632 2633
2632 2634
2633 2634
2638 2639
2638 2640
2638 2641
2638 2642
2638 2643
2638 2644
2638 2645
2638 2646
2638 2647
2639 2641
2639 2642
2639 2643
2639 2644
2639 2645
2639 2646
2639 2647
2640 3320
2640 3321
2640 3322
2640 3323
2640 3324
2640 3325
2640 3326
2640 3327
2640 3328
2640 3329
2640 3330
2640 3331
2641 3143
2641 2881
2641 2642
2641 2643
2641 2644
2641 2645
2641 2646
2641 2647
2642 2880
2642 2643
2642 2644
2642 2645
2642 2646
2642 2647
2643 2647
2644 2645
2644 2646
2645 2646
2649 2684
2649 2685
2649 2686
2649 3747
2649 2687
2649 2690
2649 2691
2649 2692
2650 2651
2650 2652
2650 2653
2650 2654
2650 2655
2650 2656
2651 2652
2651 2653
2651 2654
2652 2653
2652 2656
2653 2654
2653 2655
2653 2656
2654 2655
2657 2658
2657 2659
2657 2660
2657 2661
2658 8188
2658 8189
2658 2659
2658 2660
2658 2661
2659 8188
2659 8189
2660 2661
2662 3448
2662 4048
2662 4049
2662 4050
2662 2664
2662 3452
2662 2665
2662 3453
2662 2666
2663 9220
2664 2665
2664 2666
2665 3448
2665 3452
2665 3453
2665 2666
2667 2668
2667 2669
2667 2670
2667 2671
2667 2672
2667 2673
2667 2674
2667 2675
2667 2676
2668 2669
2668 2670
2668 2671
2668 2672
2668 2673
2668 2674
2668 2675
2668 2676
2669 2670
2669 2671
2669 2672
2669 2673
2669 2674
2669 2675
2669 2676
2670 2671
2670 2672
2670 2673
2670 2674
2670 2675
2670 2676
2671 2672
2671 2673
2671 2674
2671 2675
2671 2676
2672 2673
2672 2674
2672 2675
2672 2676
2673 2674
2673 2675
2673 2676
2674 2675
2674 2676
2675 2676
2677 2678
2677 2679
2677 2680
2677 2681
2677 2682
2678 5586
2678 5587
2678 5588
2678 5589
2678 2680
2678 2681
2678 2682
2678 5590
2678 5129
2678 5591
2678 5592
2678 5593
2678 5594
2678 5595
2678 5596
2678 5597
2678 5598
2678 5599
2679 3715
2679 6551
2679 8407
2679 6552
2680 2681
2680 2682
2680 5593
2680 5594
2680 5595
2681 2682
2681 5593
2681 5594
2681 5595
2683 11253
2683 11254
2683 11255
2683 11256
2683 11257
2684 2685
2684 2686
2684 2687
2684 2688
2684 2689
2684 2690
2684 2691
2684 2692
2685 2686
2685 3747
2685 3748
2685 3749
2685 2687
2685 2690
2685 3750
2685 2691
2685 2692
2686 2687
2686 2688
2686 2689
2686 2690
2686 2691
2686 2692
2687 3747
2687 3749
2687 4369
2687 2690
2687 2691
2687 2692
2688 2689
2689 6147
2690 3747
2690 3748
2690 3750
2690 2691
2690 2692
2691 2692
2692 7396
2692 3747
2692 7401
2692 7402
2692 8616
2693 2694
2693 2695
2693 2696
2693 2697
2693 2698
2694 2697
2696 2697
2696 2698
2697 2698
2699 2700
2699 2701
2699 2702
2700 2701
2700 2702
2700 10807
2700 11139
2700 11140
2700 11141
2701 2702
2701 10807
2701 11139
2701 11140
2701 11141
2702 11139
2703 3681
2703 3682
2703 2706
2703 3683
2703 3684
2705 2708
2705 2709
2705 2710
2706 3681
2706 3682
2706 3683
2706 3684
2707 4823
2707 4824
2707 4825
2708 2709
2708 2710
2709 2710
2711 2712
2711 2713
2711 2714
2711 2715
2711 2716
2711 2717
2711 2718
2712 2713
2712 2715
2712 2716
2712 2717
2712 2718
2713 2715
2713 2716
2713 2717
2713 2718
2715 2716
2715 2717
2715 2718
2716 2717
2716 2718
2717 2718
2719 2720
2719 2721
2719 2722
2719 2723
2719 2724
2719 2725
2719 2726
2720 9791
2720 2722
2720 2726
2721 2723
2721 2725
2722 2726
2723 2724
2723 2725
2727 2728
2727 11447
2727 2729
2727 2730
2727 2731
2727 2732
2727 2733
2728 11447
2728 2729
2728 2730
2728 2731
2728 2732
2728 2733
2729 11447
2729 2730
2729 2731
2729 2732
2729 2733
2730 11447
2730 2731
2730 2732
2730 2733
2731 2732
2731 2733
2731 11800
2732 2733
2734 2736
2735 4634
2735 5673
2735 3170
2735 3171
2735 4636
2735 4637
2735 5675
2735 2863
2735 5676
2735 4638
2736 2996
2737 2739
2737 2740
2738 7856
2738 7857
2738 7858
2739 2740
2741 2742
2741 2743
2741 2744
2741 2745
2741 2746
2741 2747
2741 2748
2741 2749
2741 2750
2741 2751
2742 3422
2742 3423
2742 3424
2742 3425
2742 3426
2742 3427
2742 3428
2743 2746
2743 2747
2743 2748
2743 2749
2743 2750
2743 2751
2744 9162
2744 9164
2744 2745
2744 9168
2745 11803
2745 11804
2745 11805
2745 11806
2746 3813
2746 2747
2746 2748
2746 2749
2746 2750
2746 2751
2747 2748
2747 2749
2747 2750
2747 2751
2748 2749
2748 2750
2748 2751
2749 2750
2749 2751
2750 2751
2752 2753
2752 2754
2752 2755
2752 2756
2752 2757
2752 2758
2752 2759
2753 2754
2753 2755
2753 2756
2753 2757
2753 2758
2753 2759
2754 2755
2754 2756
2754 2757
2754 2758
2754 2759
2755 2756
2755 2757
2755 2758
2755 2759
2756 2757
2756 2758
2756 2759
2757 2758
2757 2759
2758 2759
2760 2761
2760 2762
2760 2763
2760 2764
2761 2762
2761 2763
2761 2764
2762 2763
2762 2764
2763 2764
2765 2767
2765 8375
2765 8376
2765 8377
2765 8378
2765 8379
2766 3070
2767 3069
2767 3070
2767 3071
2767 3072
2768 2769
2768 2770
2769 2770
2771 2772
2771 2773
2771 2774
2771 2775
2771 2776
2772 2773
2772 2774
2772 2775
2772 2776
2773 3974
2773 10029
2773 10030
2773 10031
2773 10032
2773 10033
2773 10034
2773 2774
2773 2775
2773 3975
2773 3976
2773 3977
2773 3978
2773 3980
2774 10029
2774 10030
2774 10031
2774 10032
2774 10033
2774 10034
2774 2775
2774 3975
2775 2776
2777 2778
2777 2779
2777 2780
2777 2781
2777 2782
2777 2783
2778 2780
2778 2781
2778 2782
2778 2783
2778 3751
2778 3752
2778 3753
2778 3754
2778 3755
2779 6844
2779 10092
2779 10095
2779 10096
2780 9160
2780 9161
2780 2781
2780 2782
2780 2783
2781 9160
2781 9161
2781 2782
2781 2783
2782 2783
2784 2785
2784 2786
2784 2787
2784 2788
2784 2789
2784 2790
2784 7522
2784 7523
2784 7524
2785 2786
2785 7629
2785 7630
2785 7631
2786 2791
2787 7914
2787 2788
2787 2789
2787 2790
2788 2789
2788 2790
2789 2790
2790 7914
2793 2794
2793 2795
2793 2796
2793 2797
2793 2798
2793 2799
2793 2800
2794 2795
2794 2796
2794 2797
2794 2798
2794 2799
2794 2800
2795 3568
2795 3569
2795 3570
2795 2796
2795 2797
2795 2798
2795 2799
2795 2800
2795 3571
2796 2797
2796 2798
2796 2799
2796 2800
2797 2798
2797 2799
2797 2800
2798 2799
2798 2800
2799 2800
2801 2802
2801 2803
2802 2803
2804 2806
2807 2808
2807 2809
2807 2810
2807 2811
2807 2812
2807 2813
2808 2809
2808 2810
2808 2811
2808 2812
2808 2813
2809 3028
2809 2811
2809 2812
2809 2813
2811 2812
2811 2813
2811 4379
2812 2813
2814 2815
2814 2816
2814 2817
2814 2818
2814 2819
2814 2820
2814 2821
2814 2822
2815 2816
2815 2818
2815 2819
2815 2820
2815 2821
2815 2822
2816 2817
2816 2818
2816 2819
2816 2820
2816 2821
2816 2822
2817 2818
2818 2819
2818 2820
2818 2821
2818 2822
2819 4814
2819 8554
2819 2820
2819 2821
2819 2822
2820 2821
2820 2822
2821 2822
2823 2824
2823 2825
2824 3648
2824 3649
2824 3650
2824 3651
2824 3652
2824 3653
2824 3654
2824 3655
2824 3656
2824 3657
2824 3658
2824 3659
2824 3660
2824 3661
2824 3662
2824 3663
2824 3664
2826 5553
2826 2827
2826 2828
2826 2829
2826 2830
2826 2831
2827 2831
2828 2829
2828 2830
2829 2830
2831 2832
2833 2834
2833 2835
2833 2836
2833 2837
2833 2838
2833 2839
2833 2840
2833 2841
2833 2842
2834 2835
2834 3104
2834 2836
2834 3105
2834 2837
2834 2838
2835 2836
2835 3105
2835 2837
2835 2838
2836 3105
2836 2837
2836 2838
2837 3105
2837 2838
2839 2840
2839 2841
2839 9203
2839 9204
2839 9205
2839 9206
2839 9207
2840 2841
2840 9203
2840 9204
2840 9205
2840 9414
2840 9415
2840 9416
2840 9417
2840 9418
2840 9206
2840 9207
2840 9419
2841 9203
2841 9204
2841 9205
2842 4249
2842 4250
2842 4252
2842 4253
2842 4254
2842 4255
2842 4256
2842 4257
2843 2844
2843 2845
2843 2846
2843 2847
2843 2848
2844 3333
2844 6421
2844 6422
2844 2845
2844 4453
2844 6423
2844 2846
2844 6424
2844 6425
2844 6426
2844 6427
2844 6428
2844 6429
2844 3398
2844 6430
2844 6431
2844 6432
2845 6424
2845 6425
2845 6426
2845 6427
2845 6428
2846 2847
2847 2848
2849 2850
2849 2851
2849 2852
2849 2853
2849 2854
2849 2855
2849 2856
2850 2851
2850 2852
2850 2853
2850 2854
2850 2855
2850 2856
2851 2852
2851 2853
2851 2854
2851 2855
2851 2856
2852 2853
2852 2854
2852 2856
2852 10820
2852 10821
2852 10822
2853 2854
2853 2855
2853 2856
2854 2855
2854 2856
2855 2856
2857 2858
2857 2859
2857 2860
2857 2861
2857 2862
2858 3238
2858 2859
2858 3239
2858 3240
2858 2861
2858 2862
2859 4579
2859 2861
2859 2862
2860 7816
2860 7817
2860 7818
2860 7821
2861 3238
2861 3239
2861 3240
2861 8254
2861 2862
2863 4634
2863 3171
2863 4636
2863 4637
2863 3179
2863 4638
2863 4639
2864 2865
2864 2866
2864 2867
2865 5252
2865 3390
2865 2866
2865 5253
2865 2867
2866 9987
2866 9988
2866 9989
2866 9990
2866 2867
2868 2869
2868 2870
2868 2871
2868 2872
2868 2873
2868 2874
2868 2875
2868 2876
2869 3637
2869 3638
2869 3639
2869 3640
2869 3641
2869 3642
2870 2871
2870 2872
2870 2874
2870 2875
2870 2876
2871 2872
2871 2874
2871 2875
2871 2876
2872 2874
2872 2875
2872 2876
2873 9495
2873 9496
2873 9497
2873 9498
2873 9499
2873 9500
2874 2875
2874 2876
2875 2876
2877 2878
2877 2879
2877 2880
2877 2881
2877 2882
2877 2883
2877 2884
2877 2885
2877 2886
2877 2887
2877 2888
2877 2889
2877 2890
2878 2879
2878 2880
2878 2881
2878 2882
2878 2883
2878 2884
2878 2885
2878 2886
2878 2887
2878 2888
2878 2889
2878 2890
2879 2880
2879 2881
2879 2882
2879 2883
2879 2884
2879 2885
2879 2886
2879 2887
2879 2888
2879 2889
2879 2890
2880 2881
2880 2882
2880 2883
2880 2884
2880 2885
2880 2886
2880 2887
2880 2888
2880 2889
2880 2890
2881 2882
2881 2883
2881 2884
2881 2885
2881 2886
2881 2887
2881 2888
2881 2889
2881 2890
2882 2883
2882 8294
2882 8295
2882 2884
2882 8296
2882 2885
2882 2886
2882 7269
2882 2887
2882 2888
2882 2889
2882 2890
2882 8297
2882 8298
2882 8299
2883 2884
2883 2885
2883 2886
2883 2887
2883 2888
2883 2889
2883 2890
2884 2885
2884 2886
2884 2887
2884 2888
2884 2889
2884 2890
2885 2886
2885 2887
2885 2888
2885 2889
2885 2890
2886 2887
2886 2888
2886 2889
2886 2890
2887 2888
2887 2889
2887 2890
2888 2889
2888 2890
2889 2890
2891 2892
2891 2893
2891 2894
2891 2895
2891 2896
2891 2897
2891 2898
2892 2948
2892 2949
2893 2894
2893 2895
2893 2896
2893 2897
2894 2895
2894 2896
2894 2897
2895 2896
2895 2897
2896 2897
2898 3734
2898 3735
2898 3737
2898 3738
2898 3739
2898 3740
2899 2900
2899 2901
2899 2902
2899 2903
2899 2904
2899 2905
2899 2906
2899 2907
2900 3913
2900 3914
2900 3915
2900 3916
2900 3917
2900 3918
2901 2902
2901 2903
2901 2904
2901 2905
2901 2906
2901 2907
2902 2903
2902 2904
2902 2905
2902 2906
2902 2907
2903 2904
2903 2905
2903 2906
2903 2907
2904 2905
2904 2906
2904 2907
2905 2906
2905 2907
2906 2907
2908 2909
2908 2910
2908 2911
2909 4375
2909 4376
2909 2910
2909 4377
2909 4378
2910 4375
2910 4376
2910 4377
2911 4375
2911 4376
2911 4378
2911 5947
2912 2913
2912 2914
2912 2915
2913 6881
2913 2914
2913 2915
2913 6883
2914 6881
2914 2915
2914 6883
2916 2917
2916 2918
2916 2919
2916 2920
2916 2921
2916 2922
2916 2923
2916 2924
2916 2925
2916 2926
2917 2918
2917 2919
2917 2920
2917 2921
2917 2922
2917 4868
2918 2919
2918 2920
2918 2921
2918 2922
2918 2923
2918 2926
2919 2920
2919 2921
2919 2922
2920 2921
2920 2922
2920 2924
2921 2922
2923 2926
2925 10371
2925 10372
2925 10373
2925 10374
2925 10375
2927 2928
2927 2929
2927 2930
2927 2931
2927 2932
2928 2929
2928 2930
2928 2931
2928 2932
2928 10543
2928 10544
2928 10545
2928 10546
2928 10547
2929 2930
2929 2931
2929 2932
2930 2931
2930 2932
2931 2932
2932 11535
2932 10543
2932 10544
2932 11536
2933 8205
2933 2934
2933 2935
2933 2936
2933 2937
2933 2938
2933 2939
2933 2940
2933 2941
2933 2942
2933 2943
2933 2944
2933 2945
2933 2946
2933 2947
2934 2935
2934 2936
2934 2937
2934 2938
2934 2939
2934 2940
2934 2941
2934 2942
2934 2943
2934 2944
2934 2945
2934 2946
2934 2947
2935 2936
2935 2937
2935 2938
2935 2939
2935 2940
2935 2941
2935 2942
2935 2943
2935 2944
2935 2945
2935 2946
2935 2947
2936 2937
2936 2938
2936 2939
2936 2940
2936 2941
2936 2942
2936 2943
2936 2944
2936 2945
2936 2946
2936 2947
2937 2938
2937 2939
2937 2940
2937 2941
2937 2942
2937 2943
2937 2944
2937 2945
2937 2946
2937 2947
2938 2939
2938 2940
2938 2941
2938 2942
2938 2943
2938 2944
2938 2945
2938 2946
2938 2947
2939 2940
2939 2941
2939 2942
2939 2943
2939 2944
2939 2945
2939 2946
2939 2947
2940 2941
2940 2942
2940 2943
2940 2944
2940 2945
2940 2946
2940 2947
2941 2942
2941 2943
2941 2944
2941 2945
2941 2946
2941 2947
2942 2943
2942 2944
2942 2945
2942 2946
2942 2947
2943 2944
2943 2945
2943 2946
2943 2947
2944 2945
2944 2946
2944 2947
2945 2946
2945 2947
2946 2947
2948 2949
2950 2951
2950 2952
2950 2953
2950 2954
2950 2955
2950 2956
2950 2957
2950 2958
2951 2952
2951 2953
2951 2954
2951 2955
2951 2956
2951 2957
2951 2958
2954 2955
2954 2956
2954 2957
2954 2958
2956 2957
2956 2958
2957 2958
2959 2960
2959 2961
2959 2962
2959 2963
2959 2964
2959 2965
2959 2966
2959 2967
2960 2961
2960 2962
2960 3676
2960 3677
2960 3678
2960 3679
2960 3680
2961 4080
2961 2962
2961 4081
2961 4082
2961 4083
2961 4084
2961 4085
2961 3676
2961 3677
2961 3678
2961 3679
2961 3680
2962 2963
2962 2964
2962 2965
2962 2966
2962 2967
2963 2964
2963 2965
2963 2966
2963 2967
2964 2965
2964 2966
2964 2967
2965 2966
2965 2967
2966 2967
2970 2971
2970 2972
2970 2973
2970 2974
2970 2975
2970 2976
2970 2977
2970 2978
2970 2979
2971 2973
2971 2974
2972 2973
2972 2974
2972 2975
2972 2976
2972 2977
2972 2978
2972 2979
2973 2974
2973 2975
2973 2979
2974 2975
2974 2979
2975 2979
2976 2977
2976 2978
2977 2978
2980 2981
2980 2982
2980 2983
2980 2984
2980 2985
2980 2986
2980 2987
2980 2988
2980 2989
2980 2990
2981 2983
2981 2989
2981 2990
2982 2983
2982 2984
2982 2985
2982 2986
2983 2984
2983 2985
2983 2986
2983 2987
2983 2988
2983 2989
2983 2990
2984 2985
2984 2986
2985 2986
2986 2987
2986 2988
2987 2988
2991 2992
2991 2993
2991 2994
2991 2995
2992 3332
2992 3333
2992 3334
2992 2993
2992 3335
2992 3337
2992 2994
2992 2995
2992 3394
2992 3397
2992 6124
2992 6125
2992 6126
2992 6127
2992 3269
2993 6833
2993 2994
2993 2995
2994 2995
2996 4606
2996 4607
2996 4608
2996 4609
2996 4610
2996 4611
2996 4612
2996 4613
2996 4614
2996 4615
2996 4616
2996 4617
2996 4618
2996 4619
2996 4620
2997 2998
2997 2999
2997 3000
2997 3001
2998 2999
2998 3000
2998 3001
2999 3000
2999 3001
3000 3001
3002 3052
3002 3053
3002 3054
3002 3055
3002 3056
3003 3004
3005 3006
3005 3007
3005 3008
3005 3009
3005 3010
3005 3011
3006 3512
3006 3513
3006 3514
3006 3515
3007 3008
3007 3009
3007 3010
3007 3011
3008 3009
3008 3010
3008 3011
3009 3010
3009 3011
3010 3011
3012 3013
3012 3014
3012 3015
3012 3016
3012 3017
3012 3018
3012 3019
3013 3152
3013 3279
3013 5138
3013 3014
3013 9865
3013 9866
3013 9867
3013 9868
3013 9869
3013 9870
3013 3015
3013 3016
3013 3017
3013 3018
3013 3019
3014 9865
3014 9866
3014 9867
3014 9868
3014 9869
3014 9870
3014 3015
3014 3016
3014 3017
3014 3018
3014 3019
3015 9868
3015 9869
3015 9870
3015 3016
3015 3017
3015 3018
3015 3019
3016 3017
3016 3018
3016 3019
3017 3018
3017 3019
3018 3019
3020 3021
3020 3022
3020 3023
3020 3024
3020 3025
3020 3026
3020 3027
3021 3023
3022 3023
3022 3024
3022 3025
3022 3026
3022 3027
3023 3024
3023 3025
3023 3026
3023 3027
3024 3025
3024 3026
3024 3027
3025 3026
3025 3027
3026 3027
3029 3030
3029 3031
3029 3032
3029 3033
3029 3034
3030 6209
3030 3138
3030 6210
3030 6211
3030 6212
3030 3031
3030 3032
3030 3033
3030 3034
3031 3032
3031 3033
3031 3034
3032 3033
3032 3034
3033 3034
3035 3036
3035 3037
3035 3038
3035 3039
3035 3040
3035 3041
3035 3042
3035 3043
3036 3037
3036 3038
3036 3039
3036 3040
3036 3041
3036 3042
3036 3043
3037 3304
3037 3038
3037 3039
3037 3040
3037 3041
3037 3042
3037 3043
3038 3039
3038 3040
3038 3041
3038 3042
3038 3043
3039 3040
3039 3041
3039 3042
3039 3043
3040 3041
3040 3042
3040 3043
3041 3042
3041 3043
3042 3043
3044 3045
3044 3046
3044 3047
3044 3048
3044 3049
3044 3050
3044 3051
3045 3046
3045 3047
3045 3048
3045 3049
3045 3050
3045 3051
3046 3047
3046 3048
3046 3049
3046 3050
3046 3051
3046 4960
3047 3048
3047 3049
3047 3050
3047 3051
3048 3049
3048 3050
3048 3051
3049 3050
3049 3051
3049 4960
3050 3051
3052 3053
3052 3054
3052 3055
3052 3056
3053 3055
3054 3055
3054 3056
3055 3056
3057 3058
3057 3059
3057 3060
3057 3061
3058 3059
3058 3060
3058 3061
3059 3060
3059 3061
3060 3061
3062 3063
3062 3065
3062 3066
3062 3067
3062 3068
3063 3064
3063 3065
3063 3066
3063 3067
3063 3068
3065 3066
3065 3067
3065 3068
3066 3067
3066 3068
3067 3068
3069 6163
3069 3070
3069 3071
3069 3072
3070 3071
3070 3072
3071 3072
3073 9919
3073 9920
3073 3074
3073 9921
3073 9922
3073 9923
3074 3075
3074 3077
3074 3078
3074 3079
3075 3609
3075 3610
3075 3611
3075 3076
3075 3612
3075 3613
3075 3079
3075 3614
3075 3615
3075 3080
3076 3080
3077 3078
3077 3079
3078 3079
3081 3082
3081 3083
3081 3084
3081 3085
3081 3086
3081 3087
3081 3088
3081 3089
3081 3090
3081 3091
3081 3092
3081 3093
3081 3094
3081 3095
3081 3096
3081 3097
3081 3098
3081 3099
3081 3100
3081 3101
3081 3102
3081 3103
3082 4319
3082 3084
3082 3085
3082 3086
3082 3087
3082 3089
3082 3090
3082 3091
3082 3092
3082 3093
3082 3094
3082 3095
3082 3096
3082 3097
3082 3098
3082 3099
3082 3100
3082 3101
3082 3102
3082 3103
3083 5868
3083 5869
3083 5870
3083 5871
3083 5872
3083 5873
3083 5874
3083 5875
3083 5876
3083 5877
3083 5878
3083 5879
3084 3085
3084 5995
3084 3086
3084 3087
3084 3089
3084 3090
3084 3091
3084 3092
3084 3093
3084 3094
3084 3095
3084 3096
3084 3097
3084 3098
3084 3099
3084 3100
3084 3101
3084 3102
3084 3103
3085 3086
3085 3087
3085 3089
3085 3090
3085 3091
3085 3092
3085 3093
3085 3094
3085 3095
3085 3096
3085 3097
3085 3098
3085 3099
3085 3100
3085 3101
3085 3102
3085 3103
3086 3087
3086 3089
3086 3090
3086 3091
3086 3092
3086 3093
3086 3094
3086 3095
3086 3096
3086 3097
3086 3098
3086 3099
3086 3100
3086 3101
3086 3102
3086 3103
3087 3089
3087 3090
3087 3091
3087 3092
3087 3093
3087 3094
3087 3095
3087 3096
3087 3097
3087 3098
3087 3099
3087 3100
3087 3101
3087 3102
3087 3103
3088 4434
3088 11347
3088 11348
3088 11349
3088 11350
3089 3090
3089 3091
3089 3092
3089 3093
3089 3094
3089 3095
3089 3096
3089 3097
3089 3098
3089 3099
3089 3100
3089 3101
3089 3102
3089 3103
3090 3091
3090 3092
3090 3093
3090 3094
3090 3095
3090 3096
3090 3097
3090 3098
3090 3099
3090 3100
3090 3101
3090 3102
3090 3103
3091 3092
3091 3093
3091 3094
3091 3095
3091 3096
3091 3097
3091 3098
3091 3099
3091 3100
3091 3101
3091 3102
3091 3103
3092 3093
3092 3094
3092 3095
3092 3096
3092 3097
3092 3098
3092 3099
3092 3100
3092 3101
3092 3102
3092 3103
3093 3094
3093 3095
3093 3096
3093 3097
3093 3098
3093 3099
3093 3100
3093 3101
3093 3102
3093 3103
3094 3095
3094 3096
3094 3097
3094 3098
3094 3099
3094 3100
3094 3101
3094 3102
3094 3103
3095 3096
3095 3097
3095 3098
3095 3099
3095 3100
3095 3101
3095 3102
3095 3103
3096 3097
3096 3098
3096 3099
3096 3100
3096 3101
3096 3102
3096 3103
3097 3098
3097 3099
3097 3100
3097 3101
3097 3102
3097 3103
3098 3099
3098 3100
3098 3101
3098 3102
3098 3103
3099 3100
3099 3101
3099 3102
3099 3103
3100 3101
3100 3102
3100 3103
3101 3102
3101 3103
3102 3103
3104 4777
3104 6519
3104 6520
3104 6521
3104 6522
3104 6523
3104 6524
3104 6525
3106 3107
3106 3108
3106 3109
3106 3110
3106 3111
3106 3112
3106 3113
3106 3114
3106 3115
3106 3116
3106 3117
3106 3118
3106 3119
3106 3120
3106 3121
3106 3122
3107 6526
3107 3109
3107 3111
3107 3112
3107 3113
3107 3114
3107 3117
3107 3118
3107 3119
3107 3120
3107 3121
3108 3112
3108 3113
3108 3117
3108 3118
3108 3119
3108 3120
3108 3121
3108 3122
3109 3576
3109 3577
3109 3578
3109 3580
3109 3581
3109 3582
3109 3584
3109 3586
3109 3587
3109 3588
3109 3590
3109 3111
3109 3114
3110 3115
3110 3116
3111 6526
3111 3114
3112 3113
3112 3117
3113 3117
3114 6526
3115 3116
3118 3119
3118 3120
3118 3121
3118 3122
3119 3120
3119 3121
3119 3122
3120 3121
3120 3122
3121 3122
3123 3124
3123 3125
3123 3126
3123 3127
3124 3756
3124 3757
3124 3758
3124 3125
3124 3759
3124 3126
3124 3760
3124 3127
3124 3761
3124 3762
3125 3757
3125 3758
3125 3759
3125 3126
3125 3760
3125 3127
3125 3761
3125 3762
3126 3757
3126 3760
3126 3127
3126 3761
3126 3762
3128 3129
3128 3130
3128 3131
3128 3132
3129 8907
3129 10174
3129 10175
3129 8908
3129 3130
3129 10176
3129 10177
3129 3131
3130 8908
3130 10176
3130 10177
3130 3131
3133 3965
3133 3966
3133 3967
3134 5894
3134 5895
3134 5896
3134 5897
3134 5898
3134 5899
3135 3136
3135 5967
3135 5968
3135 5969
3135 5970
3135 5971
3136 5967
3136 5968
3136 5969
3136 5970
3136 5971
3137 5267
3137 3947
3137 9290
3137 9291
3137 5269
3137 5270
3137 5271
3137 5272
3137 5273
3137 5274
3137 5275
3138 4004
3138 9706
3138 9707
3138 4005
3138 9708
3139 11486
3139 11487
3139 11488
3139 11489
3139 11490
3139 11491
3139 11492
3139 11493
3140 3141
3140 10252
3140 10253
3140 10254
3141 5451
3141 7976
3141 7977
3141 9098
3141 7978
3141 7979
3141 7980
3141 10513
3141 7981
3141 7982
3142 3143
3142 3144
3142 3145
3142 3146
3142 3147
3142 3148
3142 3149
3142 3150
3143 3144
3143 3145
3143 5432
3143 3146
3143 4033
3143 3147
3143 3148
3143 3149
3143 3150
3144 3145
3144 3146
3144 3147
3144 3148
3144 3149
3144 3150
3145 3146
3145 3147
3145 3148
3145 3149
3145 3150
3146 3147
3146 3148
3146 3149
3146 3150
3147 3148
3147 3149
3148 3149
3149 3150
3151 3152
3151 3153
3151 3154
3151 3155
3152 5138
3152 5139
3152 5140
3153 11062
3153 11063
3153 11064
3153 11065
3154 3155
3156 8049
3156 3764
3156 8050
3156 3157
3156 3163
3156 9818
3156 9819
3156 9820
3156 9821
3156 9822
3156 9823
3156 9824
3157 3158
3157 3159
3157 3160
3157 3161
3157 3162
3157 3163
3157 3164
3158 3159
3158 3160
3158 3161
3158 3162
3159 3160
3159 3161
3159 3162
3160 3161
3160 3162
3160 3164
3161 3162
3161 3164
3163 8049
3163 8050
3163 9823
3163 9824
3165 4678
3165 4679
3165 4680
3167 3168
3168 3169
3170 5934
3170 3171
3170 3175
3170 6185
3170 3179
3170 6186
3170 4638
3170 6187
3170 6188
3171 4634
3171 5934
3171 4636
3171 4637
3171 3175
3171 6185
3171 3179
3171 6186
3171 4638
3171 6187
3171 6188
3171 4639
3172 3173
3172 3174
3172 3175
3172 3177
3172 3178
3172 3180
3173 8124
3173 3174
3173 3175
3173 3177
3173 3178
3173 3180
3174 3175
3174 3177
3174 3178
3174 3180
3175 3177
3175 3178
3175 3179
3175 3180
3176 3181
3176 3182
3176 3183
3176 3184
3176 3185
3177 3178
3177 3180
3178 3180
3179 4634
3179 4636
3179 6185
3179 6186
3179 6187
3179 6188
3179 4639
3181 3182
3181 3183
3181 3184
3181 3185
3182 3183
3182 3184
3182 3185
3183 3184
3183 3185
3184 3185
3186 5089
3186 3190
3186 3191
3186 3195
3186 3197
3186 3198
3186 3199
3186 3200
3186 3201
3186 3202
3186 3203
3187 3188
3187 3192
3187 3193
3187 3194
3188 3192
3188 3193
3188 3194
3189 4985
3189 7061
3189 7062
3189 3196
3189 7063
3190 3191
3190 3195
3190 3197
3190 3198
3190 3199
3190 3200
3190 3201
3190 3202
3190 3203
3191 5089
3191 3195
3191 3197
3191 3198
3191 3199
3191 3200
3192 5128
3192 5452
3192 3193
3192 3194
3193 3194
3195 3197
3195 3198
3195 3199
3195 3200
3196 7061
3196 7063
3197 3198
3197 3199
3197 3200
3198 3199
3198 3200
3199 3200
3201 6284
3201 3202
3201 3203
3201 6285
3202 6284
3202 3203
3202 6285
3203 6284
3203 6285
3204 5328
3204 5329
3206 11501
3206 11502
3206 11503
3206 11504
3206 11505
3206 11506
3206 11507
3206 11508
3206 11509
3206 11510
3206 11511
3206 11512
3206 11513
3206 11514
3206 11515
3207 6766
3207 6767
3207 6768
3207 6769
3207 6770
3207 6771
3207 6772
3207 6773
3207 6774
3208 3794
3208 4706
3208 8577
3208 8578
3208 8579
3208 8580
3208 8581
3208 8582
3208 8583
3209 3210
3209 3211
3209 3212
3209 3213
3209 3214
3209 3215
3210 3211
3210 4424
3210 3212
3210 3213
3210 3214
3210 3215
3211 3212
3211 3213
3211 3214
3211 3215
3212 3213
3212 3214
3212 3215
3213 3214
3213 3215
3214 3215
3216 3217
3216 3218
3216 3219
3216 3220
3216 3221
3216 3222
3216 3223
3216 3224
3217 3218
3217 3219
3217 3220
3217 3221
3217 3222
3217 3223
3217 3224
3218 3219
3218 3220
3218 3221
3218 3222
3218 3223
3218 3224
3219 3220
3219 3221
3219 3222
3219 3223
3219 3224
3220 3221
3220 3222
3220 3223
3220 3224
3221 3222
3221 3223
3221 3224
3222 3223
3222 3224
3223 3224
3225 3226
3225 3227
3225 3228
3225 3229
3225 3230
3225 3231
3225 3232
3225 3233
3225 3234
3225 3235
3225 3236
3226 3227
3226 3228
3226 4225
3226 4226
3226 4227
3226 4228
3226 4229
3226 4230
3226 4231
3226 4232
3226 4233
3226 4234
3227 3228
3227 3229
3227 3230
3227 3231
3227 3232
3227 3233
3227 4236
3227 4237
3227 3234
3227 4238
3227 3235
3227 3236
3228 4558
3228 4559
3228 4560
3228 4561
3228 4562
3228 4563
3229 3230
3229 3232
3229 3233
3230 3231
3230 3232
3230 3233
3230 3234
3230 4238
3231 3232
3232 3233
3232 4236
3232 4237
3232 3234
3232 4238
3232 3235
3232 3236
3234 4236
3234 4237
3234 4238
3234 3235
3234 3236
3235 3236
3238 8253
3238 3239
3238 3240
3238 8254
3238 8255
3238 8256
3238 8257
3239 3240
3239 8254
3239 8255
3240 9843
3240 8254
3240 8255
3241 3242
3241 3243
3241 3244
3241 3245
3241 3246
3242 4715
3242 6073
3242 3243
3242 3244
3242 3245
3242 3246
3243 3244
3243 3245
3243 3246
3244 3245
3245 3246
3247 3248
3247 3249
3247 3250
3247 3251
3247 3252
3247 3253
3247 3254
3247 3255
3247 3256
3247 3257
3247 3258
3248 3250
3248 3251
3248 3252
3248 3253
3248 3254
3248 3255
3248 3256
3248 3257
3248 3258
3249 4710
3249 4271
3249 4711
3249 4712
3250 3251
3250 3252
3250 3253
3250 3254
3250 3255
3250 5900
3250 3256
3250 3257
3250 3258
3250 5901
3250 5902
3250 5903
3250 5904
3250 5905
3250 5906
3250 5907
3250 5908
3251 3252
3251 3253
3251 3254
3251 6344
3251 3255
3251 7807
3251 3256
3251 3257
3251 3258
3251 7808
3251 7809
3252 3253
3252 3254
3252 3255
3252 3256
3252 3257
3252 3258
3253 3254
3253 3255
3253 3256
3253 3257
3253 3258
3254 3255
3254 5900
3254 3256
3254 3257
3254 3258
3254 5901
3254 5902
3254 5903
3254 5904
3254 5905
3254 5906
3254 5907
3254 5908
3255 8499
3255 8500
3255 3256
3255 3257
3255 3258
3255 8501
3255 8502
3255 8503
3256 3257
3256 3258
3257 8499
3257 8500
3257 3258
3257 8501
3257 8502
3257 8503
3259 3260
3259 3261
3259 3262
3259 3263
3259 3264
3259 3265
3259 3266
3259 3267
3259 3268
3259 3269
3260 3261
3260 3262
3260 3263
3260 3266
3260 3267
3261 3262
3261 3263
3261 3266
3261 3267
3262 7743
3262 3263
3262 3266
3262 3267
3262 10974
3263 3266
3263 3267
3264 3268
3265 4204
3265 4343
3265 4214
3265 4215
3265 3269
3265 4218
3265 4219
3265 4221
3265 4222
3265 10478
3265 4223
3265 4224
3266 7217
3266 3267
3266 7235
3266 7237
3269 4204
3269 4205
3269 4213
3269 4215
3269 4216
3269 4217
3269 4218
3269 4220
3269 4222
3269 9552
3269 5832
3270 3271
3270 3272
3270 3273
3270 3274
3270 3275
3270 3276
3270 3277
3271 3272
3271 3273
3271 3274
3271 3275
3271 3276
3271 3277
3272 3273
3272 8916
3272 3274
3272 3275
3272 3276
3272 3277
3273 3274
3273 3275
3273 3276
3273 3277
3274 3275
3274 3276
3274 3277
3275 3276
3275 3277
3276 3277
3278 3279
3278 3280
3278 3281
3278 3282
3278 3283
3278 3284
3278 3285
3278 3286
3279 7249
3279 7250
3279 7251
3279 5532
3279 3285
3279 7252
3279 3286
3279 7253
3280 3281
3280 3282
3280 3283
3280 3284
3281 3282
3281 3283
3281 3284
3282 3283
3282 3284
3283 3284
3285 7249
3285 7250
3285 7251
3285 5532
3285 7252
3285 3286
3285 7253
3286 7249
3286 7250
3286 7251
3286 7252
3286 7253
3287 3288
3287 3289
3287 3290
3288 5972
3288 3289
3288 6371
3288 6372
3288 6373
3288 5334
3288 5973
3288 5975
3288 3290
3288 6374
3289 3290
3291 5099
3291 5100
3291 5101
3291 5102
3291 5103
3292 3293
3294 5714
3294 8519
3294 8520
3294 8521
3294 8522
3294 8523
3294 8524
3294 8525
3294 8526
3294 8527
3294 8528
3294 3297
3294 8529
3294 3298
3294 8530
3294 8531
3294 3299
3294 8532
3294 8533
3294 8534
3294 8535
3294 3300
3294 3301
3294 3302
3294 3303
3294 8536
3294 8537
3295 5326
3295 3296
3295 10035
3295 3298
3297 3298
3297 10807
3297 3299
3297 3300
3297 3301
3297 3302
3297 3303
3298 5326
3298 3299
3299 3300
3299 3301
3299 3302
3299 3303
3300 11771
3300 3301
3300 3302
3300 3303
3301 3302
3301 3303
3302 3303
3304 3305
3304 3306
3304 3307
3304 3308
3304 3309
3304 3310
3305 3306
3305 3307
3305 3308
3305 3309
3305 3310
3306 3307
3306 3308
3306 3309
3306 3310
3307 3308
3307 3309
3307 3310
3308 3309
3308 3310
3309 3310
3311 3312
3311 3313
3311 3314
3311 3315
3311 3316
3311 3317
3311 3318
3311 3319
3312 3313
3312 3314
3312 3315
3312 3316
3312 3317
3312 3318
3312 3319
3313 3314
3313 3315
3313 3316
3313 3317
3313 3318
3313 3319
3314 3315
3314 3316
3314 3317
3314 3318
3314 3319
3315 3316
3315 3317
3315 3318
3315 3319
3316 3317
3316 3318
3316 3319
3317 3318
3317 3319
3318 3319
3320 3321
3320 3322
3320 3325
3320 3326
3320 3327
3320 3328
3320 3329
3320 3330
3320 3331
3321 3322
3321 3325
3321 3326
3321 3327
3321 3328
3321 3329
3321 3330
3321 3331
3322 3323
3322 3324
3322 3325
3322 3326
3322 3327
3322 3328
3322 3329
3322 3330
3322 3331
3323 3324
3323 3325
3324 3325
3325 3326
3325 3327
3325 3328
3325 3329
3325 3330
3325 3331
3326 7592
3326 3327
3326 3328
3326 3329
3326 3330
3326 3331
3327 3328
3327 3329
3327 3330
3327 3331
3328 3329
3328 3330
3328 3331
3329 3330
3329 3331
3330 3331
3332 3333
3332 3334
3332 3335
3332 3336
3332 3337
3332 3338
3333 3335
3333 3336
3333 3389
3333 3390
3333 3391
3333 3392
3333 3393
3333 3394
3333 3395
3333 3396
3333 3397
3333 3398
3334 3936
3334 3937
3334 3938
3334 3939
3334 3940
3334 3941
3334 3942
3335 6124
3335 6125
3335 6126
3335 6127
3335 6886
3335 6887
3336 3389
3336 4998
3336 7260
3336 7261
3336 7262
3336 7263
3336 7264
3336 7265
3336 7266
3336 7267
3336 7268
3337 3338
3339 3340
3339 3341
3339 3342
3339 3343
3339 3344
3339 3345
3339 3346
3340 8020
3340 3341
3340 3342
3340 3343
3340 8021
3340 3344
3340 8022
3340 8023
3340 3345
3340 8024
3340 8025
3341 8021
3341 3344
3341 8023
3341 3345
3341 8025
3342 3343
3342 3345
3342 3346
3343 3345
3343 3346
3344 3345
3345 3346
3347 3348
3347 3349
3347 3350
3348 6553
3348 3349
3348 3350
3348 6554
3349 8977
3349 9065
3349 3382
3349 11300
3349 3350
3349 11301
3349 9249
3349 9066
3349 8978
3349 6554
3349 8979
3351 3352
3351 3353
3351 3354
3351 3355
3351 3356
3351 3357
3351 3358
3351 3359
3351 3360
3351 3361
3351 3362
3352 4897
3352 4898
3352 4899
3352 4900
3352 4901
3352 4902
3352 4903
3352 4904
3353 9530
3353 9531
3353 9532
3353 9533
3353 9534
3353 9535
3353 9536
3354 3355
3354 3356
3354 3357
3354 3358
3354 3359
3354 3360
3354 3361
3354 3362
3355 3356
3355 3357
3355 3358
3355 3359
3355 3360
3355 3361
3355 3362
3356 5990
3356 3357
3356 3358
3356 3359
3356 3360
3356 3361
3356 3362
3357 3358
3357 3359
3357 3360
3357 3361
3357 3362
3358 3359
3358 3360
3358 3361
3358 3362
3359 3360
3359 3361
3359 3362
3360 3361
3360 3362
3361 3362
3363 3364
3363 3365
3363 3366
3363 3367
3363 3368
3363 3369
3363 3370
3363 3371
3363 3372
3364 3366
3364 3367
3364 3371
3365 3368
3365 3369
3365 7998
3365 7999
3365 8000
3366 3367
3366 8809
3366 3371
3366 8810
3367 7137
3367 3368
3367 3370
3367 3371
3367 3372
3368 3369
3368 3370
3368 7998
3368 7999
3368 8000
3373 3374
3373 3375
3373 3376
3373 3377
3373 3378
3373 3379
3373 3380
3374 3375
3374 3376
3374 3377
3374 3378
3374 3379
3374 3380
3375 3376
3375 3377
3375 3378
3375 3379
3375 3380
3376 4451
3376 4452
3376 4456
3376 4457
3376 4458
3376 3377
3376 3378
3376 3379
3376 3380
3377 3378
3377 3379
3377 3380
3378 3379
3378 3380
3379 3380
3381 3382
3381 3383
3382 4171
3382 9249
3382 9250
3382 9251
3382 9252
3382 9253
3382 3383
3384 4431
3384 3385
3384 4655
3384 3387
3384 4446
3384 4656
3384 4657
3385 4431
3385 4655
3385 4656
3385 4657
3386 9050
3386 3387
3386 9051
3386 9052
3386 3388
3388 9050
3388 9051
3388 9052
3389 3390
3389 3392
3389 3394
3389 3395
3389 3396
3389 3397
3390 3392
3390 3394
3390 3395
3390 3396
3390 3397
3391 4996
3391 3392
3391 3393
3392 3393
3392 3394
3392 3395
3392 3396
3392 3397
3394 3395
3394 3396
3394 3397
3395 3396
3395 3397
3396 3397
3398 6429
3398 6430
3398 6431
3398 6432
3399 3400
3399 3401
3399 3402
3399 3403
3399 3404
3399 3405
3400 3604
3400 3605
3400 3606
3400 3607
3400 3608
3401 3402
3401 3403
3401 3404
3401 3405
3402 3403
3402 3404
3402 3405
3403 3404
3403 3405
3404 3405
3406 3407
3406 3408
3406 3409
3406 3410
3407 7405
3407 9073
3407 7407
3407 9074
3407 9075
3407 9076
3408 3409
3408 3410
3409 3410
3411 3412
3411 3413
3411 3414
3411 3415
3412 3413
3412 3414
3412 3415
3412 8541
3412 9565
3412 8548
3412 8951
3412 8952
3413 5888
3413 5889
3413 5386
3413 5714
3413 9597
3413 9598
3413 3414
3413 9599
3413 9600
3413 3415
3413 5891
3413 9601
3413 5893
3413 8541
3413 9602
3413 9603
3413 9604
3413 9565
3413 8543
3413 8544
3413 8548
3413 8951
3413 8952
3414 9599
3414 3415
3414 9601
3414 8541
3414 9602
3414 9603
3414 8548
3414 8951
3414 8952
3415 8541
3415 9602
3415 9603
3415 9604
3415 8548
3416 3417
3416 3418
3416 3419
3416 3420
3416 3421
3417 4380
3417 3418
3417 3419
3417 3420
3417 10170
3417 3421
3417 10171
3418 3419
3418 3420
3418 3421
3419 3420
3419 3421
3420 3421
3422 3423
3422 3424
3422 3425
3422 3426
3422 3427
3422 3428
3423 3424
3423 3425
3423 3426
3423 3427
3423 3428
3424 3425
3424 3426
3424 3427
3424 3428
3425 3426
3425 3427
3425 3428
3426 3427
3426 3428
3427 3428
3429 3430
3429 3431
3429 3432
3429 3433
3429 3434
3429 3435
3429 3436
3429 3437
3429 3438
3430 5012
3430 3432
3430 5013
3430 5014
3430 5015
3430 5016
3430 5017
3431 3432
3431 3434
3431 3435
3432 3433
3432 3434
3432 3435
3432 3436
3432 3437
3432 3438
3432 5017
3433 3436
3433 3437
3433 3438
3434 4769
3434 3435
3436 3437
3437 3438
3439 3440
3439 3441
3439 3442
3439 3443
3439 3444
3439 3445
3439 3446
3439 3447
3440 3442
3440 4490
3440 4491
3440 3443
3440 3444
3440 3445
3441 5176
3441 5177
3442 3443
3442 3444
3442 3445
3443 3444
3443 3445
3443 3446
3443 3447
3444 3445
3446 3447
3448 3449
3448 3450
3448 3451
3448 3452
3448 3453
3448 3454
3449 3450
3449 3451
3449 3454
3450 3451
3452 3453
3452 8069
3452 9766
3452 11227
3452 11228
3452 11229
3452 11230
3452 11231
3452 11232
3452 11233
3452 11234
3452 11235
3453 11059
3453 11060
3453 11061
3453 11236
3453 11237
3454 7322
3454 11687
3454 11688
3454 7323
3454 11689
3454 7324
3454 11690
3454 7325
3455 3456
3457 3463
3457 3464
3458 3461
3458 7855
3459 3461
3459 3462
3459 3463
3461 3462
3461 7855
3461 3466
3461 3467
3462 3463
3463 3464
3465 3468
3465 3469
3466 3467
3468 3469
3470 3471
3470 3472
3470 3473
3470 3474
3470 3475
3470 3476
3470 3477
3470 3478
3470 3479
3470 3480
3470 3481
3471 3472
3471 3473
3471 3474
3471 3475
3471 3476
3471 3477
3471 3478
3471 3479
3471 3480
3471 3481
3472 3473
3472 3474
3472 3475
3472 3476
3472 3477
3472 3478
3472 3479
3472 3480
3472 3481
3473 3474
3473 3475
3473 3476
3473 3477
3473 3478
3473 3479
3473 3480
3473 3481
3474 3475
3474 3476
3474 3477
3474 3478
3474 3479
3474 3480
3474 3481
3475 3476
3475 3477
3475 3478
3475 3479
3475 3480
3475 3481
3476 3477
3476 3478
3476 3479
3476 3480
3476 3481
3477 3478
3477 3479
3477 3480
3477 3481
3478 3479
3478 3480
3478 3481
3479 3480
3479 3481
3480 3481
3482 3483
3482 3484
3482 3485
3482 3486
3482 3487
3482 3488
3482 3489
3482 3490
3482 3491
3483 3484
3483 3487
3483 3488
3483 3489
3483 10268
3483 3490
3483 10269
3483 10270
3484 3487
3484 3488
3484 3489
3484 10268
3484 3490
3484 10269
3484 10270
3485 3486
3485 3491
3486 3491
3487 3488
3487 3489
3487 10268
3487 3490
3487 10269
3487 10270
3488 3489
3488 10268
3488 10269
3488 10270
3489 10268
3489 3490
3489 10269
3489 10270
3492 3493
3492 3494
3492 3495
3492 3496
3492 3497
3492 3498
3492 3499
3492 3500
3492 3501
3493 3494
3493 3495
3493 3496
3494 3495
3494 3496
3495 3496
3497 3498
3497 3499
3497 3500
3497 3501
3498 3499
3498 3500
3498 3501
3499 3500
3499 3501
3500 3501
3502 3503
3502 3504
3502 3505
3502 3506
3502 3507
3502 3508
3502 3509
3502 3510
3502 3511
3503 3504
3503 3505
3503 3506
3503 3507
3503 3508
3503 3509
3503 3510
3503 3511
3504 3505
3504 3506
3504 3507
3504 3508
3504 3509
3504 3510
3504 3511
3505 3506
3505 3507
3505 3508
3505 3509
3505 3510
3505 3511
3506 3507
3506 3508
3506 3509
3506 3510
3506 3511
3507 3508
3507 3509
3507 3510
3507 3511
3508 3509
3508 3510
3508 3511
3509 3510
3509 3511
3510 3511
3512 9340
3512 5508
3512 3513
3512 3514
3512 3515
3513 3514
3513 3515
3514 3515
3516 3517
3516 3518
3516 3519
3516 3520
3516 3521
3516 3522
3516 3523
3517 3518
3517 3519
3517 3520
3517 3521
3517 3522
3517 4087
3517 4088
3517 4089
3517 4090
3518 3519
3518 3520
3518 3521
3518 3522
3518 4087
3518 4088
3518 4089
3519 3520
3519 3521
3519 3522
3520 3521
3520 3522
3521 3522
3522 4090
3524 3525
3524 3526
3524 3527
3524 3528
3524 3529
3524 3530
3524 3531
3524 3532
3525 3526
3525 3527
3525 3528
3525 3529
3525 3530
3525 3531
3525 3532
3526 3527
3526 3528
3526 3529
3526 3530
3526 3531
3526 3532
3527 3528
3527 3529
3527 3530
3527 3531
3527 3532
3528 3529
3528 3530
3528 3531
3528 3532
3529 3530
3529 3531
3529 3532
3530 3531
3530 3532
3531 3532
3533 3534
3533 3535
3533 3536
3533 3537
3533 3538
3533 3539
3533 3540
3533 3541
3533 3542
3533 3543
3533 3544
3534 3535
3534 4969
3534 4970
3534 4971
3534 4972
3535 4969
3535 4970
3535 4971
3535 4972
3536 3537
3536 3538
3536 3539
3536 3541
3536 3542
3536 3543
3536 3544
3537 3538
3537 3539
3537 3541
3537 3542
3537 3543
3537 3544
3538 3539
3538 3541
3538 3542
3538 3543
3538 3544
3539 7847
3539 3541
3539 3542
3539 3543
3539 3544
3540 4785
3540 7603
3540 9132
3540 7526
3540 7604
3540 7527
3540 7528
3541 3542
3541 3543
3541 3544
3542 3543
3542 3544
3543 3544
3545 3546
3545 3547
3545 3548
3545 3549
3545 3550
3545 3551
3545 3552
3545 3553
3545 3554
3545 3555
3545 3556
3545 3557
3545 3558
3545 3559
3545 3560
3545 3561
3545 3562
3545 3563
3545 3564
3545 3565
3545 3566
3545 3567
3546 3548
3546 3549
3546 3550
3546 3551
3546 3552
3546 3553
3546 3554
3546 3555
3546 3556
3546 3557
3546 3558
3546 3559
3547 3548
3547 3560
3547 3561
3547 3562
3547 3563
3547 3564
3547 3566
3547 3567
3548 3549
3548 3550
3548 3551
3548 3552
3548 3553
3548 3554
3548 3555
3548 3556
3548 3557
3548 3558
3548 3559
3549 3550
3549 3551
3549 3552
3549 3553
3549 3554
3549 3555
3549 3556
3549 3557
3549 3558
3549 3559
3550 10040
3550 3551
3550 3552
3550 3553
3550 3554
3550 3555
3550 3556
3550 3557
3550 3558
3550 3559
3551 10040
3551 3552
3551 3553
3551 3554
3551 3555
3551 3556
3551 3557
3551 3558
3551 3559
3552 3553
3552 3554
3552 3555
3552 3556
3552 3557
3552 3558
3552 3559
3553 3554
3553 3555
3553 3556
3553 3557
3553 3558
3553 3559
3554 3555
3554 3556
3554 3557
3554 3558
3554 3559
3555 4814
3555 3556
3555 3557
3555 3558
3555 3559
3556 3557
3556 3558
3556 3559
3557 3558
3557 3559
3558 3559
3560 3561
3560 3562
3560 3563
3560 3564
3560 3566
3560 3567
3561 3562
3561 3563
3561 3564
3561 3565
3561 3566
3561 3567
3562 3563
3562 3564
3562 3566
3562 3567
3563 3564
3563 3566
3563 3567
3564 3565
3564 3566
3564 3567
3565 6189
3565 6190
3565 6191
3565 6192
3565 6195
3565 3566
3566 3567
3568 3569
3568 3570
3568 3571
3569 3570
3569 5618
3569 3571
3570 5618
3570 3571
3570 11267
3570 11268
3570 11269
3570 11270
3572 3573
3574 3575
3576 3577
3576 3578
3576 3579
3576 3580
3576 3581
3576 3582
3576 3583
3576 3584
3576 3585
3576 3586
3576 3587
3576 3588
3576 3589
3576 3590
3576 3591
3576 3592
3577 3578
3577 3579
3577 3580
3577 3581
3577 3582
3577 3584
3577 3585
3577 3586
3577 3587
3577 3588
3577 3589
3577 3590
3577 3591
3577 3592
3578 3579
3578 3580
3578 3581
3578 3582
3578 3583
3578 3584
3578 3585
3578 3586
3578 3587
3578 3588
3578 3589
3578 3590
3578 3591
3578 3592
3579 3580
3579 3581
3579 3582
3579 3583
3579 3584
3579 3585
3580 3581
3580 3582
3580 3584
3580 3585
3580 3586
3580 3587
3580 3588
3580 3590
3581 3582
3581 3584
3581 3585
3581 3586
3581 3587
3581 3588
3581 3590
3582 3584
3582 3585
3582 3586
3582 3587
3582 3588
3582 3590
3584 3585
3584 3586
3584 3587
3584 3588
3584 3590
3586 3587
3586 3588
3586 3590
3587 3588
3587 3590
3588 3590
3589 3590
3589 3591
3589 3592
3590 3591
3590 3592
3591 3592
3593 3594
3593 3595
3593 3596
3593 3597
3593 3598
3593 3599
3593 3600
3593 3601
3593 3602
3593 3603
3594 3596
3594 3597
3594 3598
3594 3599
3594 3600
3594 3601
3594 3602
3594 3603
3595 5943
3595 5944
3595 5945
3595 3598
3596 3597
3596 3598
3596 3599
3596 3600
3596 3601
3596 3602
3596 3603
3597 5381
3597 5383
3597 3598
3597 3599
3597 3600
3597 3601
3597 3602
3597 3603
3598 3599
3598 3600
3598 3601
3598 3602
3598 3603
3599 3600
3599 3601
3599 3602
3599 3603
3600 3601
3600 3602
3600 3603
3601 3602
3601 3603
3602 3603
3604 3605
3606 3607
3606 3608
3607 3608
3609 3610
3609 3611
3609 3612
3609 3613
3609 3614
3609 3615
3610 3611
3610 3612
3610 3613
3610 3614
3610 3615
3611 3612
3611 3613
3611 3614
3611 3615
3612 3613
3612 3614
3612 3615
3613 3614
3613 3615
3614 3615
3616 3617
3616 3618
3617 3618
3619 6398
3619 6399
3619 6400
3619 6401
3619 6402
3620 3621
3620 3622
3620 3623
3620 3624
3620 3625
3620 3626
3620 3627
3620 3628
3620 3629
3620 3630
3620 3631
3620 3632
3620 3633
3620 3634
3620 3635
3620 3636
3621 5207
3621 3622
3621 3623
3621 3624
3621 3625
3621 3626
3621 3627
3621 3628
3621 3629
3621 3630
3621 3631
3621 3632
3621 3633
3621 3634
3621 3635
3621 3636
3622 3623
3622 3624
3622 3625
3622 3626
3622 3627
3622 3628
3622 3629
3622 3630
3622 3631
3622 3632
3622 3633
3622 3634
3622 3635
3622 3636
3623 3624
3623 3625
3623 3626
3623 3627
3623 3628
3623 3629
3623 3630
3623 3631
3623 3632
3623 3633
3623 3634
3623 3635
3623 3636
3624 3625
3624 3626
3624 3627
3624 3628
3624 3629
3624 3630
3624 3631
3624 3632
3624 3633
3624 3634
3624 3635
3624 3636
3625 3626
3625 3627
3625 3628
3625 3629
3625 3630
3625 3631
3625 3632
3625 3633
3625 3634
3625 3635
3625 3636
3626 3627
3626 3628
3626 3629
3626 3630
3626 3631
3626 3632
3626 3633
3626 3634
3626 3635
3626 3636
3627 3628
3627 3629
3627 3630
3627 3631
3627 3632
3627 3633
3627 3634
3627 3635
3627 3636
3628 3629
3628 3630
3628 3631
3628 3632
3628 3633
3628 3634
3628 3635
3628 3636
3629 3630
3629 3631
3629 3632
3629 3633
3629 3634
3629 3635
3629 3636
3630 3631
3630 3632
3630 3633
3630 3634
3630 3635
3630 3636
3631 3632
3631 3633
3631 3634
3631 3635
3631 3636
3632 3633
3632 3634
3632 3635
3632 3636
3633 3634
3633 3635
3633 3636
3634 3635
3634 3636
3635 3636
3637 3638
3637 3639
3637 3640
3637 3641
3637 3642
3638 3639
3638 3640
3638 3641
3638 3642
3639 3640
3639 3641
3639 3642
3640 3641
3640 3642
3641 3642
3643 3644
3643 3645
3643 3646
3643 3647
3644 3645
3644 3647
3644 6110
3644 6111
3645 3646
3645 3647
3646 7774
3646 7775
3646 7776
3648 3649
3648 3650
3648 3651
3648 3652
3648 3653
3648 3654
3648 3655
3648 3656
3648 3657
3648 3658
3648 3659
3648 3660
3648 3661
3648 3662
3648 3663
3648 3664
3649 3650
3649 3651
3649 3652
3649 3653
3649 3654
3649 3655
3649 3656
3649 3657
3649 3658
3649 3659
3649 3660
3649 3661
3649 3662
3649 3663
3649 3664
3650 3651
3650 3652
3650 3653
3650 3654
3650 3655
3650 3656
3650 3657
3650 3658
3650 3659
3650 3660
3650 3661
3650 3662
3650 3663
3650 3664
3651 3652
3651 3653
3651 3654
3651 3655
3651 3656
3651 3657
3651 3658
3651 3659
3651 3660
3651 3661
3651 3662
3651 3663
3651 3664
3652 3653
3652 3654
3652 3655
3652 3656
3652 3657
3652 3658
3652 3659
3652 3660
3652 3661
3652 3662
3652 3663
3652 3664
3653 3654
3653 3655
3653 3656
3653 3657
3653 3658
3653 3659
3653 3660
3653 3661
3653 3662
3653 3663
3653 3664
3654 3655
3654 3656
3654 3657
3654 3658
3654 3659
3654 3660
3654 3661
3654 3662
3654 3663
3654 3664
3655 3656
3655 3657
3655 3658
3655 3659
3655 3660
3655 3661
3655 3662
3655 3663
3655 3664
3656 3657
3656 3658
3656 3659
3656 3660
3656 3661
3656 3662
3656 3663
3656 3664
3657 3658
3657 3659
3657 3660
3657 3661
3657 3662
3657 3663
3657 3664
3658 3659
3658 3660
3658 3661
3658 3662
3658 3663
3658 3664
3659 3660
3659 3661
3659 3662
3659 3663
3659 3664
3660 3661
3660 3662
3660 3663
3660 3664
3661 3662
3661 3663
3661 3664
3662 3663
3662 3664
3663 3664
3665 3666
3665 3667
3665 3668
3665 3669
3666 3667
3666 3668
3666 3669
3667 3668
3667 3669
3668 3669
3670 6556
3670 6621
3670 6622
3670 6623
3670 6624
3670 6625
3671 3672
3671 3673
3671 3674
3671 3675
3672 11108
3672 11109
3673 11108
3673 11173
3673 3674
3673 11174
3673 3675
3674 11108
3674 11173
3674 11174
3674 3675
3676 3677
3676 3678
3676 3679
3676 3680
3677 3678
3677 3679
3677 3680
3678 3679
3678 3680
3679 3680
3681 3682
3681 3683
3681 3684
3682 3683
3682 3684
3683 3684
3685 3686
3685 3687
3685 3688
3685 3689
3685 3690
3685 3691
3686 7289
3686 7290
3686 7291
3686 7292
3686 7293
3686 7294
3686 7295
3686 7296
3687 3688
3687 3689
3687 3690
3687 3691
3688 3689
3688 3690
3688 3691
3689 3690
3689 3691
3690 3691
3692 3693
3692 3694
3693 3763
3693 3764
3693 3766
3693 3694
3693 3767
3693 3768
3693 3769
3693 3770
3693 3771
3693 3772
3695 6033
3695 6039
3695 6048
3695 9097
3696 3988
3696 3993
3696 3995
3696 4000
3696 4001
3696 4002
3697 4949
3697 3699
3698 4948
3698 4949
3698 4950
3698 4951
3698 4952
3698 4953
3698 4954
3698 4955
3700 3701
3700 3702
3700 3703
3700 3704
3700 3705
3700 3706
3700 3707
3700 3708
3700 3709
3700 3710
3700 3711
3700 3712
3700 3713
3700 3714
3701 3702
3701 3703
3701 3704
3701 3705
3701 3706
3701 3707
3701 3708
3701 3709
3701 3710
3701 3711
3701 3712
3701 3713
3701 3714
3702 3703
3702 3704
3702 3705
3702 3706
3702 3707
3702 3708
3702 3709
3702 3710
3702 3711
3702 3712
3702 3713
3702 3714
3703 3704
3703 3705
3703 3706
3703 3707
3703 3708
3703 3709
3703 3710
3703 3711
3703 3712
3703 3713
3703 3714
3704 3705
3704 3706
3704 3707
3704 3708
3704 3709
3704 3710
3704 3711
3704 3712
3704 3713
3704 3714
3705 3706
3705 3707
3705 3708
3705 3709
3705 3710
3705 3711
3705 3712
3705 3713
3705 3714
3706 3707
3706 3708
3706 3709
3706 3710
3706 3711
3706 3712
3706 3713
3706 3714
3707 3708
3707 3709
3707 3710
3707 3711
3707 3712
3707 3713
3707 3714
3708 3709
3708 3710
3708 3711
3708 3712
3708 3713
3708 3714
3709 3710
3709 3711
3709 3712
3709 3713
3709 3714
3710 3711
3710 3712
3710 3713
3710 3714
3711 3712
3711 3713
3711 3714
3712 3713
3712 3714
3713 3714
3715 6551
3715 6552
3716 3717
3716 3718
3716 3719
3716 3720
3717 3718
3717 5559
3718 5401
3718 5559
3718 9345
3719 3720
3721 3722
3721 3723
3721 3724
3721 3725
3721 3726
3722 3723
3722 3725
3722 3726
3723 3724
3723 3725
3723 3726
3725 3726
3727 3728
3727 3729
3727 3730
3727 3731
3727 3732
3727 3733
3728 7850
3728 7851
3728 3729
3728 3730
3728 7852
3728 7853
3728 3731
3728 3732
3728 3733
3729 3730
3729 3731
3729 3732
3729 3733
3730 9503
3730 9504
3730 9506
3730 3731
3730 3732
3730 3733
3731 3732
3731 3733
3732 3733
3734 3735
3734 3736
3734 3737
3734 3738
3734 3739
3734 3740
3735 3737
3735 3738
3735 3739
3735 3740
3736 10000
3736 10001
3736 10002
3736 10003
3736 10004
3737 3738
3737 3739
3737 3740
3738 3739
3738 3740
3739 3740
3741 3742
3741 3743
3741 3744
3741 3745
3741 3746
3742 5910
3742 5911
3742 6169
3742 3743
3742 6170
3742 6171
3742 3745
3742 6172
3742 3746
3742 6173
3742 6174
3743 6170
3743 3744
3745 5911
3745 6170
3745 6171
3745 3746
3746 6170
3747 7402
3747 8616
3748 7945
3748 3750
3751 3752
3751 3753
3751 3754
3751 3755
3752 3753
3752 3754
3752 3755
3753 3754
3753 3755
3754 3755
3756 3757
3757 3758
3757 3759
3757 3760
3757 3761
3757 3762
3758 3759
3761 3762
3763 3764
3763 3765
3763 3766
3763 3767
3763 3768
3763 3769
3763 3770
3763 3771
3763 3772
3764 8049
3764 8050
3764 3766
3764 3767
3764 3768
3764 3769
3764 3770
3764 3771
3764 3772
3765 4650
3765 4012
3765 10165
3765 4013
3766 3767
3766 3768
3766 3769
3766 3770
3766 3771
3766 3772
3767 3768
3767 3769
3767 3770
3767 3771
3767 3772
3768 3769
3768 3770
3768 3771
3768 3772
3769 3770
3769 3771
3769 3772
3770 3771
3770 3772
3771 3772
3773 4249
3773 4251
3773 7937
3773 7938
3773 7939
3773 7940
3773 7941
3774 3775
3774 3776
3774 3777
3774 3778
3774 3779
3774 3780
3775 3776
3775 3778
3775 3780
3775 7876
3775 7877
3777 3779
3778 3780
3778 7876
3780 7876
3780 7877
3781 3782
3781 3783
3781 3784
3781 3785
3781 3786
3781 3787
3781 3788
3782 7875
3783 4671
3783 3784
3783 3785
3783 3786
3783 3787
3783 3788
3784 3785
3784 3786
3784 3787
3784 3788
3785 3786
3785 3787
3785 3788
3786 3787
3786 3788
3787 3788
3790 3818
3790 4682
3791 3792
3791 3793
3791 3794
3791 3795
3791 3796
3791 3797
3791 3798
3791 3799
3791 3800
3791 3801
3791 3802
3791 3803
3792 3793
3792 3794
3792 3795
3792 3796
3792 3797
3792 3798
3792 3799
3792 3800
3792 3801
3792 3802
3792 3803
3793 3794
3793 3795
3793 3796
3793 3797
3793 3798
3793 3799
3793 3800
3793 3801
3793 3802
3793 3803
3794 3795
3794 4705
3794 3796
3794 4706
3794 4707
3794 4708
3794 4709
3795 3796
3795 3797
3795 3798
3795 3799
3795 3800
3795 3801
3795 3802
3795 3803
3796 4705
3796 4707
3796 4708
3796 4709
3797 6582
3797 3798
3797 3799
3797 3800
3797 3801
3797 3802
3797 6584
3797 6585
3797 6586
3797 6587
3797 6588
3797 6589
3798 3799
3798 3800
3798 3801
3798 3802
3799 3800
3799 3801
3799 3802
3800 3801
3800 3802
3801 3802
3803 10861
3803 10862
3803 10863
3803 5000
3803 10864
3804 6555
3804 3806
3805 7578
3805 5714
3805 8754
3805 7516
3805 7517
3805 8726
3805 7518
3805 9558
3805 7519
3805 9559
3805 9560
3805 7520
3806 6555
3807 3808
3807 3809
3807 3810
3807 3811
3807 3812
3807 3813
3808 3809
3808 3810
3808 3811
3808 3812
3808 3813
3809 3810
3809 3811
3809 3812
3809 3813
3810 3811
3810 3812
3810 3813
3811 3812
3811 3813
3812 3813
3814 3815
3814 3816
3814 3817
3815 4341
3815 3817
3816 10023
3816 10024
3816 10025
3816 10026
3816 10027
3816 10028
3818 4682
3819 3820
3819 3821
3819 3822
3819 3823
3819 3824
3819 3825
3819 3826
3820 3821
3820 3822
3820 3823
3820 3824
3820 3825
3820 3826
3820 3827
3820 3828
3821 3822
3821 3823
3821 3824
3821 3825
3821 3826
3822 3823
3822 3824
3822 3825
3822 3826
3823 3824
3823 3825
3823 3826
3824 3825
3824 3826
3825 3826
3827 3828
3829 3830
3829 3831
3829 3832
3829 3833
3829 3834
3829 3835
3830 3831
3830 3832
3830 3833
3830 3834
3830 3835
3831 3832
3831 3833
3831 3834
3831 3835
3832 3833
3832 3834
3832 3835
3833 3834
3833 3835
3833 3887
3834 3835
3836 3837
3836 3838
3836 3839
3836 3840
3836 3841
3837 3838
3837 3839
3837 3840
3837 3841
3838 3839
3838 3840
3838 3841
3839 3840
3839 3841
3840 3841
3842 11180
3842 11181
3842 11182
3842 11183
3842 11184
3843 3844
3843 3845
3843 3846
3843 3847
3843 3848
3843 3849
3843 3850
3844 9686
3844 9687
3844 9688
3844 9689
3844 9690
3844 3848
3845 3846
3845 3847
3845 3848
3845 3849
3845 3850
3846 3847
3846 3848
3846 3849
3846 3850
3847 3848
3847 3849
3847 3850
3848 3849
3848 3850
3849 3850
3851 3852
3851 3853
3851 3854
3851 3855
3851 3856
3851 3857
3851 3858
3851 3859
3851 3860
3851 3861
3851 3862
3851 3863
3851 3864
3851 3865
3851 3866
3851 3867
3851 3868
3851 3869
3851 3870
3851 3871
3851 3872
3851 3873
3851 3874
3851 3875
3851 3876
3852 3853
3852 3855
3852 3856
3852 3857
3852 4003
3852 3860
3852 3862
3852 3863
3852 3864
3852 3865
3853 3855
3853 3860
3853 3862
3853 3863
3853 3874
3854 3857
3854 3858
3854 3859
3854 3861
3854 3863
3854 3869
3854 3872
3854 3873
3854 3876
3855 3856
3855 3860
3855 3862
3855 3864
3856 3857
3856 4003
3856 3862
3856 3863
3856 3864
3856 3865
3857 3862
3857 3863
3857 3864
3857 3865
3857 3875
3858 3861
3858 3869
3858 3872
3858 3873
3858 3876
3859 6472
3859 3866
3859 3867
3859 6473
3860 3862
3861 3869
3861 3872
3861 3873
3861 3876
3862 3863
3862 3864
3862 3865
3863 3864
3863 3865
3863 3875
3864 4003
3864 3865
3866 6472
3866 3867
3866 6473
3867 6472
3867 6473
3868 3870
3868 3871
3869 3872
3869 3873
3869 3876
3870 3871
3872 3873
3872 3876
3873 3876
3877 3878
3877 3879
3877 3880
3877 3881
3877 3882
3877 3883
3877 3884
3877 3885
3877 3886
3878 3879
3878 3880
3878 3881
3878 3882
3878 3883
3878 3884
3878 3885
3878 3886
3879 3880
3880 7842
3880 3881
3880 8554
3881 3882
3881 3883
3881 3884
3881 3885
3881 3886
3882 3883
3882 3884
3882 3885
3882 3886
3883 3884
3883 3885
3883 3886
3884 3885
3884 3886
3885 3886
3887 4459
3887 4461
3887 4462
3887 4463
3887 4464
3887 4465
3887 4466
3887 4467
3888 3889
3888 3890
3888 3891
3888 3892
3888 3893
3888 3894
3888 3895
3888 3896
3888 3897
3888 3898
3888 3899
3888 3900
3888 3901
3888 3902
3889 3890
3889 3895
3890 3895
3891 3893
3891 3894
3891 3895
3892 3895
3892 3896
3892 3897
3892 3898
3892 3899
3892 3900
3892 3901
3894 3895
3895 3896
3895 3897
3895 3898
3895 3899
3895 3900
3895 3901
3895 3902
3896 3897
3896 3898
3896 3899
3896 3900
3896 3901
3897 3898
3897 3899
3897 3900
3897 3901
3898 3899
3898 3900
3898 3901
3899 3900
3899 3901
3900 3901
3903 3904
3903 3905
3903 3906
3903 3907
3903 3908
3903 3909
3903 3910
3904 4149
3904 3905
3904 3906
3904 3907
3904 3908
3904 3909
3904 3910
3905 3906
3905 3907
3905 3908
3905 3909
3905 3910
3906 3907
3906 3908
3906 3909
3906 3910
3907 3908
3907 3909
3907 3910
3908 3909
3908 3910
3909 3910
3911 3912
3913 5207
3913 5223
3913 5682
3913 5683
3913 5684
3913 5685
3913 5686
3913 5687
3913 5688
3913 5689
3913 5690
3913 5691
3913 5692
3914 3915
3914 3916
3914 3917
3914 3918
3915 3916
3915 3917
3915 3918
3916 3917
3916 3918
3917 3918
3919 3920
3919 3921
3919 3922
3919 3923
3919 3924
3919 3925
3919 3926
3919 3927
3919 3928
3919 3929
3919 3930
3919 3931
3919 3932
3919 3933
3919 3934
3919 3935
3920 10009
3920 3924
3920 3925
3920 3930
3920 3931
3920 3932
3920 3934
3921 3929
3921 3935
3922 10255
3922 10257
3922 10258
3922 3923
3922 3924
3922 3925
3922 3930
3923 3924
3923 3925
3923 3930
3924 3925
3924 3930
3925 3930
3926 11454
3926 11455
3926 3930
3929 3935
3929 11534
3930 11454
3930 11455
3931 3932
3931 3934
3932 3934
3935 11534
3936 8380
3936 7917
3936 8382
3936 8383
3936 9077
3936 3938
3936 3939
3936 3940
3936 3941
3936 3942
3937 8991
3937 8992
3937 8993
3937 8994
3937 8995
3937 8996
3937 8997
3938 3939
3938 3940
3938 3941
3938 3942
3939 3940
3939 3941
3939 3942
3940 3941
3940 3942
3941 3942
3943 4366
3943 4367
3943 6237
3943 6238
3943 6239
3943 5061
3943 6240
3943 6241
3943 6242
3943 6243
3944 5551
3944 7059
3944 7060
3945 5996
3945 3948
3945 5997
3945 3951
3945 3952
3945 3953
3945 3955
3945 3956
3946 8332
3946 3950
3946 8333
3946 8334
3946 3953
3946 3955
3946 3957
3946 3958
3947 6354
3947 6355
3947 6356
3947 6357
3947 9675
3947 3953
3947 9676
3947 6358
3947 6359
3947 6360
3947 6361
3947 6362
3947 6363
3947 6364
3947 6365
3948 3951
3948 3952
3948 3953
3948 3955
3948 3956
3949 7059
3949 3954
3950 8332
3950 8333
3950 8334
3950 3953
3950 3955
3950 3957
3950 3958
3951 5996
3951 5997
3951 7549
3951 3952
3951 3953
3951 3955
3951 3956
3951 7551
3951 7552
3951 7553
3951 7554
3951 7555
3952 5996
3952 5997
3952 3953
3952 3955
3952 3956
3953 6239
3953 6437
3953 7549
3953 7550
3953 3955
3953 3956
3953 6440
3953 7551
3953 7552
3953 7553
3953 7554
3953 7555
3953 3957
3953 3958
3955 7550
3955 3956
3955 3957
3956 5996
3956 5997
3957 7550
3957 3958
3959 5463
3959 5464
3959 5465
3959 5466
3959 5467
3959 5468
3960 3961
3960 3962
3960 3963
3960 3964
3961 3962
3961 3963
3961 3964
3962 4662
3962 4663
3962 3963
3962 3964
3963 5163
3963 5164
3963 5165
3963 5166
3963 3964
3963 5167
3965 4417
3965 4418
3965 4419
3965 4420
3965 4421
3965 4422
3965 4423
3965 4424
3965 4425
3965 4426
3965 4427
3965 4428
3965 4429
3965 4430
3966 3967
3968 3969
3968 3970
3968 3971
3968 3972
3968 3973
3969 3970
3969 3971
3969 3972
3969 3973
3970 3971
3970 3972
3970 3973
3971 3972
3971 10810
3971 3973
3971 10811
3972 3973
3974 3975
3974 3976
3974 3977
3974 3978
3974 3979
3974 3980
3975 3977
3975 3978
3975 3980
3976 3977
3976 3979
3977 3978
3977 3979
3977 3980
3978 3980
3982 3983
3982 3984
3982 3985
3982 3986
3982 3987
3983 3984
3983 3985
3983 3986
3983 3987
3984 3985
3984 3986
3984 3987
3985 7992
3985 3986
3985 3987
3986 3987
3988 3989
3988 3990
3988 3991
3988 3992
3988 3993
3988 3994
3988 3995
3988 3996
3988 3997
3988 3998
3988 3999
3988 4000
3988 4001
3988 4002
3989 3990
3989 3991
3989 3992
3989 3994
3989 3996
3989 3997
3989 3998
3989 3999
3990 3996
3991 3992
3993 3995
3993 4000
3993 4001
3993 4002
3994 3998
3994 3999
3995 4000
3995 4001
3995 4002
3998 3999
4000 4001
4000 4002
4001 4002
4003 8312
4003 8313
4003 8314
4003 10421
4003 10422
4003 10423
4003 10424
4004 4005
4004 4006
4004 4007
4004 4008
4004 4009
4004 4010
4005 4006
4005 4007
4005 4008
4005 4009
4005 4010
4006 4007
4006 4008
4006 4009
4006 4010
4007 4008
4007 4009
4007 4010
4008 4009
4008 4010
4009 4010
4011 4012
4011 4013
4011 4014
4011 4015
4011 4016
4011 4017
4012 4013
4012 4014
4012 4015
4012 4016
4012 4017
4013 10165
4013 4014
4013 4015
4013 4016
4013 4017
4014 4015
4014 4016
4014 4017
4015 4016
4015 4017
4016 4017
4018 4019
4018 4020
4018 4021
4018 4022
4019 4020
4019 7599
4019 4021
4019 4022
4020 4021
4020 8242
4020 8243
4020 4022
4021 4022
4023 4024
4023 4025
4023 4026
4023 4027
4024 4025
4024 4026
4024 4027
4025 4026
4025 4027
4026 4027
4028 5230
4028 9099
4028 5233
4028 9100
4028 9101
4028 9102
4029 4030
4029 4031
4029 4032
4029 4033
4030 4031
4030 4032
4030 4033
4031 4032
4031 4033
4032 4033
4034 4035
4034 4036
4035 9974
4035 4036
4036 9974
4036 9976
4036 9977
4037 4038
4037 4039
4037 4040
4037 4041
4037 4042
4037 4043
4037 4044
4038 4039
4038 4040
4038 4041
4038 4042
4038 4043
4038 5628
4038 4044
4039 4040
4039 4041
4039 4042
4039 4043
4039 4044
4040 4533
4040 4041
4040 4042
4040 4043
4040 4044
4041 4042
4041 4043
4041 4044
4042 4043
4042 4044
4043 4044
4045 4046
4048 4049
4048 4050
4048 4051
4048 4052
4048 4053
4048 4054
4048 4055
4048 4056
4049 4050
4049 4051
4049 4052
4049 4053
4049 4054
4049 4055
4049 4056
4050 4051
4050 4052
4050 4053
4050 4054
4050 4055
4050 4056
4051 4052
4051 4053
4052 4053
4054 4055
4054 4056
4055 4056
4057 4058
4057 4059
4057 4060
4057 4061
4057 4062
4057 4063
4057 4064
4058 8067
4058 8068
4059 4060
4059 4061
4059 4062
4059 4063
4059 4064
4060 4061
4060 4062
4060 4063
4060 4064
4061 4062
4061 4063
4061 4064
4062 4063
4062 4064
4063 4064
4065 4066
4065 4067
4065 4068
4066 4068
4067 4100
4069 4070
4069 4076
4070 4073
4071 4072
4071 11085
4071 11086
4072 11085
4072 11086
4074 4075
4077 4078
4077 4079
4078 8091
4078 8092
4078 4079
4078 8093
4078 8094
4078 8095
4078 8096
4080 4081
4080 4082
4080 4083
4080 4084
4080 4085
4081 4082
4081 4083
4081 4084
4081 4085
4082 4083
4082 4084
4082 4085
4083 4084
4083 4085
4084 4085
4087 4088
4087 4089
4088 4089
4091 4092
4091 4093
4091 4094
4091 4095
4091 4096
4091 4097
4091 4098
4091 4099
4091 4100
4091 4101
4091 4102
4091 4103
4091 4104
4091 4105
4091 4106
4091 4107
4091 4108
4091 4109
4091 4110
4091 4111
4091 4112
4091 4113
4091 4114
4092 4093
4092 4101
4092 4102
4092 4103
4092 4104
4092 4105
4092 4106
4092 4107
4092 4108
4092 4109
4092 4110
4092 4111
4092 4112
4092 4113
4092 4114
4093 4104
4093 4109
4093 4110
4093 4113
4094 4097
4094 4098
4094 4099
4095 6829
4097 4098
4097 4099
4098 4099
4100 10200
4101 4102
4101 4103
4101 4104
4102 4103
4102 4104
4103 4104
4104 4109
4104 4110
4104 4111
4104 4112
4104 4113
4104 4114
4105 4106
4105 4107
4105 4108
4106 4107
4106 4108
4107 4108
4109 4110
4109 4113
4110 4113
4111 4112
4111 4114
4112 4114
4115 4116
4115 8013
4116 11710
4116 11711
4116 11712
4116 11713
4116 11714
4116 11720
4117 4118
4117 4119
4117 4120
4117 4121
4117 4122
4117 4123
4117 4124
4117 4125
4117 4126
4117 4127
4117 4128
4117 4129
4118 4692
4118 6644
4119 8459
4119 4120
4119 4121
4119 4122
4119 4123
4119 4124
4119 4125
4119 4126
4119 4127
4119 4128
4119 4129
4120 4121
4120 7219
4120 4122
4120 4123
4120 4124
4120 4125
4120 4126
4120 4127
4120 4128
4120 4129
4121 4122
4121 4123
4121 4124
4121 4125
4121 4126
4121 4127
4121 4128
4121 4129
4122 4123
4122 4124
4122 4125
4122 4126
4122 4127
4122 4128
4122 4129
4123 4124
4123 4125
4123 4126
4123 4127
4123 4128
4123 4129
4124 11107
4124 11271
4124 11272
4124 11273
4124 11274
4124 11275
4124 4125
4124 4126
4124 4127
4124 4128
4124 4129
4125 4126
4125 4127
4125 4128
4125 4129
4126 4127
4126 4128
4126 4129
4127 4128
4127 4129
4128 4129
4130 4131
4130 4132
4131 4132
4133 4134
4133 4135
4133 4136
4133 4137
4133 4138
4133 4139
4134 4135
4134 4136
4134 4137
4134 4138
4134 4139
4135 8800
4135 4136
4135 4137
4135 4138
4135 4139
4136 4137
4136 4138
4136 4139
4137 8637
4137 4138
4137 4139
4138 4139
4140 4141
4140 4142
4140 4143
4140 4144
4140 4145
4140 4146
4140 4147
4140 4148
4140 4149
4140 4150
4141 4142
4141 4143
4141 4144
4141 4145
4141 4146
4141 4147
4141 4148
4141 4149
4141 4150
4142 4143
4142 4144
4142 4145
4142 4146
4142 4147
4142 4148
4142 4149
4142 4150
4143 4144
4143 4145
4143 4146
4143 4147
4143 4148
4143 4149
4143 4150
4144 4145
4144 4146
4144 4147
4144 4148
4144 4149
4144 4150
4145 4146
4145 4147
4145 4148
4145 4149
4145 4150
4146 4147
4146 4148
4146 4149
4146 4150
4147 4148
4147 4149
4147 4150
4148 4149
4148 4150
4149 4150
4151 4152
4151 4153
4151 4154
4151 4155
4151 4156
4151 4157
4152 4158
4152 4159
4152 4160
4152 4161
4152 4162
4152 4163
4152 4164
4153 4154
4153 4155
4153 4156
4153 4157
4154 4155
4154 4156
4154 4157
4155 4156
4155 4157
4155 7362
4156 4157
4158 6267
4158 6909
4158 6910
4158 6911
4158 6912
4159 4160
4159 4161
4159 4162
4159 4163
4159 4164
4159 9187
4159 9188
4159 9189
4159 9190
4159 9191
4159 9192
4160 4161
4160 4162
4160 4163
4160 4164
4160 9188
4161 4162
4161 4163
4161 4164
4162 4163
4162 4164
4163 4164
4165 4166
4165 4167
4165 4168
4165 4169
4165 4170
4165 4171
4165 4172
4165 4173
4165 4174
4166 5018
4166 4168
4166 5019
4167 4170
4167 4171
4167 4172
4167 4173
4167 4174
4168 5018
4168 4432
4168 4436
4168 6745
4168 6746
4168 4439
4168 4441
4168 4442
4168 6747
4168 5019
4168 6748
4168 6749
4168 6750
4168 6751
4169 5984
4169 5985
4169 5986
4169 5987
4169 5988
4169 5989
4170 4171
4170 4172
4170 4173
4170 4174
4171 4172
4171 4173
4171 4174
4172 4173
4172 4174
4173 4174
4175 4176
4175 4177
4175 4178
4175 4179
4175 4180
4175 4181
4175 4182
4175 4183
4175 4184
4175 4185
4175 4186
4175 4187
4175 4188
4176 4532
4177 9815
4177 4178
4177 4182
4177 9816
4177 4187
4177 4188
4178 4182
4178 4183
4178 4187
4178 4188
4179 4180
4179 4181
4179 4184
4179 4185
4179 4186
4180 4181
4180 4184
4180 4185
4180 4186
4182 9815
4182 9816
4182 4187
4182 4188
4185 4186
4187 4188
4189 4190
4189 4191
4189 4192
4189 4193
4189 4194
4189 4195
4189 4196
4189 4197
4189 4198
4189 4199
4189 4200
4189 4201
4190 5668
4190 5669
4190 5670
4190 5671
4190 5672
4191 4193
4191 4198
4191 4201
4192 4921
4192 4923
4192 4924
4192 4925
4192 4926
4192 4927
4192 4929
4192 4931
4192 4932
4192 4933
4192 4934
4192 4938
4192 4939
4193 4198
4193 4201
4194 9397
4194 9398
4194 9399
4194 4195
4194 4196
4194 4197
4194 4198
4194 4199
4194 4200
4194 9400
4195 4196
4195 4197
4195 4198
4195 4199
4195 4200
4196 4197
4196 4198
4196 4199
4196 4200
4197 4198
4197 4199
4197 4200
4198 4199
4198 4200
4198 4201
4199 4200
4202 4203
4202 4204
4202 4205
4202 4206
4202 4207
4202 4208
4203 4204
4203 4205
4203 4209
4203 4210
4203 4207
4203 4211
4204 4205
4204 4212
4204 4209
4204 4213
4204 4214
4204 4215
4204 4216
4204 4217
4204 4218
4204 4219
4204 4220
4204 4221
4204 4222
4204 4223
4204 4224
4205 4209
4205 4206
4205 5829
4205 5830
4205 5831
4205 5832
4206 4207
4206 4208
4206 5831
4207 4209
4207 4210
4207 4211
4207 4208
4209 8370
4209 8371
4209 4210
4209 4211
4209 5831
4210 4211
4211 5831
4213 9550
4213 4216
4213 7714
4213 9551
4213 9552
4213 9553
4214 4215
4214 4219
4214 4222
4214 4223
4214 4224
4215 9124
4215 10495
4215 10496
4215 10497
4215 4217
4215 10498
4215 4219
4215 4220
4215 10499
4215 4222
4215 10500
4215 10501
4215 10502
4215 10503
4215 10504
4215 10505
4215 9126
4215 4223
4215 4224
4215 9127
4215 9128
4215 9129
4216 7942
4216 7943
4216 7944
4216 9552
4217 4219
4217 4220
4217 4222
4218 4221
4219 4222
4219 4223
4219 4224
4220 4222
4222 10504
4222 10505
4222 4223
4222 4224
4223 4224
4224 10504
4224 10505
4225 6101
4225 4368
4225 6102
4225 6103
4225 6104
4225 4558
4226 6104
4226 4227
4226 4228
4226 4229
4226 4230
4226 4231
4226 4232
4226 4233
4226 4234
4227 4228
4227 4229
4227 4230
4227 4231
4227 4232
4227 4233
4227 4234
4228 4229
4228 4230
4228 4231
4228 4232
4228 4233
4228 4234
4229 4230
4229 4231
4229 4232
4229 4233
4229 4234
4230 4231
4230 4232
4230 4233
4230 4234
4231 4232
4231 4233
4231 4234
4232 4233
4232 4234
4233 4234
4235 6244
4235 6245
4235 6246
4236 4237
4236 4238
4237 4238
4239 4240
4239 4241
4239 4242
4239 4243
4239 4244
4239 4245
4239 4246
4239 4247
4239 4248
4240 4241
4240 4242
4240 4243
4240 4244
4240 4245
4240 4246
4240 4247
4240 4248
4241 4242
4241 4243
4241 4244
4241 4245
4241 4246
4241 4247
4241 4248
4242 4243
4242 4244
4242 4245
4242 4246
4242 4247
4242 4248
4243 4244
4243 4245
4243 4246
4243 4247
4243 4248
4244 4245
4244 4246
4244 4247
4244 4248
4245 4246
4245 4247
4245 4248
4246 4247
4246 4248
4247 4248
4249 4250
4249 4251
4249 4252
4249 4253
4249 4254
4249 4255
4249 4256
4249 4257
4250 4252
4250 4253
4250 4254
4250 4255
4250 4256
4250 4257
4251 4528
4251 4529
4251 4530
4252 7474
4252 4253
4252 4254
4252 4255
4252 4256
4252 4257
4252 7476
4253 4254
4253 4255
4253 4256
4253 4257
4254 4255
4254 4256
4254 4257
4255 4256
4255 4257
4256 4257
4258 4259
4258 4260
4258 4261
4258 4262
4258 4263
4258 4264
4258 4265
4258 4266
4258 4267
4258 4268
4259 4260
4259 4261
4259 5276
4259 4262
4259 5277
4259 4263
4259 5278
4259 5279
4259 4264
4259 4265
4259 5280
4259 5281
4259 5282
4259 4266
4259 4267
4259 5283
4259 5284
4260 4261
4260 5276
4260 4960
4260 5277
4260 4265
4260 8748
4260 4268
4261 4960
4261 4265
4261 5282
4261 8748
4261 4268
4262 4264
4262 5281
4262 5282
4263 4264
4263 4267
4264 5281
4264 5282
4264 4267
4265 4960
4265 4266
4265 4268
4265 5283
4266 5280
4266 5284
4268 8748
4269 4270
4269 4271
4269 4272
4269 4273
4270 6840
4270 6841
4270 10572
4270 10573
4270 4271
4270 10574
4270 4273
4270 10575
4270 10576
4270 10577
4270 10578
4271 5634
4271 4710
4271 10717
4271 4272
4271 8396
4271 4711
4271 4712
4271 11526
4271 10937
4271 11527
4273 5695
4274 4275
4274 4276
4274 4277
4274 4278
4274 4279
4274 4280
4274 4281
4274 4282
4274 4283
4275 4277
4275 4940
4275 4941
4275 4942
4275 4943
4276 4278
4277 4279
4277 4280
4277 4281
4279 4282
4279 4283
4280 4281
4282 4283
4284 4285
4284 4286
4284 4287
4284 4288
4285 6138
4285 6139
4285 6140
4285 4286
4285 4287
4285 4288
4285 8372
4285 8373
4285 8374
4285 6141
4285 6142
4285 6143
4285 6144
4285 6194
4285 6145
4286 4287
4286 4288
4286 8372
4286 8373
4286 8374
4287 4288
4289 4290
4289 4291
4289 4292
4289 4293
4289 4294
4289 4295
4289 4296
4290 4291
4290 4292
4291 4292
4291 11845
4291 11846
4291 11847
4291 11848
4293 4294
4293 4295
4293 4296
4294 4295
4294 4296
4295 4296
4297 5309
4297 5310
4297 5311
4297 5312
4297 5313
4297 5314
4297 5315
4298 10890
4298 10891
4298 10892
4298 10893
4298 10894
4298 10895
4300 4301
4300 4302
4301 8627
4301 8629
4301 10772
4301 8632
4301 4302
4303 4304
4303 4305
4303 4306
4303 4307
4303 4308
4303 4309
4303 4310
4304 4305
4304 4306
4304 4307
4304 4308
4304 4309
4304 4311
4304 4312
4304 4313
4304 4314
4304 4315
4304 4316
4304 4317
4304 4310
4304 4318
4305 4309
4305 4311
4305 4312
4305 4313
4305 4316
4305 4317
4306 4308
4306 4309
4306 4310
4307 6448
4307 11175
4307 10788
4307 10789
4307 10790
4307 10791
4307 10792
4307 10793
4307 10794
4308 11598
4308 4309
4308 4314
4308 4315
4308 11599
4308 4310
4308 11600
4309 4311
4309 4312
4309 4313
4309 4314
4309 4316
4309 4317
4309 4310
4311 4312
4311 4313
4311 4316
4311 4317
4312 4313
4312 4316
4312 4317
4313 4316
4313 4317
4314 4315
4316 4317
4319 4320
4319 4321
4319 4322
4319 4323
4319 4324
4319 4325
4320 4321
4320 4322
4320 4541
4320 4323
4320 4324
4320 4325
4321 4322
4321 4323
4321 4324
4321 4325
4322 4323
4322 4324
4322 4325
4323 4324
4323 4325
4324 4325
4326 4328
4326 4329
4326 4330
4326 4331
4326 4332
4326 4333
4327 5348
4327 5349
4327 5350
4327 5351
4327 5352
4327 5353
4327 5354
4327 5355
4327 5356
4327 5357
4327 5358
4327 5359
4327 5360
4327 5361
4327 5362
4327 5363
4327 5364
4328 4329
4328 4330
4328 4331
4328 4332
4328 4333
4329 4330
4329 4331
4329 4332
4329 4333
4330 4331
4330 4332
4330 4333
4331 4332
4331 4333
4332 4333
4334 4335
4334 4336
4334 4337
4334 4338
4334 4339
4334 4340
4335 4336
4335 4337
4335 4338
4335 4339
4335 4340
4336 4337
4336 4338
4336 4339
4336 4340
4337 4338
4337 4339
4337 4340
4338 4339
4338 4340
4339 4340
4341 4342
4341 4343
4341 4344
4341 4345
4341 4346
4341 4347
4342 4344
4342 4345
4342 4346
4342 4347
4343 10478
4344 4345
4344 4346
4344 4347
4345 4346
4345 11402
4345 11403
4345 4347
4345 11404
4346 4347
4348 4349
4348 4350
4348 4351
4348 4352
4348 4353
4348 4354
4348 4355
4348 4356
4349 4867
4349 4868
4349 4869
4349 4870
4349 4871
4350 7308
4350 7309
4350 7310
4350 7311
4350 7312
4351 4352
4351 4353
4351 4354
4351 4355
4351 4356
4352 4353
4352 4354
4352 4355
4352 4356
4353 4754
4353 4354
4353 4355
4353 4356
4353 4755
4353 4756
4353 4757
4353 4758
4353 4759
4354 4355
4354 4356
4354 7126
4355 4356
4357 4358
4357 4359
4357 4360
4357 4361
4357 4362
4357 4363
4357 4364
4358 4359
4358 4360
4358 4361
4358 4362
4358 4363
4359 4364
4360 4361
4360 4362
4360 4363
4361 4362
4361 4363
4362 4363
4365 4366
4365 4367
4365 4369
4365 4370
4365 4371
4365 4372
4365 4373
4365 4374
4366 4367
4366 4704
4366 4369
4366 4370
4366 4371
4366 4372
4366 4373
4366 4374
4367 4369
4367 6817
4367 4370
4367 4371
4367 4372
4367 4373
4367 4374
4368 6101
4368 6102
4368 6469
4368 6103
4368 6470
4368 7900
4368 6471
4368 4558
4368 7901
4368 7902
4368 7903
4369 4370
4369 4371
4369 4372
4369 4373
4369 4374
4370 4371
4370 4372
4370 4373
4370 4374
4371 6817
4371 4372
4371 4373
4371 4374
4372 6817
4372 4373
4372 4374
4373 4374
4375 4376
4375 5946
4375 4377
4375 4378
4375 5947
4376 5946
4376 4377
4376 4378
4376 5947
4376 5948
4378 5947
4378 5948
4379 4916
4379 4917
4379 4918
4379 4919
4379 4920
4380 4381
4380 4382
4380 4383
4380 4384
4380 4385
4381 4837
4381 4838
4381 4839
4381 4840
4381 4841
4381 4842
4381 4843
4381 4383
4382 5107
4382 8923
4383 9147
4383 4384
4383 4385
4384 4385
4386 4387
4388 4389
4388 4390
4389 4859
4389 5130
4389 4861
4389 5131
4389 4863
4389 5132
4389 5133
4389 4390
4389 5134
4391 4392
4391 4393
4391 4394
4391 4395
4391 4396
4391 4397
4391 4398
4391 4399
4392 4400
4392 4401
4392 4402
4392 4403
4393 4731
4393 4394
4393 4395
4393 4734
4393 4735
4393 4736
4393 4396
4393 4397
4393 4398
4393 4399
4394 4395
4394 4396
4394 4397
4394 4398
4394 4399
4395 4731
4395 4734
4395 4735
4395 4736
4395 4396
4395 4397
4395 4398
4395 4399
4396 4397
4396 4398
4396 4399
4397 4398
4397 4399
4398 4399
4400 4401
4400 4402
4400 4403
4401 4402
4401 4403
4402 11528
4402 11530
4402 4403
4404 4405
4404 4406
4405 4406
4405 7975
4405 7028
4407 4408
4407 4409
4407 4410
4408 4409
4408 4410
4409 4410
4411 4412
4411 4413
4411 4414
4411 4415
4411 4416
4412 8356
4412 4413
4412 4414
4412 8612
4412 8613
4412 4415
4412 8363
4412 4416
4412 8614
4412 8615
4413 8356
4413 4414
4413 8612
4413 8613
4413 4415
4413 8363
4413 4416
4413 8614
4413 8615
4414 8356
4414 8612
4414 4415
4414 8363
4414 4416
4414 8614
4414 8615
4415 5620
4415 4733
4415 9208
4415 6497
4415 6498
4415 5622
4415 9209
4415 10065
4415 5623
4415 6499
4415 6500
4415 9210
4415 6501
4415 6502
4415 4416
4415 9211
4415 9212
4415 8614
4415 6503
4415 10066
4415 8615
4415 6504
4416 8356
4416 8363
4416 8615
4417 4424
4417 4425
4417 4427
4417 4428
4418 5469
4418 5470
4418 5471
4419 4420
4419 4421
4419 4422
4419 4423
4420 4421
4420 4422
4420 4423
4421 4422
4421 4423
4422 4423
4424 4425
4424 4427
4424 4428
4425 4426
4425 4427
4425 4428
4426 4427
4426 4428
4426 4429
4426 4430
4427 4428
4427 4429
4427 4430
4428 4429
4428 4430
4429 4430
4431 4655
4431 4446
4431 4656
4431 4657
4432 5316
4432 4436
4432 4439
4432 4441
4432 4442
4433 4471
4433 4434
4433 4435
4433 4448
4433 4449
4433 4450
4434 4435
4434 4448
4434 4449
4434 4450
4435 4448
4435 4449
4435 4450
4436 4492
4436 4627
4436 4437
4436 4438
4436 4439
4436 4655
4436 4440
4436 4441
4436 4442
4436 4443
4436 4444
4436 4445
4436 4446
4436 4447
4436 4448
4437 4627
4437 6394
4437 6395
4438 4492
4438 4440
4438 4443
4438 4444
4438 4445
4438 4446
4438 4447
4439 4441
4439 4442
4440 4492
4440 4443
4440 4444
4440 4445
4440 4446
4440 4447
4441 4442
4443 4492
4443 4444
4443 4445
4443 4446
4443 4447
4444 4492
4444 4445
4444 4446
4444 4447
4444 4448
4445 4492
4445 4446
4445 4447
4446 4492
4446 4655
4446 4447
4447 4492
4448 4449
4448 4450
4449 4450
4451 4452
4451 4453
4451 4454
4451 4455
4451 4456
4451 4457
4451 4458
4452 4456
4452 4457
4452 4458
4453 6421
4453 6422
4453 6626
4453 6627
4454 4455
4456 4457
4456 4458
4457 4458
4459 4460
4459 4461
4459 4462
4459 4463
4459 4464
4459 4465
4459 4466
4459 4467
4460 5693
4460 5694
4461 4462
4461 4463
4461 4464
4461 4465
4461 4466
4461 4467
4462 4463
4462 4464
4462 4465
4462 4466
4462 4467
4463 4464
4463 4465
4463 4466
4463 4467
4464 4465
4464 4466
4464 4467
4465 4466
4465 4467
4466 4467
4468 4469
4468 4470
4468 4471
4468 4472
4468 4473
4468 4474
4469 4470
4469 4471
4469 4472
4469 4473
4469 4474
4470 4471
4470 4472
4471 4475
4471 4476
4471 4477
4471 4478
4471 4472
4471 4473
4471 4474
4472 4473
4472 4474
4473 4474
4475 4476
4475 4477
4475 4478
4476 4477
4476 4478
4477 4478
4479 7723
4479 8143
4479 8144
4479 8145
4479 4480
4479 8146
4479 8147
4479 8148
4480 8145
4480 11325
4480 11326
4481 4482
4481 4483
4481 4484
4481 4485
4481 4486
4481 4487
4481 4488
4481 4489
4482 4483
4482 4484
4482 4485
4482 4486
4482 4487
4482 4488
4482 4489
4483 5317
4483 7646
4483 8950
4483 10267
4483 4484
4483 4485
4483 4486
4483 4487
4483 4488
4483 4489
4484 5656
4484 5657
4484 5660
4484 4485
4484 4486
4484 4487
4484 4488
4484 4489
4485 4486
4485 4487
4485 4488
4485 4489
4486 4487
4486 4488
4486 4489
4487 4488
4487 4489
4488 4489
4490 5317
4490 7646
4490 4491
4490 10263
4490 10264
4491 9318
4493 4498
4493 4499
4493 4500
4494 4495
4494 4496
4494 4497
4495 4496
4495 4497
4496 4497
4498 4499
4499 4500
4499 8074
4499 8075
4499 8076
4499 8077
4499 8078
4499 8079
4499 8080
4500 8074
4500 8075
4500 8076
4500 8077
4500 8078
4500 8079
4501 4502
4501 4503
4501 4504
4502 4504
4503 11191
4503 11192
4503 9233
4505 4506
4505 4507
4505 4508
4505 4509
4505 4510
4505 4511
4506 6897
4506 5766
4506 5768
4506 4507
4506 4508
4506 4509
4506 4510
4506 4511
4507 4508
4507 4509
4507 4510
4507 4511
4508 4509
4508 4510
4508 4511
4509 9593
4509 4510
4509 4511
4510 4511
4512 4513
4512 4514
4512 4515
4512 4516
4512 4517
4512 4518
4512 4519
4512 4520
4512 4521
4513 4514
4513 4515
4513 4516
4513 4517
4513 4518
4513 4519
4513 4520
4513 4521
4514 4515
4514 4516
4514 4517
4514 4518
4514 4519
4514 4520
4514 4521
4515 4516
4515 4517
4515 4518
4515 4519
4515 4520
4515 4521
4516 4517
4516 4518
4516 4519
4516 4520
4516 4521
4517 4518
4517 4519
4517 4520
4517 4521
4518 4519
4518 4520
4518 4521
4519 4520
4519 4521
4520 4521
4522 4523
4522 4524
4523 4524
4525 4526
4525 4527
4526 4527
4527 6011
4527 6012
4527 6013
4527 6014
4527 6015
4527 6016
4527 6017
4528 4529
4528 4530
4528 4531
4529 4530
4530 11112
4530 9324
4530 11113
4530 11114
4530 11115
4530 11116
4531 7297
4531 7298
4531 7299
4531 7300
4531 7301
4531 7302
4533 4534
4533 4535
4533 4536
4533 4537
4533 4538
4534 4535
4534 4536
4534 4537
4534 4538
4534 5751
4535 4536
4535 4537
4535 4538
4536 4537
4536 4538
4537 4538
4539 4540
4539 4541
4539 4543
4541 4543
4544 4545
4544 4546
4544 4547
4544 4548
4545 4546
4545 4547
4545 4548
4546 4547
4546 4548
4547 4548
4549 4550
4549 4551
4549 4552
4549 4553
4550 5020
4550 5021
4550 5022
4550 4551
4550 5023
4550 5024
4550 5025
4551 5020
4551 5021
4551 5022
4551 5023
4551 5024
4551 5025
4552 4553
4554 4555
4554 4556
4554 4557
4555 10977
4555 10978
4555 10979
4555 10980
4555 10981
4555 4556
4555 4557
4555 10982
4555 10983
4555 10984
4555 10985
4556 10977
4556 10979
4556 4557
4556 10982
4556 10983
4556 10984
4556 10985
4558 6101
4558 6102
4558 6103
4558 6470
4558 6471
4558 4559
4558 4560
4559 10835
4559 10836
4559 10837
4559 4560
4559 10838
4559 4561
4559 4562
4559 4563
4559 10839
4560 10835
4560 10836
4560 10837
4560 10838
4560 4561
4560 4562
4560 4563
4560 10839
4561 10835
4561 10836
4561 10837
4561 10838
4561 4562
4561 4563
4561 10839
4562 4563
4564 4565
4564 4566
4564 4567
4564 4568
4564 4569
4564 4570
4564 4571
4564 4572
4565 4566
4565 4569
4565 4570
4565 4571
4566 4569
4566 4570
4566 4571
4567 4572
4568 4658
4568 4659
4568 4660
4568 4661
4569 4570
4569 4571
4570 4571
4573 4574
4573 4575
4573 4576
4573 4577
4573 4578
4574 4575
4574 4576
4574 4577
4574 4578
4574 5008
4574 5009
4574 5010
4574 5011
4575 4576
4575 4577
4575 4578
4576 4577
4576 4578
4577 4578
4579 4580
4579 4581
4579 4582
4579 4583
4579 4584
4580 4581
4580 4582
4580 4583
4580 4584
4581 4582
4581 4583
4581 4584
4582 4583
4582 4584
4583 4584
4585 4586
4585 4587
4585 4588
4585 4589
4586 4587
4586 4588
4586 4589
4587 4588
4587 4589
4588 4589
4590 4591
4590 4592
4590 4593
4590 4594
4590 4595
4590 4596
4590 4597
4590 4598
4590 4599
4590 4600
4590 4601
4590 4602
4591 4592
4591 4595
4591 4596
4591 4598
4591 4601
4591 4602
4592 4595
4592 4596
4592 4598
4592 4601
4592 4602
4593 4599
4594 4597
4594 4600
4595 10826
4595 10827
4595 4596
4595 4598
4595 4601
4595 4602
4595 10828
4596 10826
4596 10827
4596 4598
4596 4601
4596 4602
4596 10828
4597 4600
4598 10826
4598 10827
4598 4601
4598 4602
4598 10828
4601 10826
4601 10827
4601 4602
4601 10828
4603 4604
4603 4605
4604 4605
4606 7028
4606 7029
4606 7030
4606 7031
4607 4609
4607 4611
4607 4613
4607 4618
4608 4609
4608 4610
4608 4611
4608 8652
4608 4612
4608 8653
4608 4614
4608 4615
4608 4616
4608 4617
4608 4619
4608 4620
4609 8652
4609 4612
4609 8653
4609 4616
4609 4617
4610 7911
4610 4611
4610 4612
4610 4614
4610 4615
4610 4616
4610 4617
4610 4619
4610 4620
4611 4612
4611 4614
4611 4615
4611 4616
4611 4617
4611 4619
4611 4620
4612 8652
4612 8653
4612 4614
4612 4615
4612 4616
4612 4617
4612 4619
4612 4620
4613 4618
4614 4615
4614 4616
4614 4617
4614 4619
4614 4620
4615 4616
4615 4617
4615 4619
4615 4620
4616 8652
4616 8653
4616 4617
4616 4619
4616 4620
4617 8652
4617 8653
4617 4619
4617 4620
4619 4620
4622 4623
4622 4624
4622 4625
4622 4626
4623 4624
4623 4625
4623 4626
4624 4625
4624 4626
4625 4626
4627 6018
4627 6019
4627 6020
4627 6021
4627 6022
4627 6023
4627 6024
4627 6025
4627 6026
4627 6027
4627 6028
4627 6029
4627 6030
4627 6031
4627 6032
4628 4629
4628 4630
4628 4631
4628 4632
4628 4633
4629 4630
4629 4631
4629 4632
4629 4633
4630 4631
4630 4632
4630 4633
4630 8445
4630 8446
4630 8447
4631 4632
4631 4633
4631 8639
4631 8640
4632 4633
4634 4635
4634 4636
4634 4637
4634 4638
4634 4639
4635 7683
4635 7684
4635 7693
4635 7694
4635 7695
4635 7696
4635 7697
4635 7698
4635 7699
4635 7700
4635 7701
4635 7702
4635 7703
4636 4637
4636 4638
4636 4639
4637 4638
4639 6185
4639 6186
4640 4641
4640 4642
4640 4643
4640 4644
4640 4645
4641 4642
4641 4643
4641 4644
4641 4645
4642 4643
4642 4644
4642 4645
4643 4644
4643 4645
4644 4645
4646 11613
4646 11614
4646 11615
4646 11616
4646 4647
4648 4649
4648 4650
4648 4651
4648 4652
4648 4653
4648 4654
4649 6488
4649 6489
4649 6490
4649 6491
4649 6492
4649 4652
4649 6493
4649 4653
4649 4654
4649 6494
4649 6495
4650 8551
4650 8552
4650 7559
4651 5629
4651 5634
4651 5635
4651 5637
4651 10936
4651 10715
4651 10718
4651 10719
4651 10937
4652 6488
4652 6489
4652 6490
4652 6491
4652 6492
4652 4653
4652 4654
4653 4654
4655 4656
4655 4657
4656 4657
4658 4659
4658 4660
4658 4661
4659 4660
4659 4661
4660 4661
4662 4663
4664 4665
4664 4666
4664 4667
4664 4668
4664 4669
4664 4670
4665 4666
4665 4667
4665 4668
4665 4669
4665 4670
4666 4667
4666 4668
4666 4670
4667 4668
4667 4669
4667 4670
4668 4669
4668 4670
4669 4670
4671 4672
4671 4673
4671 4674
4671 4675
4671 4676
4671 4677
4672 4673
4672 4674
4672 4675
4672 4676
4673 4674
4673 4675
4673 4676
4674 4675
4674 4676
4675 4676
4677 10564
4677 5705
4677 10565
4678 4679
4678 4680
4679 4680
4681 4682
4681 4683
4681 4684
4681 4685
4681 4686
4681 4687
4683 4684
4683 4685
4683 4686
4683 4687
4684 4685
4684 4686
4684 4687
4685 4686
4685 4687
4686 4687
4688 4689
4688 4690
4688 4691
4688 4692
4688 4693
4689 4690
4689 4691
4690 4691
4690 5248
4690 5249
4691 5250
4691 5251
4691 4693
4692 6644
4693 5250
4693 5251
4694 4695
4694 4696
4694 4697
4694 4698
4694 4699
4694 4700
4694 4701
4694 4702
4694 4703
4695 4696
4695 4697
4695 4698
4695 4699
4695 4700
4695 4701
4695 4702
4696 4697
4696 4698
4696 4699
4696 4700
4696 4701
4696 4702
4697 4698
4697 4699
4697 4700
4697 4701
4697 4702
4698 4699
4698 4700
4698 4701
4698 4702
4699 4700
4699 4701
4699 4702
4700 4701
4700 4702
4701 4702
4704 7917
4704 7918
4704 7919
4704 7920
4704 7921
4704 7922
4704 7923
4704 7924
4704 7925
4704 7926
4704 7927
4704 7928
4704 7929
4704 7930
4704 7931
4705 4707
4705 4708
4705 4709
4705 6306
4706 8577
4706 8578
4706 8584
4706 8585
4706 8586
4706 8587
4706 8579
4707 4708
4707 4709
4708 8519
4708 4709
4708 4755
4708 9507
4709 8519
4710 4711
4710 4712
4711 4712
4713 9232
4713 9233
4713 9234
4713 9235
4713 9236
4714 4715
4714 4716
4714 4717
4714 4718
4714 4719
4714 4720
4714 4721
4715 4717
4715 4719
4715 4720
4715 4721
4716 6253
4716 6254
4716 4718
4716 6255
4716 6256
4716 10271
4717 4719
4717 4720
4717 4721
4718 10271
4719 4720
4719 4721
4720 4721
4722 4723
4722 4724
4722 4725
4722 4726
4722 4727
4722 4728
4722 4729
4722 4730
4723 4724
4723 4725
4723 4726
4723 4727
4723 4728
4723 4729
4723 4730
4724 4725
4724 4726
4724 4727
4724 4728
4724 4729
4724 4730
4725 4726
4725 4727
4725 4728
4725 4729
4725 4730
4726 4727
4726 4728
4726 4729
4726 4730
4727 4728
4727 4729
4727 4730
4728 4729
4728 4730
4729 4730
4731 4732
4731 4733
4731 4734
4731 4735
4731 4736
4732 4733
4732 5765
4733 9208
4733 6497
4733 9209
4733 9210
4733 9211
4733 9212
4734 4735
4734 4736
4735 4736
4737 4738
4737 4739
4738 4739
4740 4741
4740 4742
4740 4743
4740 4744
4741 4742
4741 4743
4741 8337
4741 8338
4741 8339
4741 4744
4741 8340
4742 4743
4742 8337
4742 8339
4742 4744
4743 8337
4743 8339
4743 4744
4745 4746
4745 4747
4745 4748
4746 8300
4746 4747
4746 4748
4747 4748
4749 4750
4749 4751
4749 4752
4749 4753
4750 5707
4750 5708
4750 5709
4750 4751
4750 4752
4750 4753
4750 5710
4750 5711
4751 5709
4751 4752
4751 4753
4751 5710
4752 5709
4752 4753
4752 5710
4753 5709
4753 5710
4754 4755
4754 4756
4754 4757
4754 4758
4754 4759
4755 9507
4755 4756
4755 4757
4755 4758
4755 4759
4756 4757
4756 4758
4756 4759
4757 4758
4757 4759
4758 4759
4760 4761
4760 4762
4760 4763
4760 4764
4760 4765
4760 4766
4760 4767
4761 4762
4761 4763
4761 4764
4761 4765
4761 4766
4761 4767
4762 4763
4762 4764
4762 4765
4762 4766
4762 4767
4763 4764
4763 4765
4763 4766
4763 4767
4764 4765
4764 4766
4764 4767
4765 4766
4765 4767
4766 4767
4768 4769
4768 4770
4768 4771
4768 4772
4768 4773
4768 4774
4768 4775
4768 4776
4769 4770
4769 4771
4769 4772
4769 4773
4769 4774
4769 4775
4769 4776
4770 6591
4770 6593
4770 6594
4770 4771
4770 4772
4770 4773
4770 4774
4770 4775
4770 4776
4771 4772
4771 4773
4771 4774
4771 4775
4771 4776
4772 4773
4772 4774
4772 4775
4772 4776
4773 4774
4773 4775
4773 4776
4774 4775
4774 4776
4775 4776
4777 4778
4777 4779
4777 4780
4777 4781
4777 4782
4777 4783
4778 10467
4778 10468
4778 4779
4778 4780
4778 4781
4778 4783
4779 4780
4779 4781
4779 4782
4780 10467
4780 10468
4780 4781
4780 4782
4780 4783
4781 10468
4781 4782
4784 4785
4784 4786
4784 4787
4784 4788
4785 6989
4785 7525
4785 4786
4785 4787
4785 7526
4785 7527
4785 7528
4786 4787
4786 4788
4787 4788
4789 4790
4789 4791
4789 4792
4789 4793
4790 4791
4790 4792
4790 6958
4790 4793
4791 8124
4791 4792
4791 8125
4791 8126
4791 8127
4791 4793
4791 8128
4791 8129
4791 8130
4791 8131
4792 6958
4792 4793
4793 6958
4794 4795
4794 4796
4794 4797
4794 4798
4795 6696
4795 4796
4795 6697
4795 6698
4795 6699
4795 6700
4795 4797
4795 4798
4795 6701
4795 6702
4795 6703
4795 6704
4796 4797
4796 4798
4796 6701
4796 6702
4796 6703
4796 6704
4797 4798
4799 10938
4799 10939
4799 10940
4800 4801
4800 4802
4801 4802
4803 6112
4803 10442
4803 6120
4803 10462
4804 4805
4804 4806
4804 4807
4804 4808
4805 4806
4805 4807
4805 4808
4805 5379
4805 5380
4806 6943
4806 4807
4806 4808
4806 6944
4807 5026
4807 4808
4807 9292
4807 5029
4807 9293
4807 9294
4807 9295
4809 4810
4809 4811
4809 4812
4809 4813
4810 6383
4810 4813
4811 6181
4811 6806
4811 6807
4811 6808
4812 6444
4812 8509
4812 8510
4813 7735
4814 4815
4814 4816
4814 4817
4814 4818
4814 4819
4814 4820
4814 4821
4814 4822
4815 4816
4815 4817
4815 4818
4815 4819
4815 4820
4815 4821
4815 4822
4816 4817
4816 4818
4816 4819
4816 4820
4816 4821
4816 4822
4817 4819
4818 4819
4818 4820
4818 4821
4818 4822
4819 4820
4819 4821
4819 4822
4820 4821
4820 4822
4821 4822
4823 4824
4823 4825
4824 4825
4826 4827
4826 4828
4826 4829
4826 4830
4826 4831
4826 4832
4826 4833
4826 4834
4826 4835
4826 4836
4827 4828
4827 4829
4827 4830
4827 4831
4827 4832
4827 4833
4827 4834
4827 4835
4827 4836
4828 4829
4828 4830
4828 4831
4828 4832
4828 4833
4828 4834
4828 4835
4829 4830
4829 4831
4829 4832
4829 4833
4829 4834
4829 4835
4830 4831
4830 4832
4830 4833
4830 4834
4830 4835
4830 4836
4831 4832
4831 4833
4831 4834
4831 4835
4831 4836
4832 4833
4832 4834
4832 4835
4833 4834
4833 4835
4834 4835
4835 4836
4837 4838
4837 4839
4837 4840
4837 4841
4837 4842
4837 4843
4838 4839
4838 4840
4838 4841
4838 4842
4838 4843
4839 4840
4839 4841
4839 4842
4839 4843
4840 4841
4840 4842
4840 4843
4841 4842
4841 4843
4842 4843
4844 6130
4844 6131
4844 6132
4845 4847
4848 4849
4848 4850
4848 4851
4848 4852
4848 4853
4848 4854
4848 4855
4848 4856
4848 4857
4848 4858
4849 5390
4849 4850
4849 4851
4849 4852
4849 4853
4849 4855
4849 4856
4849 4857
4849 4858
4850 5396
4850 4851
4850 4852
4850 4853
4850 4855
4850 4856
4850 4857
4850 4858
4851 4852
4851 4853
4851 4855
4851 4856
4851 4857
4851 4858
4852 4853
4852 4855
4852 4856
4852 4857
4852 4858
4853 4855
4853 4856
4853 4857
4853 4858
4854 8102
4854 6110
4854 6111
4854 8103
4854 8104
4854 8105
4854 8106
4854 8107
4854 8108
4854 8109
4854 8110
4855 4856
4855 4857
4855 4858
4856 4857
4856 4858
4857 4858
4859 4860
4859 4861
4859 4862
4859 4863
4859 4864
4859 4865
4859 4866
4860 4864
4861 5131
4861 4863
4861 5132
4861 5133
4862 5131
4862 4864
4862 4865
4862 4866
4863 5131
4863 5133
4864 4865
4864 4866
4865 4866
4867 8538
4867 9964
4867 5891
4867 9965
4867 10047
4867 10048
4867 4868
4867 9966
4867 9968
4867 9969
4867 10049
4867 9401
4867 9970
4867 4869
4867 4870
4867 9375
4867 4871
4868 5406
4868 5995
4868 5572
4868 10297
4868 10387
4868 6227
4868 10298
4868 8726
4868 4869
4868 10388
4868 5575
4868 4870
4868 10389
4868 10390
4868 4871
4868 10391
4868 10392
4869 6227
4869 10388
4869 4870
4869 10389
4869 4871
4869 10872
4869 10873
4870 6227
4870 10388
4870 10389
4870 4871
4870 10872
4870 10873
4872 4873
4872 4874
4872 4875
4872 4876
4872 4877
4872 4878
4873 5169
4873 5173
4873 4874
4873 4875
4873 4876
4873 4877
4873 4878
4874 4875
4874 4876
4874 4877
4874 4878
4875 4876
4875 4877
4875 4878
4876 4877
4876 4878
4877 4878
4879 4880
4879 4881
4879 4882
4879 4883
4880 7170
4880 4881
4880 4882
4880 4883
4880 7171
4880 7172
4881 4882
4881 4883
4882 4883
4884 4885
4884 4886
4884 4887
4884 4888
4885 4886
4885 4887
4885 4888
4886 4887
4886 4888
4887 5018
4887 5521
4887 5522
4887 5523
4887 4888
4887 5524
4887 11550
4887 11551
4888 10722
4889 4890
4889 4891
4889 4892
4889 4893
4889 4894
4889 4895
4890 4891
4890 4892
4890 4893
4890 4894
4890 4895
4891 4892
4891 4893
4891 4894
4891 4895
4892 4893
4892 4894
4892 4895
4893 4894
4893 4895
4894 4895
4896 5863
4896 5864
4896 5865
4896 5866
4896 5867
4897 4898
4897 4899
4897 4900
4897 4901
4897 4902
4897 4903
4897 4904
4898 4899
4898 4900
4898 4901
4898 4902
4898 4903
4898 4904
4899 4900
4899 4901
4899 4902
4899 4903
4899 4904
4900 4901
4900 4902
4900 4903
4900 4904
4901 4902
4901 4903
4901 4904
4902 4903
4902 4904
4903 4904
4905 4906
4906 5910
4906 5912
4906 5913
4906 5914
4906 5915
4906 5916
4906 5917
4906 5918
4906 5919
4906 5920
4906 5921
4906 5922
4906 5923
4906 5924
4906 5925
4906 5926
4906 5927
4906 5928
4906 5929
4906 5930
4906 5931
4906 5932
4906 5933
4907 4908
4907 4909
4907 4910
4907 4911
4907 4912
4907 4913
4907 4914
4907 4915
4908 4909
4908 4910
4908 4911
4908 4912
4908 4913
4908 4914
4908 4915
4909 4910
4909 4911
4909 4912
4909 4913
4909 4914
4909 4915
4910 4911
4910 4912
4910 4913
4910 4914
4910 4915
4911 4912
4911 4913
4911 4914
4911 4915
4912 4913
4912 4914
4912 4915
4913 4914
4913 4915
4914 4915
4916 4917
4916 4918
4916 4919
4916 4920
4917 4918
4917 4919
4917 4920
4918 4919
4918 4920
4919 4920
4921 4922
4921 4923
4921 4924
4921 4925
4921 4926
4921 4927
4921 4928
4921 4929
4921 4930
4921 4931
4921 4932
4921 4933
4921 4934
4921 4935
4921 4936
4921 4937
4921 4938
4921 4939
4922 5722
4922 5723
4922 5724
4922 5725
4922 5726
4922 5727
4922 5728
4923 4924
4923 4925
4923 4926
4923 4927
4923 4928
4923 4929
4923 4930
4923 4931
4923 4932
4923 4933
4923 4934
4923 4935
4923 4936
4923 4937
4923 4938
4923 4939
4924 4925
4924 4926
4924 4927
4924 4928
4924 4929
4924 4930
4924 4931
4924 4932
4924 4933
4924 4934
4924 4935
4924 4936
4924 4937
4924 4938
4924 4939
4925 4926
4925 4927
4925 4928
4925 4929
4925 4930
4925 4931
4925 4932
4925 4933
4925 4934
4925 4935
4925 4936
4925 4937
4925 4938
4925 4939
4926 4927
4926 4928
4926 4929
4926 4930
4926 4931
4926 4932
4926 4933
4926 4934
4926 4935
4926 4936
4926 4937
4926 4938
4926 4939
4927 4928
4927 4929
4927 4930
4927 4931
4927 4932
4927 4933
4927 4934
4927 4935
4927 4936
4927 4937
4927 4938
4927 4939
4928 4929
4928 4930
4928 4931
4928 4933
4928 4934
4928 4935
4928 4936
4928 4937
4929 4930
4929 4931
4929 4932
4929 4933
4929 4934
4929 4935
4929 4936
4929 4937
4929 4938
4929 4939
4930 4931
4930 4933
4930 4934
4930 4935
4930 4936
4930 4937
4931 4932
4931 4933
4931 4934
4931 4935
4931 4936
4931 4937
4931 4938
4931 4939
4932 4933
4932 4934
4932 4938
4932 4939
4933 4934
4933 4935
4933 4936
4933 4937
4933 4938
4933 4939
4934 4935
4934 4936
4934 4937
4934 4938
4934 4939
4935 4936
4935 4937
4936 4937
4938 4939
4940 4941
4940 4942
4940 10430
4940 4943
4941 4942
4941 10430
4941 4943
4942 10430
4942 4943
4944 4945
4944 4946
4944 4947
4945 7003
4945 7004
4945 7005
4945 7006
4945 7007
4945 7008
4945 7009
4945 7010
4945 4946
4945 7011
4945 7012
4945 7013
4945 7014
4945 7015
4945 7016
4945 7017
4945 7018
4946 7005
4946 7006
4946 7010
4946 7011
4946 7012
4946 7013
4946 7014
4946 7016
4946 4947
4946 7017
4946 7018
4948 4949
4948 4950
4948 4951
4948 4952
4948 4953
4948 4954
4948 4955
4949 4950
4949 4951
4949 4952
4949 4953
4949 4954
4949 4955
4950 4951
4950 4952
4950 4953
4950 4954
4950 4955
4951 4952
4951 4953
4951 4954
4951 4955
4952 4953
4952 4954
4952 4955
4953 4954
4953 4955
4954 4955
4956 4957
4956 4958
4956 4959
4956 4960
4956 4961
4956 4962
4956 4963
4956 4964
4956 4965
4956 4966
4956 4967
4956 4968
4957 4958
4957 4959
4957 4960
4957 4961
4957 4962
4957 4963
4957 4964
4957 4965
4957 4966
4957 4967
4957 4968
4958 6128
4958 4959
4958 4960
4958 4961
4958 4962
4958 4963
4958 4964
4958 4965
4958 4966
4958 4967
4958 6129
4958 4968
4959 4960
4959 4961
4959 4962
4959 4963
4959 4964
4959 4965
4959 4966
4959 4967
4959 4968
4960 8206
4960 5281
4960 4961
4960 4962
4960 4963
4960 4964
4960 4965
4960 4966
4960 4967
4960 4968
4961 4962
4961 4963
4961 4964
4961 4965
4961 4966
4961 4967
4961 4968
4962 4963
4962 4964
4962 4965
4962 4966
4962 4967
4962 4968
4963 4964
4963 4965
4963 4966
4963 4967
4963 4968
4964 4965
4964 4966
4964 4967
4964 4968
4965 4966
4965 4967
4965 4968
4966 4967
4966 4968
4967 4968
4969 4970
4969 4971
4969 4972
4970 4971
4970 4972
4971 4972
4973 4974
4973 4975
4973 4976
4973 4977
4973 4978
4973 4979
4973 4980
4973 4981
4973 4982
4975 4976
4975 9685
4976 4977
4976 11218
4976 11219
4976 11220
4976 9685
4977 5553
4977 5555
4977 8531
4977 11218
4977 11219
4977 11220
4977 11439
4978 4979
4978 4980
4978 4981
4979 4980
4979 4981
4979 4982
4980 4981
4983 4984
4983 4985
4983 4986
4983 4987
4983 4988
4983 4989
4983 4990
4984 4985
4984 4986
4984 4987
4984 4988
4984 4989
4984 4990
4985 4986
4985 4987
4985 4988
4985 4989
4985 4990
4986 4987
4986 4988
4986 4989
4986 4990
4987 4988
4987 4989
4987 4990
4988 4989
4988 4990
4989 4990
4991 4992
4991 4993
4991 4994
4991 4995
4992 9310
4992 9311
4992 9312
4993 4994
4993 4995
4993 9248
4994 4995
4996 4997
4996 4998
4996 4999
4996 5000
4996 5001
4996 5002
4996 5003
4996 5004
4997 5000
4997 5002
4997 5003
4997 5004
4998 7365
4998 4999
4998 6528
4998 7260
4998 7263
4998 7264
4998 7267
4998 7268
4999 7365
4999 7367
4999 6788
4999 10853
4999 10854
5000 10861
5000 10862
5000 10863
5000 10864
5001 11011
5001 11012
5001 11013
5001 11014
5001 11015
5002 5003
5002 5004
5003 5004
5005 5006
5005 5007
5006 5007
5008 11076
5008 11077
5008 11078
5008 5009
5008 11079
5008 5010
5008 5011
5009 11076
5009 11077
5009 11078
5009 11079
5009 5010
5010 5011
5012 5013
5012 5014
5012 5015
5012 5016
5012 5017
5013 5014
5013 5015
5013 5016
5013 5017
5014 5015
5014 5016
5014 5017
5015 5016
5015 5017
5016 5017
5018 5521
5018 5522
5018 5523
5018 5524
5019 6745
5019 6747
5019 6748
5019 6749
5019 6750
5019 6751
5020 5021
5020 5022
5020 5023
5020 5024
5020 5025
5021 5022
5021 6180
5021 5023
5021 5024
5021 5025
5022 5023
5022 5024
5022 5025
5023 5024
5023 5025
5024 5025
5026 5027
5026 5028
5026 5029
5027 5028
5029 9292
5029 9293
5029 9294
5029 9295
5030 5031
5030 5032
5030 5033
5030 5034
5030 5035
5030 5036
5030 5037
5030 5038
5030 5039
5030 5040
5030 5041
5031 5033
5031 5034
5031 5036
5031 5037
5031 5040
5031 5041
5032 9409
5032 9410
5032 9411
5032 9412
5032 9413
5033 5034
5033 5036
5033 5038
5033 5039
5033 5040
5033 5041
5034 10703
5034 7362
5034 10128
5034 5036
5034 5040
5034 5041
5035 10703
5035 10128
5035 10704
5035 10705
5035 10706
5035 10707
5035 10708
5035 10709
5035 10710
5035 10711
5035 10712
5035 10713
5035 10714
5036 5040
5036 5041
5038 5039
5040 7362
5040 10128
5040 5041
5043 5044
5043 5045
5043 5046
5043 5047
5043 5048
5043 5049
5043 5050
5043 5051
5043 5052
5043 5053
5043 5054
5043 5055
5043 5056
5043 5057
5043 5058
5043 5059
5044 5049
5044 5050
5044 5051
5045 8052
5045 5048
5045 5049
5045 5052
5045 5053
5045 5054
5045 5055
5045 5056
5045 5057
5045 5058
5045 8053
5045 5059
5046 5047
5046 5048
5046 5054
5046 5059
5047 5048
5047 5059
5048 5054
5048 5057
5048 5058
5048 5059
5049 5050
5049 5051
5049 5052
5049 5053
5049 5054
5049 5055
5049 5056
5049 5057
5050 5051
5052 5053
5052 5054
5052 5055
5052 5056
5053 5054
5053 5055
5053 5056
5053 5057
5053 5058
5054 8052
5054 5055
5054 5056
5054 5057
5054 5058
5054 8053
5054 5059
5055 5056
5057 5058
5058 5059
5060 6382
5060 6383
5060 6385
5060 5061
5060 5063
5060 6975
5060 6387
5060 5064
5060 6388
5060 6389
5060 6976
5060 5066
5060 6977
5060 6978
5060 5068
5060 6979
5060 6980
5060 6981
5060 6982
5060 6983
5060 6984
5061 6382
5061 6383
5061 6239
5061 7548
5061 5063
5061 6388
5061 10363
5061 6978
5061 6979
5061 6980
5061 7677
5061 6981
5062 5065
5062 5067
5062 5069
5062 5070
5062 5071
5063 6975
5063 6387
5063 5064
5063 6976
5063 5066
5063 6978
5063 5068
5063 6979
5063 6980
5063 6981
5063 6983
5063 6984
5064 6382
5064 6385
5064 6387
5064 6388
5064 6389
5064 5066
5064 6977
5064 6978
5064 6979
5064 6980
5065 5067
5065 5069
5065 5070
5065 5071
5066 5068
5066 6979
5066 6980
5067 5069
5067 5070
5067 5071
5069 5070
5069 5071
5070 5071
5072 5073
5072 5074
5072 5075
5072 5076
5072 5077
5073 5076
5074 10201
5074 10202
5074 10203
5074 10204
5075 5077
5076 11387
5076 11388
5078 5079
5078 5080
5078 5081
5078 5082
5078 5083
5078 5084
5078 5085
5078 5086
5078 5087
5078 5088
5079 5080
5079 5081
5079 5082
5079 5083
5079 5084
5079 5085
5079 5086
5079 5087
5079 5088
5080 5081
5080 5082
5080 5083
5080 5084
5080 5085
5080 5086
5080 5087
5080 5088
5081 5082
5081 5083
5081 5084
5081 5085
5081 5086
5081 5087
5081 5088
5082 5083
5082 5084
5082 5085
5082 5086
5082 5087
5082 5088
5083 5084
5083 5085
5083 5086
5083 5087
5083 5088
5084 5085
5084 5086
5084 5087
5084 5088
5085 5086
5085 5087
5085 5088
5086 5087
5086 5088
5087 5088
5090 5091
5090 5092
5090 5093
5090 5094
5091 5092
5091 5093
5091 5094
5092 5093
5092 5094
5093 5094
5095 5096
5095 5097
5095 5098
5096 5097
5096 5949
5096 5098
5096 5950
5096 5951
5096 5952
5096 5953
5096 5954
5096 5955
5096 5956
5096 5957
5096 5958
5096 5959
5096 5960
5096 5961
5096 5962
5096 5963
5096 5964
5096 5965
5096 5966
5097 5098
5097 6286
5099 5100
5099 5101
5099 5102
5099 5103
5100 5101
5100 5102
5100 5103
5101 5102
5101 5103
5102 5103
5104 9322
5105 5106
5105 5108
5106 5108
5107 5549
5107 9768
5107 7533
5107 10840
5107 5639
5107 5552
5107 8923
5107 11010
5109 5110
5109 5111
5109 5112
5109 5113
5109 5114
5110 7887
5110 5112
5110 7888
5110 7895
5110 7897
5110 7898
5110 7899
5111 5112
5112 7887
5112 6239
5113 5114
5115 5116
5115 5117
5115 5119
5116 5117
5116 5119
5117 7558
5117 5118
5117 5119
5118 5120
5118 5121
5118 5122
5118 5123
5118 5124
5118 5125
5118 5126
5120 5121
5120 5122
5120 5123
5120 5124
5120 5125
5120 5126
5121 5122
5121 5123
5121 5124
5121 5125
5121 5126
5122 5123
5122 5124
5122 5125
5122 5126
5123 5124
5123 5125
5123 5126
5124 5125
5124 5126
5125 5126
5127 11914
5127 11915
5127 11916
5127 11917
5127 11918
5127 11919
5128 5451
5128 5452
5128 5453
5128 5454
5128 5455
5128 5456
5128 5457
5128 5458
5128 5459
5129 5588
5129 5598
5130 5132
5130 5134
5131 5133
5132 5134
5135 5136
5135 5137
5136 5137
5138 9053
5139 7932
5139 7933
5139 7934
5139 7935
5139 7936
5141 5142
5141 5143
5141 5144
5141 5145
5141 5146
5141 5147
5142 5143
5142 5144
5142 5145
5142 5146
5142 5147
5143 5144
5143 5145
5143 5146
5143 5147
5144 5145
5144 5146
5144 5147
5145 5146
5145 5147
5146 5147
5148 5149
5148 5150
5148 5151
5148 5152
5148 5153
5148 5154
5148 5155
5148 5156
5148 5157
5148 5158
5148 5159
5148 5160
5148 5161
5148 5162
5149 5150
5149 5151
5149 5152
5149 5153
5149 5154
5149 5155
5149 5156
5149 5157
5149 5158
5149 5159
5149 5160
5149 5161
5149 5162
5150 5151
5150 5152
5150 5153
5150 5154
5150 5155
5150 5156
5150 5157
5150 5158
5150 5159
5150 5160
5150 5161
5150 5162
5151 5152
5151 5153
5151 5154
5151 5155
5151 5156
5151 5157
5151 5158
5151 5159
5151 5160
5151 5161
5151 5162
5152 5153
5152 5154
5152 5155
5152 5156
5152 5157
5152 5158
5152 5159
5152 5160
5152 5161
5152 5162
5153 5154
5153 5155
5153 5156
5153 5157
5153 5158
5153 5159
5153 5160
5153 5161
5153 5162
5154 5155
5154 5156
5154 5157
5154 5158
5154 5159
5154 5160
5154 5161
5154 5162
5155 5156
5155 5157
5155 5158
5155 5159
5155 5160
5155 5161
5155 5162
5156 5157
5156 5158
5156 5159
5156 5160
5156 5161
5156 5162
5157 5158
5157 5159
5157 5160
5157 5161
5157 5162
5158 5159
5158 5160
5158 5161
5158 5162
5159 5160
5159 5161
5159 5162
5160 5161
5160 5162
5161 5162
5163 5164
5163 5165
5163 5166
5163 5167
5164 5165
5164 5166
5164 5167
5165 5166
5165 5167
5166 5167
5168 6257
5168 6258
5168 6259
5168 6260
5168 6261
5168 6262
5168 6263
5168 6264
5168 6265
5169 5170
5169 5171
5169 5172
5169 5173
5169 5174
5169 5175
5170 5171
5170 5172
5170 5173
5170 5174
5170 5175
5171 5172
5171 5173
5171 5174
5171 5175
5172 5173
5172 5174
5172 5175
5173 5174
5173 5175
5174 5175
5176 9307
5176 9308
5176 9309
5176 5177
5178 5179
5178 5180
5178 5181
5178 5182
5178 5183
5178 5184
5179 5180
5179 5181
5179 5182
5179 5183
5180 5181
5180 5182
5180 5183
5181 5182
5181 5183
5182 5183
5184 9746
5184 9747
5184 9748
5184 9749
5184 9750
5184 9751
5185 5186
5185 5187
5185 5188
5185 5189
5185 5190
5185 5191
5185 5192
5185 5193
5186 5187
5186 5188
5186 5189
5186 5190
5186 5191
5186 5192
5186 5193
5187 5188
5187 5189
5187 5190
5187 5191
5187 5192
5187 5193
5188 5189
5188 5190
5188 5191
5188 5192
5188 5193
5189 5190
5189 5191
5189 5192
5189 5193
5190 5191
5190 5192
5190 5193
5191 5192
5191 5193
5192 5193
5194 5195
5194 5196
5194 5197
5194 5198
5194 5199
5194 5200
5195 5196
5195 5197
5195 5198
5195 5199
5195 5519
5195 5520
5195 5200
5196 5197
5196 5198
5196 5199
5196 5200
5197 5198
5197 5199
5197 5200
5198 5199
5198 5200
5199 5200
5201 5202
5201 5203
5201 5204
5201 5205
5201 5206
5202 5203
5202 5204
5202 5205
5202 5206
5202 5558
5203 5204
5203 5205
5203 5206
5204 5205
5204 5206
5205 5206
5207 5223
5207 5682
5207 5683
5207 5684
5207 5685
5207 5686
5207 5687
5207 5688
5207 5689
5207 5690
5207 5691
5207 5692
5208 5209
5208 5210
5208 5211
5208 5212
5209 5210
5209 5211
5209 5212
5210 5211
5210 5212
5211 5212
5213 5214
5213 5215
5213 5216
5213 5217
5213 5218
5213 5219
5213 5220
5214 5215
5214 5216
5214 5218
5214 5219
5214 5220
5215 10841
5215 5216
5215 10842
5215 5218
5215 10843
5215 5219
5215 5220
5216 5218
5216 5219
5216 5220
5217 5218
5218 5219
5218 5220
5219 5220
5221 5222
5221 5223
5221 5224
5221 5225
5221 5226
5221 5227
5221 5228
5222 5224
5222 5225
5222 5226
5222 5227
5222 5228
5223 5682
5223 7064
5223 5683
5223 5684
5223 5685
5223 5686
5223 5687
5223 5688
5223 5689
5223 5690
5223 5691
5223 5692
5224 5225
5224 5226
5224 5227
5224 5228
5225 5226
5225 5227
5225 5228
5226 5227
5226 5228
5227 5228
5229 5230
5229 5231
5229 5232
5229 5233
5229 5234
5229 5235
5229 5236
5230 9099
5230 5232
5230 5233
5230 5234
5230 9100
5230 9101
5230 9102
5230 5235
5230 5236
5231 8564
5231 8565
5231 8566
5231 8567
5231 8568
5231 8569
5231 8570
5231 8571
5231 8572
5231 8573
5231 8574
5231 8575
5231 8576
5232 5234
5232 5235
5232 5236
5233 9099
5233 9100
5233 9101
5233 9102
5234 5235
5234 5236
5235 5236
5237 5238
5237 5239
5237 5240
5237 5243
5237 5244
5238 5239
5238 5245
5239 5245
5241 5242
5243 5244
5247 6903
5247 6904
5247 6905
5247 6906
5247 6907
5247 6908
5248 5249
5250 5251
5252 5253
5254 5255
5254 5256
5255 7270
5255 11885
5255 11886
5255 11887
5255 11888
5255 11889
5255 7271
5255 7272
5255 5256
5255 7273
5257 5258
5257 5259
5257 5260
5257 5261
5257 5262
5257 5263
5257 5264
5257 5265
5258 5259
5258 5261
5258 5262
5258 5263
5258 5264
5258 5265
5259 5261
5259 5262
5259 5266
5259 5263
5259 5264
5259 5265
5260 6761
5260 6762
5260 6763
5260 6764
5260 6765
5261 5262
5261 5263
5261 5264
5261 5265
5262 5263
5262 5264
5262 5265
5263 5264
5263 5265
5264 5265
5266 9162
5266 9166
5267 5268
5267 5269
5267 5270
5267 5271
5267 5272
5267 5273
5267 5274
5267 5275
5268 8694
5268 8695
5268 8696
5268 8697
5268 8698
5268 8699
5269 5270
5269 5271
5269 5272
5269 5273
5269 5274
5269 5275
5270 5271
5270 5272
5270 5273
5270 5274
5270 5275
5271 5272
5271 5273
5271 5274
5271 5275
5272 5273
5272 5274
5272 5275
5273 5274
5273 5275
5274 5275
5276 5277
5276 5278
5276 5279
5276 5280
5276 5281
5276 9344
5277 5280
5277 5281
5277 9344
5278 5279
5278 5281
5279 5281
5280 5281
5280 5284
5281 5282
5285 5286
5285 5287
5285 5288
5285 5289
5285 5290
5285 5291
5285 5292
5285 5293
5285 5294
5285 5295
5285 5296
5285 5297
5285 5298
5285 5299
5285 5300
5286 5288
5286 5290
5286 5292
5286 5293
5286 5296
5286 5297
5287 5288
5287 9566
5287 5291
5287 9567
5287 5294
5287 9568
5288 5289
5288 5290
5288 5292
5288 5293
5288 5296
5288 5297
5289 11341
5290 5292
5290 5293
5290 5296
5290 5297
5291 5294
5292 5293
5292 5296
5292 5297
5293 5296
5293 5297
5295 5297
5295 5299
5295 5300
5296 5297
5297 11693
5297 5299
5297 5300
5299 5300
5300 11693
5301 5302
5301 5303
5301 5304
5301 5305
5302 5303
5302 5304
5302 5305
5303 5306
5303 5307
5303 5304
5303 5305
5303 5308
5304 5305
5305 5308
5306 5307
5309 5311
5309 5312
5309 5313
5309 5314
5309 5315
5310 8258
5310 8259
5311 5312
5311 5313
5311 5314
5311 5315
5312 5313
5312 5314
5312 5315
5313 5314
5313 5315
5314 5315
5316 5317
5316 5318
5316 5319
5317 7501
5317 8335
5317 10239
5317 7646
5317 9970
5317 5318
5317 10261
5317 8336
5317 5319
5317 10262
5317 8950
5317 10240
5317 10263
5317 10264
5317 10265
5317 10266
5317 10267
5318 7646
5318 10261
5318 5319
5318 10262
5318 8950
5319 8335
5319 7646
5319 8336
5319 8950
5320 5321
5320 5322
5320 5323
5320 5324
5320 5325
5321 8473
5321 5322
5321 5323
5321 5324
5321 5325
5322 5323
5322 5324
5322 5325
5323 5324
5323 5325
5324 5325
5327 6123
5328 5329
5330 8158
5330 5331
5330 5332
5331 8158
5331 8730
5331 8731
5331 8732
5331 8733
5331 8734
5331 8735
5331 5332
5333 5334
5333 5335
5334 9799
5334 6372
5334 11102
5334 9801
5334 11103
5334 11104
5334 5335
5334 11105
5334 11106
5335 6371
5336 5337
5336 5338
5336 5339
5336 5340
5336 5341
5336 5342
5337 5339
5337 5340
5337 5341
5337 5342
5338 9484
5338 9485
5338 9486
5338 9487
5338 9488
5338 9489
5339 5340
5339 5341
5339 5342
5340 5341
5340 5342
5341 5342
5343 5344
5343 5345
5343 5346
5343 5347
5344 5345
5344 5346
5344 5347
5345 5346
5345 5347
5346 5347
5348 5349
5348 5350
5348 5351
5348 5352
5348 5353
5348 5354
5348 5355
5348 5356
5348 5357
5348 5358
5348 5359
5348 5360
5348 5361
5348 5362
5348 5363
5348 5364
5349 5350
5349 5351
5349 5352
5349 5353
5349 5354
5349 5355
5349 5356
5349 5357
5349 5358
5349 5359
5349 5360
5349 5361
5349 5362
5349 5363
5349 5364
5350 5351
5350 5352
5350 5353
5350 5354
5350 5355
5350 5356
5350 5357
5350 5358
5350 5359
5350 5360
5350 5361
5350 5362
5350 5363
5350 5364
5351 5352
5351 5353
5351 5354
5351 5355
5351 5356
5351 5357
5351 5358
5351 5359
5351 5360
5351 5361
5351 5362
5351 5363
5351 5364
5352 5353
5352 5354
5352 5355
5352 5356
5352 5357
5352 5358
5352 5359
5352 5360
5352 5361
5352 5362
5352 5363
5352 5364
5353 5354
5353 5355
5353 5356
5353 5357
5353 5358
5353 5359
5353 5360
5353 5361
5353 5362
5353 5363
5353 5364
5354 5355
5354 5356
5354 5357
5354 5358
5354 5359
5354 5360
5354 5361
5354 5362
5354 5363
5354 5364
5355 5356
5355 5357
5355 5358
5355 5359
5355 5360
5355 5361
5355 5362
5355 5363
5355 5364
5356 5357
5356 5358
5356 5359
5356 5360
5356 5361
5356 5362
5356 5363
5356 5364
5357 5358
5357 5359
5357 5360
5357 5361
5357 5362
5357 5363
5357 5364
5358 5359
5358 5360
5358 5361
5358 5362
5358 5363
5358 5364
5359 5360
5359 5361
5359 5362
5359 5363
5359 5364
5360 5361
5360 5362
5360 5363
5360 5364
5361 5362
5361 5363
5361 5364
5362 5363
5362 5364
5363 5364
5365 5366
5365 5367
5365 5368
5365 5369
5365 5370
5365 5371
5365 5372
5365 5373
5366 5367
5366 5368
5366 5369
5366 5370
5366 5371
5366 5372
5366 5373
5367 5368
5367 5369
5367 5370
5367 5371
5367 5372
5367 5373
5368 8785
5368 7582
5368 5369
5368 8786
5368 5370
5368 5371
5368 5372
5368 5373
5369 8785
5369 7582
5369 8786
5369 5370
5369 5371
5369 5372
5369 5373
5370 5371
5370 5372
5370 5373
5371 5372
5371 5373
5372 5373
5374 5375
5374 5376
5374 5377
5374 5378
5375 5376
5376 9264
5376 10760
5376 9267
5376 5378
5376 9930
5378 10760
5379 5380
5381 9069
5381 9070
5381 9071
5381 9072
5382 9541
5382 5384
5382 5385
5382 9542
5384 9541
5384 5385
5384 9994
5384 9542
5384 11544
5385 9541
5385 9994
5385 9542
5385 11544
5386 5387
5386 6445
5386 8538
5386 7791
5386 8539
5386 5388
5386 8540
5386 8541
5386 8542
5386 8543
5386 8544
5386 8545
5386 8546
5386 8547
5386 8548
5386 8549
5387 6445
5387 8550
5387 8169
5388 6445
5388 8540
5388 8544
5388 10691
5388 10692
5388 8648
5388 10693
5390 5391
5390 5392
5390 5393
5390 5394
5390 5395
5391 5393
5391 5394
5393 5394
5395 6809
5395 6811
5395 6813
5395 6815
5396 6738
5396 9501
5396 9502
5397 5398
5397 5399
5397 5400
5398 5976
5398 5399
5398 5400
5399 5400
5401 5402
5403 5404
5404 11209
5405 5406
5405 5407
5405 5408
5405 5409
5405 5410
5405 5411
5405 5412
5405 5413
5405 5414
5406 5572
5406 5573
5406 5574
5406 5575
5406 5576
5406 5577
5407 6320
5407 6321
5407 5408
5407 5412
5407 5413
5407 5414
5408 7474
5408 5409
5408 7343
5408 5410
5408 5411
5408 5412
5408 5413
5408 5414
5409 5410
5409 5411
5409 5412
5410 5578
5410 6837
5410 6838
5410 5579
5410 5574
5410 5580
5410 5581
5410 6839
5411 5412
5412 5413
5412 5414
5413 5414
5415 5416
5415 5417
5415 5418
5415 5419
5415 5420
5415 5421
5415 5422
5415 5423
5415 5424
5416 5420
5416 5422
5416 5423
5416 5424
5417 5418
5417 5419
5417 5420
5417 5421
5418 5420
5418 5421
5419 11408
5419 11409
5419 11402
5419 11410
5419 11403
5419 11404
5420 5421
5420 5422
5420 5423
5420 5424
5422 5423
5422 5424
5423 5424
5425 5426
5425 5427
5425 5428
5425 5429
5425 5430
5425 5431
5426 11844
5426 5427
5426 5428
5426 5429
5426 5430
5426 5431
5427 5428
5427 5429
5428 5429
5430 11844
5430 5431
5430 11973
5430 11974
5430 11975
5431 11844
5432 9516
5432 9752
5432 9753
5433 5434
5433 5435
5433 5436
5433 5437
5433 5438
5433 5439
5434 5435
5434 5436
5434 5437
5434 5438
5434 5439
5435 5436
5435 5437
5435 5438
5435 5439
5436 5437
5436 5438
5436 5439
5437 5438
5437 5439
5438 5439
5440 5441
5440 5442
5440 5443
5440 5444
5441 5442
5441 5443
5441 5444
5442 8490
5442 10434
5442 5443
5442 10435
5442 10436
5442 10437
5442 10438
5442 10439
5443 5444
5445 5446
5445 5449
5445 5450
5446 5449
5446 5450
5447 5448
5449 5450
5451 7976
5451 7977
5451 5452
5451 5453
5451 7978
5451 7979
5451 7980
5451 7981
5451 7982
5452 5453
5454 5455
5454 5456
5454 5457
5454 5458
5454 5459
5455 5456
5457 5458
5457 5459
5458 5459
5460 5461
5460 5462
5461 5487
5461 9529
5461 5490
5461 5462
5463 5464
5463 5465
5463 5466
5463 5467
5464 5465
5464 5466
5464 5467
5464 5468
5465 5466
5465 5467
5465 5468
5466 5467
5466 5468
5467 5468
5469 5470
5469 5471
5470 5471
5472 5473
5474 5475
5474 5476
5474 5477
5475 5476
5475 5477
5476 5477
5478 5479
5478 5480
5478 5481
5478 5482
5478 5483
5478 5484
5478 5485
5478 5486
5479 5480
5479 5481
5479 5482
5479 5483
5479 5484
5479 5485
5479 5486
5480 5481
5480 5482
5480 5483
5480 5484
5480 5485
5480 5486
5481 5482
5481 5483
5481 5484
5481 5485
5481 5486
5482 5483
5482 5484
5482 5485
5482 5486
5483 5484
5483 5485
5483 5486
5484 5485
5484 5486
5485 5486
5487 5488
5487 5489
5487 5490
5487 5491
5487 5492
5487 5493
5487 5494
5487 5495
5487 5496
5487 5497
5487 5498
5487 5499
5487 5500
5488 5773
5488 5489
5488 8659
5488 8660
5488 8661
5489 5493
5489 5494
5489 5500
5490 9529
5492 5495
5492 5496
5492 5497
5493 5494
5493 5500
5494 5495
5494 5498
5495 5496
5495 5497
5496 5497
5501 5502
5501 5503
5501 5504
5501 5505
5501 5506
5501 5507
5502 5503
5502 5504
5502 5505
5502 5506
5502 5507
5502 7797
5503 5504
5503 5505
5503 5506
5503 5507
5504 5505
5504 5506
5504 5507
5505 5506
5505 5507
5506 5507
5508 9340
5508 9341
5508 9342
5509 5510
5509 5511
5509 5512
5509 5513
5509 5514
5509 5515
5509 5516
5509 5517
5509 5518
5510 5517
5510 5518
5511 5512
5511 5513
5511 5514
5511 5515
5511 5516
5512 5513
5512 5514
5512 5515
5512 5516
5513 5514
5513 5515
5513 5516
5514 5515
5514 5516
5515 5516
5517 5518
5519 6885
5519 6201
5519 5520
5520 6885
5520 6201
5521 5522
5521 5523
5521 5524
5522 5523
5522 5524
5523 5524
5525 5526
5525 5527
5525 5528
5525 5529
5525 5530
5526 5527
5526 5528
5526 5529
5526 5530
5527 5528
5527 5529
5527 5530
5528 5529
5528 5530
5529 5530
5531 5532
5531 5533
5531 5534
5531 5535
5531 5536
5532 5533
5532 5534
5532 5535
5532 5536
5533 5534
5533 5535
5533 5536
5534 5535
5534 5536
5535 5536
5537 5538
5537 5539
5537 5540
5537 5541
5537 5542
5537 5543
5537 5544
5537 5545
5537 5546
5537 5547
5537 5548
5538 5540
5538 5541
5538 5542
5538 5543
5538 5545
5539 6354
5539 5544
5539 5547
5539 5548
5540 5546
5542 5543
5542 5545
5543 5545
5547 5548
5549 5550
5549 5551
5549 5552
5550 5810
5550 5811
5550 5812
5550 5813
5551 7060
5552 11010
5553 5554
5553 5555
5553 5556
5553 5557
5554 10745
5554 5555
5555 10191
5555 10745
5555 5556
5555 5557
5555 10795
5556 5557
5558 8654
5558 9929
5558 9895
5558 10996
5558 10997
5558 10998
5558 10999
5558 8655
5558 11000
5560 7353
5560 7354
5560 7355
5560 5561
5560 7356
5560 7357
5560 7358
5560 7359
5560 7360
5560 7361
5561 7353
5561 7354
5561 7355
5561 7356
5561 7357
5561 7358
5561 7359
5561 7360
5561 7361
5562 5563
5562 5564
5562 5565
5562 5566
5562 5567
5562 5568
5562 5569
5562 5570
5562 5571
5563 5654
5563 5564
5563 5826
5563 5565
5564 7351
5564 7352
5564 5565
5565 5566
5565 5567
5565 5568
5565 5569
5565 5570
5565 5571
5566 5567
5566 5568
5566 5570
5566 5571
5567 5568
5567 5570
5567 5571
5568 5569
5568 5570
5568 5571
5570 5571
5572 10297
5572 10298
5572 10299
5572 5575
5573 6320
5573 6321
5573 6322
5573 9200
5573 5574
5573 6326
5573 6839
5573 5576
5573 5577
5573 6328
5573 6329
5573 10679
5573 10680
5573 10681
5573 10682
5573 10683
5574 6320
5574 6321
5574 6837
5574 6838
5574 6322
5574 6323
5574 9200
5574 6326
5574 6839
5574 6327
5574 5576
5574 5577
5574 6328
5574 6329
5574 6330
5574 6331
5574 10679
5574 10680
5574 10681
5574 10682
5574 10683
5574 6332
5574 6333
5575 8625
5575 6445
5575 5714
5575 8538
5575 9254
5575 5716
5575 9258
5575 9259
5575 8646
5576 5577
5577 9200
5577 6326
5577 6839
5577 10679
5577 10680
5577 10683
5578 5579
5578 5580
5578 5581
5579 5580
5579 5581
5580 5581
5582 5583
5582 5584
5582 5585
5583 9402
5583 9403
5583 9404
5583 9405
5583 9406
5583 9407
5583 9408
5584 6520
5584 11760
5584 11801
5584 11761
5584 11832
5584 11833
5584 11834
5584 11835
5584 11802
5584 11836
5584 11837
5584 11838
5584 5585
5584 11748
5586 5587
5586 5588
5586 5589
5586 6856
5586 5590
5586 5591
5586 5592
5587 8673
5587 8675
5587 5588
5587 5596
5587 5597
5588 5591
5588 5592
5588 5596
5588 5597
5588 5598
5588 5599
5589 9091
5589 6856
5589 9096
5591 5592
5591 5599
5592 5599
5593 5594
5593 5595
5594 5595
5596 5597
5600 5601
5600 5602
5600 5603
5600 5604
5600 5605
5600 5606
5600 5607
5600 5608
5600 5609
5601 5602
5601 5603
5601 5604
5601 5605
5601 5606
5601 5607
5601 5608
5601 5609
5602 5603
5602 5604
5602 5605
5602 5606
5602 5607
5602 5608
5602 5609
5603 5604
5603 5605
5603 5606
5603 5607
5603 5608
5603 5609
5604 5605
5604 5606
5604 5607
5604 5608
5604 5609
5605 5606
5605 5607
5605 5608
5605 5609
5606 5607
5606 5608
5606 5609
5607 5608
5607 5609
5608 5609
5610 5611
5610 5612
5610 5613
5610 5614
5610 5615
5610 5616
5610 5617
5611 5612
5611 5613
5611 5614
5611 5615
5611 7065
5611 5616
5611 5617
5611 7066
5611 7067
5612 5615
5612 7065
5612 7066
5612 7067
5613 5614
5615 7065
5615 7066
5615 7067
5616 5617
5618 11268
5619 5620
5619 5621
5619 5622
5619 5623
5619 5624
5619 5625
5619 5626
5619 5627
5620 6496
5620 6497
5620 6498
5620 5622
5620 5623
5620 6499
5620 6500
5620 6501
5620 6502
5620 6503
5620 6504
5621 8178
5622 6497
5622 10214
5622 6498
5622 8178
5622 5623
5622 6499
5622 6500
5622 6501
5622 6502
5622 6503
5622 10216
5622 10702
5622 6504
5623 6497
5623 6498
5623 6499
5623 6500
5623 6501
5623 6502
5623 6503
5623 6504
5624 5625
5624 5626
5624 5627
5625 5626
5625 5627
5626 5627
5628 6074
5628 6075
5628 6076
5628 6077
5628 6078
5628 6079
5628 6080
5629 5630
5629 5631
5629 5632
5629 5633
5629 5634
5629 5635
5629 5636
5629 5637
5629 5638
5629 5639
5629 5640
5629 5641
5629 5642
5629 5643
5629 5644
5629 5645
5629 5646
5629 5647
5629 5648
5629 5649
5629 5650
5630 5636
5630 5647
5630 5649
5631 5632
5631 5636
5631 5770
5631 5639
5631 5640
5631 5771
5632 7081
5632 5636
5632 7082
5632 5639
5632 7083
5632 5640
5632 7084
5632 7085
5632 7086
5632 7087
5632 7088
5632 7089
5632 7090
5632 7091
5632 7092
5632 7093
5632 7094
5632 7095
5632 7096
5632 7097
5632 7098
5632 7099
5633 6074
5633 5650
5634 10715
5634 10716
5634 10717
5634 10718
5634 5642
5634 10719
5634 10720
5634 10721
5635 5637
5635 10829
5636 5639
5636 5640
5636 5641
5636 5644
5636 5647
5636 5649
5637 10829
5638 8915
5639 8477
5639 5640
5639 11008
5641 5644
5641 5645
5641 5646
5644 5645
5644 5646
5646 5648
5647 5649
5651 5652
5651 5653
5652 9799
5652 5653
5652 9800
5652 9802
5654 5740
5654 5826
5654 5827
5654 5828
5655 5659
5656 5657
5656 5658
5656 5660
5657 5660
5657 5661
5658 5661
5658 5662
5658 5663
5658 5664
5658 5665
5658 5666
5658 5667
5660 5661
5661 5662
5661 5663
5661 5664
5661 5665
5661 5666
5661 5667
5662 5663
5662 5664
5662 5665
5662 5666
5662 5667
5663 5664
5663 5665
5663 5666
5663 5667
5664 5665
5664 5666
5664 5667
5665 5666
5665 5667
5666 5667
5668 5669
5668 5670
5668 5671
5668 5672
5669 5670
5669 5671
5669 5672
5670 5671
5670 5672
5671 5672
5673 5674
5673 5675
5673 5676
5673 5677
5673 5678
5673 5679
5673 5680
5673 5681
5674 7904
5674 7905
5674 7906
5674 7907
5674 7908
5674 7909
5675 8771
5675 7040
5675 8772
5675 8773
5675 5676
5675 8774
5675 8775
5676 8771
5676 7040
5676 8772
5676 8773
5676 8774
5676 8775
5677 5678
5677 5679
5677 5680
5677 5681
5678 5679
5678 5680
5678 5681
5679 5680
5679 5681
5680 5681
5682 7064
5682 5683
5682 5684
5682 5685
5682 5686
5682 5687
5682 5688
5682 5689
5682 5690
5682 5691
5682 5692
5683 5684
5683 5685
5683 5686
5683 5687
5683 5688
5683 5689
5683 5690
5683 5691
5683 5692
5684 5685
5684 5686
5684 5687
5684 5688
5684 5689
5684 5690
5684 5691
5684 5692
5685 5686
5685 5687
5685 5688
5685 5689
5685 5690
5685 5691
5685 5692
5686 5688
5686 5689
5686 5690
5686 5691
5686 5692
5687 5688
5687 5690
5687 5691
5688 5689
5688 5690
5688 5691
5688 5692
5689 5690
5689 5691
5689 5692
5690 5691
5690 5692
5691 5692
5693 11365
5693 11366
5693 11367
5693 11368
5693 11369
5693 11370
5693 5694
5695 8477
5695 8915
5695 8916
5695 8482
5695 8917
5695 8918
5695 8920
5695 5697
5698 5699
5698 5700
5698 5701
5698 5702
5698 5703
5699 5700
5699 5701
5699 5702
5699 5703
5700 5701
5700 5702
5700 5703
5701 5702
5701 5703
5702 5703
5704 5705
5704 5706
5705 10564
5705 5706
5705 10565
5708 5711
5709 5710
5712 5713
5712 5714
5712 5715
5712 5716
5712 5717
5712 5718
5713 5717
5714 5888
5714 5889
5714 8625
5714 7578
5714 8538
5714 8754
5714 9254
5714 5715
5714 9255
5714 5891
5714 8525
5714 5893
5714 9256
5714 5842
5714 9257
5714 5716
5714 9258
5714 8529
5714 9259
5714 6450
5714 5848
5714 9260
5714 8646
5714 8626
5714 7519
5714 9261
5714 8533
5714 8536
5715 5717
5715 5718
5716 8625
5716 9254
5716 5842
5716 9257
5716 9258
5716 5848
5716 8626
5719 5720
5719 5721
5720 11781
5720 11782
5720 10184
5720 11783
5720 11784
5720 5721
5722 5723
5722 5724
5722 5725
5722 5726
5722 5727
5722 5728
5723 5724
5723 5725
5723 5726
5723 5727
5723 5728
5724 5725
5724 5726
5724 5727
5724 5728
5725 5726
5725 5727
5725 5728
5726 5727
5726 5728
5727 5728
5729 5730
5729 5731
5729 5732
5729 5733
5729 5734
5729 5735
5730 5731
5730 5732
5730 5733
5730 5734
5730 5735
5731 5732
5731 5733
5731 5734
5731 5735
5732 5733
5732 5734
5732 5735
5733 7485
5733 5734
5733 5735
5734 5735
5736 5737
5736 5738
5736 5739
5736 5740
5736 5741
5736 5742
5737 5738
5737 5739
5737 5740
5737 5741
5737 5742
5738 5739
5738 5740
5738 5741
5738 5742
5739 5740
5739 5741
5739 5742
5740 6111
5740 8105
5740 5741
5740 5742
5741 5742
5743 5744
5745 5746
5745 5747
5745 5748
5745 5749
5745 5750
5746 5747
5746 6603
5746 6604
5746 6605
5746 6606
5746 5748
5746 5749
5746 5750
5747 6603
5747 6604
5747 6605
5747 6606
5747 5748
5747 5749
5747 5750
5748 5749
5748 5750
5749 5750
5751 6713
5751 9059
5751 9060
5751 8610
5751 9061
5751 9062
5751 9063
5751 9064
5752 5753
5752 5754
5752 5755
5752 5756
5752 5757
5752 5758
5752 5759
5753 6680
5753 6681
5753 6682
5753 6683
5753 6684
5754 5755
5754 5756
5754 5757
5754 5758
5754 5759
5755 5756
5755 5757
5755 5758
5755 5759
5756 5757
5756 5758
5756 5759
5757 5758
5757 5759
5758 5759
5760 5761
5760 5762
5760 5763
5760 5764
5761 7282
5761 5762
5761 5763
5761 7288
5761 5764
5762 7282
5762 5763
5762 7288
5762 5764
5763 5764
5766 5767
5766 5768
5766 5769
5767 5768
5767 5769
5768 5769
5770 11005
5770 5771
5772 5773
5772 5774
5772 5775
5772 5776
5772 5777
5772 5778
5772 5779
5772 5780
5773 8659
5773 8660
5773 8661
5774 5775
5774 5776
5774 5777
5774 5778
5774 5779
5774 5780
5775 5776
5775 5777
5775 5778
5775 5779
5775 5780
5776 5777
5776 5778
5776 5779
5776 5780
5777 5778
5777 5779
5777 5780
5778 5779
5778 5780
5779 5780
5781 5782
5781 11704
5781 5783
5781 5784
5782 11704
5782 5783
5782 5784
5783 5784
5785 5786
5785 5787
5785 5788
5785 5789
5785 5790
5785 5791
5785 5792
5785 5793
5785 5794
5786 5787
5786 5788
5786 5789
5786 5791
5786 5792
5786 5793
5787 5788
5787 5789
5787 5791
5787 5792
5787 5793
5788 7872
5788 7873
5788 5789
5788 7874
5788 5791
5789 7874
5789 5790
5789 8001
5789 5791
5789 5792
5789 5794
5789 8002
5789 8003
5789 8004
5790 7874
5790 5791
5790 5792
5790 5794
5790 8782
5790 8004
5790 8783
5790 8700
5790 8701
5790 8784
5791 5792
5791 5794
5792 5794
5795 5796
5795 5797
5795 5798
5795 5799
5795 5800
5796 5797
5796 5798
5796 5800
5797 6659
5797 6661
5797 5798
5797 6663
5797 5800
5798 5800
5799 11721
5799 11722
5799 11723
5799 11724
5799 11725
5799 11726
5801 5802
5801 5803
5801 5804
5801 5805
5801 5806
5801 5807
5801 5808
5801 5809
5802 5803
5802 5804
5802 5805
5802 5806
5802 5807
5802 5808
5802 5809
5802 8559
5803 5804
5803 5805
5803 5806
5803 5807
5803 5808
5803 5809
5804 5805
5804 5806
5804 5807
5804 5808
5804 5809
5805 6447
5805 5806
5805 5807
5805 5808
5805 5809
5806 5807
5806 5808
5806 5809
5807 5808
5807 5809
5808 5809
5810 5811
5810 5812
5810 7313
5810 7314
5810 7315
5810 5813
5810 7316
5811 5812
5811 7313
5811 7314
5811 7315
5811 5813
5811 7316
5812 5813
5814 5815
5814 5816
5814 5817
5814 5818
5814 5819
5814 5820
5814 5821
5814 5822
5814 5823
5814 5824
5814 5825
5815 9638
5815 5816
5815 5817
5815 5818
5815 5819
5815 5820
5815 5821
5815 5822
5815 5823
5815 5824
5815 5825
5816 5821
5816 5824
5816 5825
5817 5818
5817 5819
5817 5820
5817 5821
5817 5822
5817 5823
5818 5819
5818 5820
5818 5821
5818 5822
5818 5823
5819 5820
5819 5821
5819 5822
5819 5823
5820 5821
5821 9638
5821 5822
5821 5823
5821 5824
5822 5823
5824 5825
5826 5827
5827 8790
5827 9193
5827 9194
5828 8601
5828 6825
5828 8603
5828 8604
5829 5830
5832 7141
5832 7142
5832 7143
5832 7144
5832 7145
5833 5834
5833 5835
5833 5836
5833 5837
5833 5838
5834 7509
5834 5835
5834 5837
5834 7510
5834 7511
5834 7512
5834 7513
5834 7514
5834 7515
5835 5836
5835 5837
5836 5837
5837 7509
5837 7510
5837 7511
5837 7512
5837 7513
5838 10364
5838 10365
5838 10366
5838 10367
5838 10368
5838 10369
5838 10370
5839 5840
5839 5841
5839 5842
5839 5843
5839 5844
5839 5845
5839 5846
5839 5847
5839 5848
5839 5849
5839 5850
5839 5851
5839 5852
5840 9894
5840 5844
5840 5846
5840 5847
5840 9730
5840 9895
5840 9896
5841 6225
5841 5842
5841 5845
5841 10669
5841 10670
5842 8625
5842 5848
5843 9729
5843 5844
5843 5846
5843 5847
5843 5849
5843 5850
5843 9730
5843 9731
5843 11092
5843 9732
5844 9894
5844 5845
5844 5846
5844 5847
5844 5849
5844 5850
5844 9730
5844 9731
5844 5851
5844 11092
5844 11119
5844 11120
5844 5852
5845 5847
5845 10669
5845 5851
5845 10670
5846 9894
5846 5847
5846 5849
5846 5850
5846 9730
5846 11119
5847 9894
5847 5849
5847 5850
5847 9730
5847 9731
5847 5851
5847 11092
5847 5852
5848 8625
5848 7445
5848 7450
5849 5851
5850 9729
5850 9730
5850 9731
5850 5851
5850 11119
5850 9732
5852 9730
5852 11120
5853 5854
5853 5855
5853 5856
5853 5857
5853 5858
5853 5859
5853 5860
5853 5861
5853 5862
5854 5855
5854 5857
5854 7054
5854 7055
5854 7056
5854 7057
5854 7058
5855 5856
5855 5857
5855 9834
5855 5858
5855 5859
5855 5860
5855 5861
5855 5862
5856 5857
5856 5858
5856 5859
5856 5861
5856 5862
5857 7164
5857 5858
5857 7057
5857 10067
5858 9834
5858 5859
5858 5860
5858 5861
5858 10069
5858 5862
5859 5860
5859 5861
5859 5862
5861 5862
5863 5864
5863 5865
5863 5866
5863 5867
5864 5865
5864 5866
5864 5867
5865 5866
5865 5867
5866 5867
5868 5869
5868 5876
5868 5877
5868 5878
5868 5879
5869 5876
5869 5877
5869 5878
5869 5879
5870 5871
5870 5872
5870 7059
5870 7655
5870 5873
5870 5874
5870 5875
5870 7656
5870 7657
5870 7658
5870 7659
5870 7660
5870 7661
5870 7662
5870 7663
5870 7664
5871 5872
5871 7059
5871 7655
5871 5873
5871 5874
5871 5875
5871 8787
5871 8788
5871 7656
5871 7657
5871 7658
5871 7659
5871 7660
5871 7661
5871 7662
5871 7663
5871 7664
5872 6355
5872 5873
5872 5874
5872 5875
5873 7655
5873 5874
5873 5875
5873 8787
5873 8788
5873 7656
5874 5875
5876 7550
5876 5877
5876 5878
5876 5879
5877 5878
5877 5879
5878 5879
5880 5881
5880 5882
5880 5883
5880 5884
5880 5885
5880 5886
5881 5887
5881 5882
5881 5883
5881 5884
5881 5885
5881 5886
5882 5887
5882 5883
5882 5884
5882 5885
5882 5886
5883 5884
5883 5885
5883 5886
5884 5885
5884 5886
5885 5886
5887 6654
5887 6655
5887 6656
5887 6657
5887 6658
5888 5889
5888 5890
5888 5891
5888 5892
5888 5893
5889 5891
5889 5893
5890 5892
5891 9964
5891 9965
5891 5893
5894 5895
5894 5896
5894 5897
5894 5899
5895 5896
5895 5897
5895 5899
5896 5897
5896 5899
5897 5898
5897 5899
5900 5901
5900 5902
5900 5903
5900 5904
5900 5905
5900 5906
5900 5907
5900 5908
5901 5902
5901 5903
5901 5904
5901 5905
5901 5906
5901 5907
5901 5908
5902 5903
5902 5904
5902 5905
5902 5906
5902 5907
5902 5908
5903 5904
5903 5905
5903 5906
5903 5907
5903 5908
5904 5905
5904 5906
5904 5907
5904 5908
5905 5906
5905 5907
5905 5908
5906 5907
5906 5908
5907 5908
5910 5911
5910 5912
5910 5913
5910 5914
5910 5915
5910 5916
5910 5917
5910 5918
5910 5919
5910 5920
5910 5921
5910 5922
5910 5923
5910 5924
5910 5925
5910 5926
5910 5927
5910 5928
5910 5929
5910 5930
5910 5931
5910 5932
5910 5933
5911 6170
5911 6171
5911 6415
5911 6416
5911 6417
5911 6418
5911 6419
5911 6420
5912 6200
5912 5913
5912 5914
5912 5915
5912 5916
5912 5917
5912 5918
5912 5919
5912 5920
5912 5921
5912 5922
5912 5923
5912 5924
5912 5925
5912 5926
5912 5927
5912 5928
5912 5929
5912 5930
5912 5931
5912 5932
5912 5933
5913 5914
5913 5915
5913 5916
5913 5917
5913 5918
5913 5919
5913 5920
5913 5921
5913 5922
5913 5923
5913 5924
5913 5925
5913 5926
5913 5927
5913 5928
5913 5929
5913 5930
5913 5931
5913 5932
5913 5933
5914 5915
5914 5916
5914 5917
5914 5918
5914 5919
5914 5920
5914 5921
5914 5922
5914 5923
5914 5924
5914 5925
5914 5926
5914 5927
5914 5928
5914 5929
5914 5930
5914 5931
5914 5932
5914 5933
5915 5916
5915 5917
5915 5918
5915 5919
5915 5920
5915 5921
5915 5922
5915 5923
5915 5924
5915 5925
5915 5926
5915 5927
5915 5928
5915 5929
5915 5930
5915 5931
5915 5932
5915 5933
5916 5917
5916 5918
5916 5919
5916 5920
5916 5921
5916 5922
5916 5923
5916 5924
5916 5925
5916 5926
5916 5927
5916 5928
5916 5929
5916 5930
5916 5931
5916 5932
5916 5933
5917 5918
5917 5919
5917 5920
5917 5921
5917 5922
5917 5923
5917 5924
5917 5925
5917 5926
5917 5927
5917 5928
5917 5929
5917 5930
5917 5931
5917 5932
5917 5933
5918 5919
5918 5920
5918 5921
5918 5922
5918 5923
5918 5924
5918 5925
5918 5926
5918 5927
5918 5928
5918 5929
5918 5930
5918 5931
5918 5932
5918 5933
5919 5920
5919 5921
5919 5922
5919 5923
5919 5924
5919 5925
5919 5926
5919 5927
5919 5928
5919 5929
5919 5930
5919 5931
5919 5932
5919 5933
5920 5921
5920 5922
5920 5923
5920 5924
5920 5925
5920 5926
5920 5927
5920 5928
5920 5929
5920 5930
5920 5931
5920 5932
5920 5933
5921 5922
5921 5923
5921 5924
5921 5925
5921 5926
5921 5927
5921 5928
5921 5929
5921 5930
5921 5931
5921 5932
5921 5933
5922 5923
5922 5924
5922 5925
5922 5926
5922 5927
5922 5928
5922 5929
5922 5930
5922 5931
5922 5932
5922 5933
5923 5924
5923 5925
5923 5926
5923 5927
5923 5928
5923 5929
5923 5930
5923 5931
5923 5932
5923 5933
5924 5925
5924 5926
5924 5927
5924 5928
5924 5929
5924 5930
5924 5931
5924 5932
5924 5933
5925 5926
5925 5927
5925 5928
5925 5929
5925 5930
5925 5931
5925 5932
5925 5933
5926 5927
5926 5928
5926 5929
5926 5930
5926 5931
5926 5932
5926 5933
5927 5928
5927 5929
5927 5930
5927 5931
5927 5932
5927 5933
5928 5929
5928 5930
5928 5931
5928 5932
5928 5933
5929 5930
5929 5931
5929 5932
5929 5933
5930 5931
5930 5932
5930 5933
5931 5932
5931 5933
5932 5933
5934 5935
5934 5936
5934 5937
5934 5938
5934 5939
5934 5940
5934 5941
5934 5942
5935 5936
5935 5937
5936 5937
5937 5938
5937 5939
5937 5940
5937 5941
5937 5942
5938 5939
5938 5940
5938 5941
5939 5940
5939 5941
5940 5941
5943 5944
5943 5945
5944 9538
5944 9540
5944 9543
5944 9539
5944 5945
5946 8217
5946 5947
5946 5948
5946 8218
5946 8219
5946 8220
5946 8221
5946 8222
5946 8223
5946 8224
5946 8225
5946 8226
5946 8227
5946 8228
5946 8229
5946 8230
5947 5948
5949 5952
5949 5956
5949 5957
5949 5958
5949 5960
5949 5962
5949 5963
5949 5964
5950 11080
5950 5959
5950 5961
5950 5965
5950 5966
5951 11262
5951 11263
5951 11264
5951 11265
5951 11266
5951 5952
5951 5953
5951 5954
5951 5955
5952 5953
5952 5954
5952 5955
5952 5956
5952 5957
5952 5958
5952 5960
5952 5962
5952 5963
5952 5964
5953 5954
5953 5955
5954 5955
5956 5957
5956 5958
5956 5960
5956 5962
5956 5963
5956 5964
5957 5958
5957 5960
5957 5962
5957 5963
5957 5964
5958 5960
5958 5962
5958 5963
5958 5964
5959 5961
5959 5965
5959 5966
5960 5962
5960 5963
5960 5964
5961 5965
5961 5966
5962 5963
5962 5964
5963 5964
5965 5966
5967 5968
5967 5969
5967 5970
5967 5971
5968 5969
5968 5970
5968 5971
5969 5970
5969 5971
5970 5971
5972 5973
5972 5974
5972 5975
5973 5975
5973 6374
5974 5975
5976 5977
5976 5978
5976 5979
5976 5980
5976 5981
5976 5982
5976 5983
5977 5978
5977 5979
5977 5980
5978 5979
5978 5980
5978 5981
5978 5982
5978 5983
5979 5980
5979 5981
5979 5982
5979 5983
5981 5982
5981 5983
5982 5983
5984 5985
5984 5986
5984 5987
5984 5988
5984 5989
5985 5986
5985 5987
5985 5988
5985 5989
5986 5987
5986 5988
5986 5989
5987 5988
5987 5989
5988 5989
5990 8490
5990 10506
5990 5991
5992 5993
5992 5994
5993 6512
5993 5994
5993 7454
5993 7455
5993 7456
5995 8725
5995 8726
5995 8727
5995 8728
5995 8729
5996 5997
5998 5999
5998 6000
5998 6001
5999 6000
5999 6001
6000 6001
6002 6003
6002 6004
6002 6005
6002 6006
6002 6007
6002 6008
6002 6009
6002 6010
6003 6004
6003 6008
6003 6009
6003 6010
6004 6008
6004 6009
6004 6010
6005 6006
6005 6007
6006 6007
6008 6009
6009 6010
6011 6012
6011 6013
6011 6014
6012 6013
6012 6014
6012 6015
6012 6016
6012 6017
6013 6014
6014 6015
6014 6016
6014 6017
6015 6016
6015 6017
6016 6017
6018 6019
6018 6020
6018 6021
6018 6022
6018 6023
6018 6024
6018 6025
6018 6026
6018 6027
6018 6028
6019 6020
6019 6021
6019 6022
6019 6023
6019 6024
6019 6025
6019 6026
6019 6027
6019 6028
6020 6021
6020 6022
6020 6023
6020 6024
6020 6025
6020 6026
6020 6027
6020 6028
6020 6029
6020 6030
6020 6031
6020 6032
6021 6022
6021 6023
6021 6024
6021 6025
6021 6026
6021 6027
6021 6028
6021 6029
6021 6030
6021 6031
6021 6032
6022 6023
6022 6024
6022 6025
6022 6026
6022 6027
6022 6028
6022 6029
6022 6030
6022 6031
6022 6032
6023 6024
6023 6025
6023 6026
6023 6027
6023 6028
6023 6029
6023 6030
6023 6031
6023 6032
6024 6025
6024 6026
6024 6027
6024 6028
6024 6029
6024 6030
6024 6031
6024 6032
6025 6026
6025 6027
6025 6028
6025 6029
6025 6030
6025 6031
6025 6032
6026 6027
6026 6028
6027 6028
6029 6030
6029 6031
6029 6032
6030 6031
6030 6032
6031 6032
6033 6034
6033 6035
6033 6036
6033 6037
6033 6038
6033 6039
6033 6040
6033 6041
6033 6042
6033 6043
6033 6044
6033 6045
6033 6046
6033 6047
6033 6048
6033 6049
6034 6036
6034 6037
6034 6038
6034 6050
6035 6043
6035 6044
6035 6047
6035 6049
6036 6037
6036 6038
6036 8967
6037 6038
6037 6050
6037 8967
6038 6040
6038 6041
6038 6042
6038 6045
6038 6046
6039 6040
6039 6048
6039 9097
6040 6041
6040 6042
6040 6045
6040 6046
6041 6042
6041 6045
6041 6046
6042 6045
6042 6046
6043 6044
6043 6047
6043 6049
6045 6046
6047 6049
6048 9097
6051 6052
6051 6053
6051 6054
6051 6055
6051 6056
6051 6057
6051 6058
6051 6059
6051 6060
6052 6056
6052 6060
6053 6054
6053 6055
6053 6057
6054 6055
6054 6057
6055 6057
6056 6060
6058 6059
6061 6062
6061 6063
6061 6064
6061 6065
6061 6066
6062 6063
6062 6064
6062 6065
6062 6066
6063 6064
6063 6065
6063 6066
6063 6067
6063 6068
6063 6069
6063 6070
6063 6071
6063 6072
6064 6065
6064 6066
6065 6066
6067 6068
6067 6069
6067 6070
6067 6071
6067 6072
6068 6069
6068 6070
6068 6071
6068 6072
6069 6070
6069 6071
6069 6072
6070 6071
6070 6072
6071 6072
6073 7783
6073 7784
6073 7785
6073 7786
6073 10111
6074 6075
6074 6076
6074 6077
6074 6078
6074 6079
6074 6080
6075 6076
6075 6077
6075 6078
6075 6079
6075 6080
6076 6077
6076 6078
6076 6079
6076 6080
6077 6078
6077 6079
6077 6080
6078 6079
6078 6080
6079 6080
6081 6082
6081 6083
6081 6084
6081 6085
6081 6086
6081 6087
6082 6088
6082 6089
6082 6090
6082 6091
6082 6092
6082 6093
6083 8190
6083 8191
6083 8192
6083 8193
6083 8194
6083 8195
6083 6084
6083 6085
6083 6086
6083 6087
6084 6085
6084 6086
6084 6087
6085 6086
6085 6087
6086 6087
6088 6089
6088 6090
6088 6091
6088 6092
6088 6093
6089 6090
6089 6091
6089 6092
6089 6093
6090 6091
6090 6092
6090 6093
6091 6092
6091 6093
6092 6093
6094 6095
6094 6096
6094 6097
6094 6098
6094 6099
6094 6100
6095 6096
6095 6097
6095 6098
6095 6099
6095 6100
6096 6097
6096 6098
6096 9946
6096 9947
6096 9948
6096 9949
6097 6098
6097 9948
6097 6099
6097 9949
6098 9946
6098 9947
6098 9948
6098 9949
6099 6100
6101 6102
6101 6469
6101 6103
6101 6470
6101 6471
6102 6103
6103 6470
6103 6471
6104 6913
6104 6783
6104 6914
6104 6784
6104 6915
6104 6785
6105 6106
6105 6107
6105 6108
6105 6109
6106 6107
6106 6108
6106 6109
6107 6108
6107 6109
6108 6109
6110 8102
6110 6111
6110 8103
6110 8104
6110 8105
6110 8106
6110 8107
6110 8108
6110 8109
6110 8110
6111 8102
6111 8103
6111 8104
6111 8105
6111 8106
6111 8107
6111 8108
6111 8109
6111 8110
6112 6113
6112 6114
6112 6115
6112 6116
6112 6117
6112 6118
6112 6119
6112 6120
6112 6121
6112 6122
6113 6114
6115 6118
6116 6117
6118 6119
6118 6120
6118 6121
6118 6122
6119 6120
6119 6121
6119 6122
6120 11158
6120 6121
6120 6122
6121 6122
6123 6567
6123 6568
6123 6569
6123 6570
6123 6571
6123 6572
6123 6573
6123 6574
6123 6575
6123 6576
6123 6577
6123 6578
6123 6579
6123 6580
6123 6581
6124 6125
6124 6126
6124 6127
6125 6126
6125 6127
6125 6886
6125 6887
6126 6127
6128 6129
6130 6131
6130 6132
6131 6132
6133 6134
6133 6135
6133 6136
6134 6135
6134 6136
6135 6136
6136 6137
6137 10664
6137 6230
6138 6139
6138 6140
6138 6141
6138 6142
6138 6143
6138 6144
6138 6145
6139 6189
6139 6140
6139 6141
6139 6142
6139 6344
6139 6345
6139 6143
6139 6144
6139 6193
6139 6194
6139 6145
6139 6346
6139 6347
6140 6141
6140 6142
6140 6143
6140 6144
6140 6145
6141 6189
6141 6142
6141 6143
6141 6144
6141 6193
6141 6194
6141 6145
6142 8901
6142 6345
6142 6143
6142 6144
6142 8902
6142 8903
6142 8904
6142 6145
6142 8905
6143 8901
6143 6144
6143 6193
6143 6194
6143 6145
6143 6346
6143 11610
6144 8901
6144 6193
6144 6194
6144 6145
6144 6346
6144 11610
6145 6193
6145 6194
6145 6346
6145 11610
6146 6147
6146 6148
6147 6148
6149 6366
6149 6367
6149 6368
6149 6369
6149 6370
6150 8656
6150 8657
6150 8658
6151 6152
6151 6153
6151 6154
6151 6155
6151 6156
6151 6157
6151 6158
6151 6159
6151 6160
6151 6161
6151 6162
6152 6153
6152 6154
6152 6155
6152 6156
6152 6433
6152 6157
6152 6434
6152 6158
6152 6159
6152 6160
6152 6161
6152 6435
6152 6162
6153 6154
6153 6155
6153 6433
6153 6434
6153 6435
6154 6155
6155 6433
6155 6434
6155 6435
6156 6157
6156 6159
6157 6159
6158 6162
6160 6161
6163 6164
6163 6165
6163 6166
6163 6167
6163 6168
6164 6166
6164 6167
6164 6168
6164 6731
6164 6732
6164 6733
6164 6734
6164 6735
6165 6741
6165 11548
6166 6167
6166 6168
6166 6731
6167 6168
6169 6171
6169 6172
6170 6171
6170 6172
6170 6173
6171 6172
6172 6173
6175 6176
6175 6177
6175 6178
6175 6179
6176 7706
6176 6177
6176 6178
6176 6179
6177 7706
6177 6178
6177 6179
6178 7706
6178 6179
6180 8301
6180 8302
6180 8303
6180 8304
6180 8305
6181 6182
6181 6183
6182 8980
6182 6183
6185 6186
6185 6187
6185 6188
6186 6188
6187 6188
6189 6190
6189 6191
6189 6192
6189 6193
6189 6194
6189 6195
6190 6191
6190 6192
6190 6195
6191 6192
6191 6195
6192 6195
6193 6194
6193 11610
6194 11610
6196 6197
6196 6198
6196 6199
6196 6200
6196 6201
6196 6202
6196 6203
6196 6204
6197 6198
6197 6199
6197 6202
6197 6203
6197 6857
6197 6204
6197 6858
6197 6859
6198 6199
6198 6202
6198 6203
6198 6857
6198 6204
6198 6858
6198 6859
6199 6202
6199 6203
6199 6204
6200 7393
6200 9433
6200 9724
6200 7394
6200 7395
6200 9725
6200 9726
6200 9727
6200 9728
6201 6885
6202 6203
6202 6857
6202 6204
6202 6858
6202 6859
6203 6204
6205 6206
6205 6207
6205 6208
6206 6207
6206 6208
6207 6208
6209 6948
6209 6949
6209 6950
6209 6951
6209 6952
6210 6212
6211 11785
6211 11786
6213 6214
6213 6215
6213 6216
6213 6217
6213 6218
6213 6219
6213 6220
6213 6221
6213 6222
6213 6223
6213 6224
6214 6215
6214 6216
6214 6217
6214 6218
6214 6219
6214 6220
6214 6221
6214 6222
6214 6223
6214 6224
6215 6216
6215 6217
6215 6218
6215 6219
6215 6220
6215 6221
6216 6217
6216 6218
6216 6219
6216 6220
6216 6221
6216 10406
6216 6222
6216 6223
6216 6224
6217 6218
6217 6219
6217 6220
6217 6221
6218 6219
6218 6220
6218 6221
6218 10406
6218 6222
6218 6223
6218 6224
6219 6220
6219 6221
6220 6221
6221 6222
6221 6223
6221 6224
6222 6223
6222 6224
6223 6224
6225 8538
6225 8646
6226 8368
6226 6233
6227 9352
6227 10388
6227 10389
6227 10872
6227 10873
6227 6233
6228 9899
6228 9900
6228 9901
6231 6232
6232 6233
6233 6234
6233 6235
6237 6238
6237 6240
6237 6241
6237 6242
6237 6243
6238 6240
6238 6241
6238 6242
6238 6243
6239 6436
6239 6383
6239 6437
6239 7548
6239 7549
6239 7550
6239 6438
6239 6439
6239 6440
6239 6441
6239 7551
6240 6241
6240 6242
6240 6243
6241 6242
6241 6243
6242 6243
6244 6245
6244 6246
6245 6246
6247 6248
6247 6249
6247 6250
6247 6251
6247 6252
6248 6249
6248 6250
6248 6251
6248 6252
6249 6250
6249 6251
6249 6252
6250 6251
6250 6252
6251 6252
6253 6254
6253 6255
6253 6256
6254 6255
6254 6256
6255 6256
6257 6261
6258 6259
6258 6260
6258 6261
6258 6262
6258 6263
6258 6264
6258 6265
6259 6260
6259 6261
6259 6262
6259 6263
6259 6264
6259 6265
6260 6261
6260 6262
6260 6263
6260 6264
6260 6265
6261 6262
6261 6263
6261 6264
6261 6265
6262 6263
6262 6264
6262 6265
6263 6264
6263 6265
6264 6265
6266 6267
6266 6268
6266 6269
6266 6270
6266 6271
6266 6272
6266 6273
6266 6274
6267 6909
6267 6910
6267 6911
6267 6912
6268 6269
6268 6270
6268 6271
6268 6272
6268 6273
6268 6274
6269 6270
6269 6271
6269 6272
6269 6273
6269 6274
6270 6271
6270 6272
6270 6273
6270 6274
6271 6272
6271 6273
6271 6274
6272 6273
6272 6274
6273 6274
6275 6276
6275 6277
6275 6278
6275 6279
6275 6280
6275 6281
6275 6282
6275 6283
6276 6278
6276 6279
6276 6280
6276 6281
6277 6279
6277 6282
6277 6283
6278 6280
6278 6281
6279 6282
6280 6281
6284 6285
6287 6289
6287 6290
6288 6289
6288 6290
6288 6291
6289 6290
6289 6291
6290 6291
6292 7717
6292 8790
6292 6293
6292 8642
6292 8644
6293 7717
6296 6297
6296 6298
6296 6299
6296 6300
6296 6301
6296 6302
6296 6303
6296 6304
6296 6305
6296 6306
6296 6307
6296 6308
6296 6309
6296 6310
6296 6311
6296 6312
6296 6313
6296 6314
6296 6315
6296 6316
6296 6317
6296 6318
6296 6319
6297 6298
6297 6299
6297 6300
6297 6301
6297 8814
6298 6299
6298 6300
6298 6301
6298 6302
6298 6303
6299 6300
6299 6301
6299 6302
6299 6303
6299 6305
6299 6306
6299 6308
6299 6309
6299 6312
6299 6313
6300 6301
6300 6302
6300 6303
6300 9937
6300 9938
6300 9939
6300 9940
6300 6305
6300 9941
6300 9942
6300 9943
6300 9944
6300 9945
6301 6302
6301 6303
6301 6305
6302 6303
6302 6305
6303 6305
6304 6307
6304 6315
6304 6316
6304 6317
6304 6318
6304 6319
6306 6308
6306 6309
6306 6310
6306 6311
6306 6312
6306 6313
6306 6314
6307 6315
6307 6316
6307 6317
6307 6318
6307 6319
6308 11175
6308 10432
6308 10433
6308 11176
6308 6309
6308 6312
6308 6313
6309 6312
6309 6313
6310 6311
6310 6314
6310 11930
6310 11931
6310 11932
6310 11933
6311 8588
6311 8589
6311 8590
6311 8591
6311 8592
6311 8593
6311 6314
6311 11930
6311 11931
6311 11932
6311 8594
6311 11933
6312 6313
6315 6316
6315 6317
6315 6318
6315 6319
6316 6317
6316 6318
6316 6319
6317 6318
6317 6319
6318 6319
6320 6321
6320 6322
6320 6323
6320 6324
6320 6325
6320 6326
6320 6327
6320 6328
6320 6329
6320 6330
6320 6331
6320 6332
6320 6333
6320 6334
6321 6322
6321 6323
6321 6325
6321 6327
6321 6328
6321 6329
6321 6330
6321 6331
6321 6334
6322 6323
6322 6324
6322 6325
6322 6326
6322 6327
6322 6328
6322 6329
6322 6330
6322 6331
6322 6332
6322 6333
6322 6334
6323 6324
6323 6332
6323 6333
6324 10782
6324 10783
6324 10784
6324 10785
6324 10786
6324 10787
6326 9200
6327 6328
6328 6329
6328 6330
6328 6331
6328 6334
6330 6331
6332 6333
6335 10490
6335 10491
6335 10492
6335 10493
6335 10494
6336 6337
6336 6338
6337 6338
6339 6340
6339 6341
6339 6342
6339 6343
6340 9336
6340 10701
6340 6341
6340 6342
6340 6343
6341 6342
6341 6343
6342 6343
6343 10701
6344 8448
6344 10097
6344 7807
6344 7808
6344 11126
6344 11127
6344 7809
6345 8901
6345 8902
6345 8903
6345 8904
6345 8905
6346 6347
6348 6349
6348 6350
6348 6351
6348 6352
6348 6353
6349 7989
6349 7990
6349 7991
6350 6351
6350 6352
6350 6353
6351 6352
6351 6353
6352 6353
6354 6355
6354 6356
6354 6357
6354 6358
6354 6359
6354 6360
6354 6361
6354 6362
6354 6363
6354 6364
6354 6365
6355 8872
6355 6356
6355 6386
6355 6357
6355 8873
6355 6680
6355 8874
6355 8875
6355 8876
6355 8877
6355 9169
6355 9170
6355 8878
6355 8879
6355 8880
6355 8881
6355 8882
6355 8883
6355 8884
6355 8885
6355 9171
6355 9172
6355 8886
6355 8887
6355 8888
6355 6358
6355 6359
6355 8890
6355 6360
6355 6361
6355 8892
6355 8893
6355 6362
6355 6363
6355 6364
6355 6365
6355 8894
6356 6357
6356 6358
6356 6359
6356 6360
6356 6361
6356 6362
6356 6363
6356 6364
6356 6365
6357 8872
6357 6358
6357 6359
6357 6360
6357 6361
6357 6362
6357 6363
6357 6364
6357 6365
6358 6359
6358 6360
6358 6361
6358 6362
6358 6363
6358 6364
6358 6365
6359 6360
6359 6361
6359 6362
6359 6363
6359 6364
6359 6365
6360 6361
6360 6362
6360 6363
6360 6364
6360 6365
6361 6362
6361 6363
6361 6364
6361 6365
6362 6363
6362 6364
6362 6365
6363 6364
6363 6365
6364 6365
6366 6367
6366 6368
6366 6369
6366 6370
6367 6368
6367 6369
6367 6370
6368 6369
6368 6370
6369 6370
6371 6374
6372 9799
6372 9801
6375 6376
6375 6377
6375 6378
6375 6379
6375 6380
6375 6381
6376 7558
6376 7559
6376 7560
6376 7561
6376 7562
6376 7563
6377 6378
6377 6379
6377 6380
6377 6381
6378 6379
6378 6380
6378 6381
6379 6380
6379 6381
6380 6381
6382 6383
6382 6384
6382 6385
6382 6386
6382 6387
6382 6388
6382 6389
6382 6390
6382 6391
6382 6392
6383 7548
6383 6388
6383 8504
6384 6390
6384 6391
6384 6392
6385 6975
6385 6387
6385 9663
6385 6388
6385 6389
6385 9664
6385 9665
6385 9666
6385 9667
6386 8872
6386 9769
6386 8877
6386 9770
6386 9771
6386 9772
6386 9773
6386 9774
6386 6977
6386 8886
6386 9775
6386 9776
6386 9777
6386 9778
6386 9779
6387 6975
6387 6388
6387 6389
6387 6980
6387 6983
6387 6984
6388 6389
6389 6978
6390 6391
6390 6392
6391 6392
6394 6395
6394 6396
6394 6397
6395 6396
6395 6397
6396 6397
6396 11332
6396 11333
6396 11334
6396 11335
6396 11336
6397 11332
6397 11333
6397 11334
6397 11335
6397 11336
6398 6399
6398 6400
6398 6401
6398 6402
6399 6400
6399 6401
6399 6402
6400 6401
6400 6402
6401 6402
6403 6404
6403 6405
6403 6406
6403 6407
6403 6408
6403 6409
6403 6410
6403 6411
6403 6412
6403 6413
6404 6405
6404 6406
6404 6407
6404 6408
6404 6409
6404 6410
6404 6411
6404 6412
6404 6413
6405 6407
6405 6408
6405 6409
6406 6410
6406 6411
6406 6412
6406 6413
6407 6408
6407 6409
6408 6409
6410 6411
6410 6412
6410 6413
6411 6412
6411 6413
6412 6413
6415 6416
6415 6417
6415 6418
6415 6419
6415 6420
6416 6417
6416 6418
6416 6419
6416 6420
6417 6418
6417 6419
6417 6420
6418 6419
6418 6420
6419 6420
6421 6422
6421 6626
6421 6627
6421 6423
6424 6425
6424 6426
6424 6427
6424 6428
6425 6426
6425 6427
6425 6428
6426 6427
6426 6428
6427 6428
6429 6430
6429 6431
6429 6432
6430 6431
6430 6432
6431 6432
6433 6434
6436 6437
6436 6438
6436 6439
6436 6440
6436 6441
6437 7549
6437 7550
6437 6438
6437 6439
6437 6440
6437 6441
6438 6439
6438 6440
6438 6441
6439 6440
6439 6441
6440 7549
6440 7550
6440 6441
6442 6443
6442 6445
6442 6446
6442 6447
6442 6448
6442 6450
6442 6945
6442 6946
6442 6947
6442 6452
6442 6453
6442 6454
6442 6455
6442 6456
6442 6457
6443 7607
6443 7608
6443 6445
6443 6446
6443 6447
6443 6448
6443 7609
6443 7610
6443 7611
6443 7612
6443 7613
6443 6450
6443 6452
6443 6453
6443 6454
6443 6455
6443 6456
6443 6457
6443 7614
6443 7615
6444 8505
6444 8506
6444 6449
6444 8507
6444 8508
6444 6451
6444 8509
6444 8510
6445 6446
6445 8550
6445 8538
6445 8641
6445 7791
6445 6447
6445 7447
6445 8540
6445 8169
6445 6448
6445 8542
6445 7443
6445 8642
6445 8643
6445 8644
6445 7762
6445 7449
6445 6450
6445 8645
6445 6452
6445 8646
6445 6453
6445 6454
6445 6455
6445 8647
6445 6456
6445 6457
6445 8648
6445 8649
6445 8650
6445 8651
6446 6447
6446 6448
6446 6450
6446 6452
6446 6453
6446 6454
6446 6455
6446 6456
6446 6457
6447 9966
6447 6448
6447 10205
6447 9259
6447 6450
6447 6452
6447 6453
6447 6454
6447 6455
6447 6456
6447 6457
6447 10206
6448 7717
6448 7718
6448 7719
6448 7720
6448 7721
6448 6450
6448 6452
6448 6453
6448 6454
6448 6455
6448 10788
6448 6456
6448 6457
6448 10789
6448 10790
6448 10791
6448 10792
6448 10793
6448 10794
6449 8505
6449 8506
6449 8507
6449 8508
6449 6451
6450 9254
6450 8642
6450 8644
6450 9258
6450 7762
6450 6945
6450 6946
6450 6452
6450 6453
6450 6454
6450 6455
6450 6456
6450 6457
6450 10302
6451 8505
6451 8506
6451 8507
6451 8508
6452 6453
6452 6454
6452 6455
6452 6456
6452 6457
6453 6454
6453 6455
6453 6456
6453 6457
6454 6455
6454 6456
6454 6457
6455 6456
6455 6457
6456 6457
6458 6459
6458 6460
6458 6461
6458 6462
6458 6463
6458 6464
6458 6465
6458 6466
6458 6467
6458 6468
6460 6461
6460 6462
6460 6463
6460 6464
6460 6467
6461 6462
6461 6463
6461 6464
6462 6463
6462 6464
6463 6464
6465 6466
6467 6468
6469 7900
6469 7901
6469 7902
6469 7903
6470 6471
6472 6473
6473 10154
6473 10155
6473 10156
6473 10157
6473 10158
6474 6475
6474 6476
6474 6477
6474 6478
6474 6479
6474 6480
6474 6481
6474 6482
6475 6478
6475 6479
6476 6477
6476 6480
6476 6481
6476 6482
6477 6480
6477 6481
6477 6482
6478 6479
6480 6481
6480 6482
6481 6482
6483 6484
6483 6485
6483 6486
6483 6487
6484 6485
6484 6486
6484 6487
6485 6486
6485 6487
6486 6487
6488 6490
6488 6491
6488 6493
6489 6490
6489 6491
6490 6491
6490 6492
6491 6492
6492 6493
6492 6495
6493 6494
6493 6495
6494 6495
6496 7032
6496 7033
6496 7034
6497 9208
6497 6498
6497 9209
6497 10065
6497 6499
6497 6500
6497 9210
6497 6501
6497 6502
6497 9211
6497 9212
6497 6503
6497 10066
6497 6504
6498 7069
6498 6499
6498 6500
6498 6501
6498 6502
6498 6503
6498 6504
6499 6500
6499 6501
6499 6502
6499 6503
6499 6504
6500 6501
6500 6502
6500 6503
6500 6504
6501 7069
6501 6502
6501 6503
6501 6504
6502 6503
6502 6504
6503 6504
6505 10273
6505 10036
6505 10274
6505 10275
6506 6507
6508 6509
6508 6510
6509 6790
6509 6510
6509 11020
6509 11021
6510 6789
6510 6790
6510 6791
6510 11020
6510 11021
6511 6512
6511 6513
6511 6514
6511 6515
6511 6516
6511 6517
6511 6518
6512 7454
6512 7455
6512 7456
6513 6647
6513 6648
6513 6649
6513 6650
6513 6651
6513 6652
6513 6653
6513 6514
6514 6515
6514 6516
6514 6517
6514 6518
6515 6516
6515 6517
6515 6518
6516 6517
6516 6518
6517 6518
6519 10531
6519 10532
6519 10533
6519 10534
6519 10535
6520 11738
6520 6521
6520 11739
6520 6522
6520 11740
6520 11741
6520 11742
6520 11743
6520 11744
6520 11745
6520 6523
6520 6524
6520 6525
6520 11746
6520 11747
6520 11748
6520 11749
6521 11738
6521 6522
6521 6523
6521 6524
6521 6525
6522 11739
6522 11745
6522 6523
6522 6524
6522 6525
6522 11746
6522 11747
6522 11749
6523 6524
6523 6525
6524 6525
6525 11739
6525 11745
6525 11746
6525 11747
6525 11749
6527 6528
6527 6529
6527 6530
6527 6531
6527 6532
6527 6533
6528 6529
6528 6530
6528 6531
6528 6532
6528 6533
6529 6530
6529 6531
6529 6532
6529 6533
6530 6531
6530 6532
6530 6533
6531 6532
6531 6533
6532 6533
6534 6535
6534 6536
6534 6537
6534 6538
6534 6539
6535 7847
6535 6536
6535 6537
6535 6538
6535 6539
6535 7849
6536 6537
6536 10902
6536 10903
6536 10904
6536 10905
6536 10906
6536 10907
6536 10908
6536 6538
6536 10909
6536 6539
6536 10910
6536 10911
6536 10912
6537 6538
6537 6539
6538 7847
6538 6539
6538 7849
6540 6541
6540 6542
6540 6543
6540 6544
6540 6545
6540 6546
6540 6547
6540 6548
6540 6549
6540 6550
6541 6543
6541 6545
6541 6546
6542 6544
6542 6547
6543 6545
6543 6546
6544 6547
6545 6546
6548 6549
6548 6550
6549 6550
6551 6924
6551 6925
6551 6552
6551 6926
6551 6927
6551 6928
6551 6929
6551 6930
6551 6931
6551 6932
6551 6933
6551 6934
6551 6935
6551 6936
6551 6937
6551 6938
6551 6939
6551 6940
6551 6941
6551 6942
6553 6953
6553 6954
6553 6955
6553 6956
6553 6957
6555 7788
6555 7790
6555 7791
6556 6621
6556 6622
6556 6623
6556 6624
6556 6625
6558 6559
6558 6560
6558 6561
6558 6562
6558 6563
6558 6564
6558 6565
6558 6566
6559 6560
6559 6561
6559 6562
6559 6563
6559 6564
6559 6565
6559 6566
6560 6565
6560 6566
6561 6562
6561 6563
6561 6564
6562 6563
6564 11961
6565 6566
6567 6569
6567 6570
6567 6571
6567 6572
6567 6573
6567 6574
6568 6571
6568 6572
6568 6575
6568 6578
6569 6570
6569 6571
6569 6572
6569 6573
6569 6574
6570 6571
6570 6572
6570 6573
6570 6574
6570 6576
6570 6577
6570 6579
6570 6580
6570 6581
6571 6572
6571 6573
6571 6574
6571 6575
6571 6578
6572 6573
6572 6574
6572 6575
6572 6576
6572 6577
6572 6578
6572 6581
6573 6574
6575 9825
6575 9826
6575 11849
6575 11850
6575 6578
6575 9827
6575 9828
6576 6577
6576 6581
6577 6581
6577 11906
6577 11907
6577 11908
6577 11909
6579 6580
6581 11906
6581 11907
6581 11908
6581 11909
6582 6583
6582 6584
6582 6585
6582 6586
6582 6587
6582 6588
6582 6589
6583 7073
6583 7074
6583 7075
6583 7076
6583 7077
6583 7078
6583 7079
6583 7080
6584 6585
6584 6586
6584 6587
6584 6588
6584 6589
6585 6586
6585 6587
6585 6588
6585 6589
6586 6587
6586 6588
6586 6589
6587 6588
6587 6589
6588 6589
6590 6691
6590 6692
6590 6693
6590 6694
6590 6695
6591 7035
6591 7036
6591 7037
6591 7038
6591 7039
6591 6593
6591 6594
6592 7683
6592 7684
6592 7685
6592 7686
6593 6594
6595 6596
6595 6597
6595 6598
6595 6599
6595 6600
6595 6601
6596 6597
6596 6598
6596 6599
6596 6600
6596 6601
6597 6598
6597 6599
6597 6600
6597 6601
6598 6599
6598 6600
6598 6601
6599 6600
6599 6601
6600 6601
6603 6604
6603 6605
6603 6606
6604 6605
6604 6606
6605 6606
6607 6608
6607 6609
6607 6610
6607 6611
6607 6612
6607 6613
6607 6614
6607 6615
6607 6616
6607 6617
6607 6618
6607 6619
6607 6620
6608 8680
6608 8681
6608 8682
6608 8683
6608 8684
6608 8685
6608 8686
6608 8687
6608 8688
6608 8689
6608 8690
6608 8691
6608 8692
6608 8693
6608 6617
6608 6618
6608 6619
6608 6620
6609 6610
6609 6611
6609 6615
6609 6616
6610 6611
6612 6613
6612 6614
6613 6614
6615 8057
6615 6616
6615 8059
6615 8060
6617 6618
6617 6619
6617 6620
6618 8688
6618 6619
6618 6620
6619 6620
6621 6622
6621 6623
6621 6624
6621 6625
6622 6623
6622 6624
6622 6625
6623 6624
6623 6625
6624 6625
6626 6627
6628 6629
6628 6630
6628 6631
6628 6632
6628 6633
6628 6634
6629 6630
6629 6631
6629 6632
6629 6633
6629 6634
6630 6631
6630 6632
6630 6633
6630 6634
6631 6632
6631 6633
6631 6634
6632 6633
6632 6634
6633 6634
6633 6666
6633 6667
6633 6668
6633 6669
6633 6670
6635 6636
6635 6637
6635 6638
6635 6639
6636 6640
6636 6641
6636 6637
6636 6638
6636 6642
6636 6643
6636 6639
6637 6640
6637 6641
6637 6638
6637 6642
6637 6643
6637 6639
6638 6640
6638 6641
6640 6641
6642 6643
6646 9357
6646 9358
6646 9359
6646 9360
6646 9361
6646 9362
6646 9363
6647 6648
6647 6649
6647 6650
6647 6651
6648 6649
6648 6650
6648 6651
6649 6650
6649 6651
6650 6651
6652 6653
6654 6655
6654 6656
6654 6657
6654 6658
6655 6656
6655 6657
6655 6658
6656 6657
6656 6658
6657 6658
6659 6660
6659 6661
6659 6662
6659 6663
6659 6664
6659 6665
6660 7053
6660 6661
6660 6663
6661 6663
6661 8444
6664 6665
6666 6667
6666 6668
6666 6669
6666 6670
6667 6668
6667 6669
6667 6670
6668 6669
6668 6670
6669 6670
6672 6673
6672 6674
6672 6675
6673 6674
6673 6675
6674 6675
6675 6781
6675 6782
6676 6677
6676 6678
6676 6679
6677 6678
6677 6679
6678 10308
6678 10383
6678 10384
6678 10386
6678 6679
6678 10309
6678 10310
6678 10311
6678 10407
6678 10408
6680 8872
6680 8874
6680 8875
6680 8878
6680 8879
6680 8880
6680 8881
6680 10650
6680 8882
6680 8884
6680 6681
6680 8887
6680 8888
6680 8893
6680 6682
6680 6683
6680 6684
6681 8879
6681 8888
6681 6682
6681 6683
6681 6684
6682 6683
6682 6684
6683 6684
6685 6686
6685 6687
6685 6688
6686 6687
6686 6688
6686 6689
6686 6690
6687 6688
6687 6689
6687 6690
6689 6690
6691 6692
6691 6693
6691 6694
6691 6695
6692 6693
6692 6694
6692 6695
6693 6694
6693 6695
6694 6695
6696 8196
6696 8197
6696 8198
6696 8199
6696 8200
6697 6698
6697 6699
6697 6700
6698 6699
6698 6700
6699 6700
6701 11990
6701 11991
6701 6702
6701 6703
6701 6704
6702 11990
6702 11991
6702 6703
6702 6704
6703 6704
6705 6706
6705 6707
6705 6708
6705 6709
6706 6707
6706 6708
6706 6709
6706 11258
6706 11259
6706 11260
6706 11261
6707 6708
6707 6709
6708 6709
6710 6711
6710 6712
6710 6713
6710 6714
6710 6715
6710 6716
6710 6717
6710 6718
6711 7427
6711 7428
6711 6714
6711 7429
6711 7430
6711 7431
6711 6718
6712 6715
6712 6716
6712 6717
6713 9059
6713 9060
6713 9064
6714 7427
6714 7428
6714 7429
6714 7430
6714 7431
6714 6718
6715 6716
6715 6717
6716 6717
6719 6720
6719 6721
6719 6727
6719 6722
6719 6728
6719 6729
6719 6723
6719 6730
6719 6724
6719 6725
6719 6726
6720 6728
6720 6729
6720 6723
6720 6730
6721 6722
6721 6726
6722 6727
6722 10801
6722 6726
6723 6728
6723 6729
6723 6730
6723 6724
6723 6725
6724 6725
6727 10801
6728 6729
6728 6730
6729 6730
6731 6732
6731 6733
6731 6734
6731 6735
6732 6733
6732 6734
6732 6735
6733 6734
6733 6735
6734 6735
6736 6737
6736 6738
6736 6739
6736 6740
6736 6741
6736 6742
6736 6743
6736 6744
6737 9554
6737 9555
6737 9556
6737 9557
6738 9501
6738 9502
6739 6741
6739 6742
6739 10376
6739 10377
6739 10378
6739 10379
6739 6743
6739 6744
6740 10611
6740 10613
6741 6742
6741 6743
6741 6744
6742 6743
6742 6744
6743 6744
6745 6747
6745 6748
6745 6749
6745 6750
6745 6751
6746 8306
6746 8307
6746 8308
6746 8309
6746 8310
6746 8311
6747 6748
6747 6749
6747 6750
6747 6751
6748 6749
6748 6750
6748 6751
6749 6750
6749 6751
6750 6751
6752 6985
6752 6986
6752 7637
6752 6987
6753 6754
6753 6755
6753 6756
6753 6757
6753 6758
6753 6759
6753 6760
6754 6755
6754 6756
6754 6757
6754 6758
6754 6759
6754 6760
6755 6756
6755 6757
6755 6758
6755 6759
6755 6760
6756 6757
6756 6758
6756 6759
6756 6760
6757 6758
6757 6759
6757 6760
6758 6759
6758 6760
6759 6760
6761 6762
6761 6763
6761 6765
6762 6763
6762 6764
6762 6765
6763 6764
6763 6765
6764 6765
6766 6767
6766 6768
6766 6769
6766 6770
6766 6771
6766 6772
6766 6773
6766 6774
6767 6768
6767 6769
6767 6770
6767 6771
6767 6772
6767 6773
6767 6774
6768 6769
6768 6770
6768 6771
6768 6772
6768 6773
6768 6774
6769 6770
6769 6771
6769 6772
6769 6773
6769 6774
6770 6771
6770 6772
6770 6773
6770 6774
6771 6772
6771 6773
6771 6774
6772 6773
6772 6774
6773 6774
6775 6776
6775 6777
6775 6778
6775 6779
6775 6780
6776 9037
6776 6777
6776 6779
6776 9038
6776 9039
6776 6780
6777 9037
6777 6779
6777 9038
6777 9039
6777 6780
6779 6780
6781 6782
6781 7598
6783 6913
6783 6914
6783 6784
6783 6915
6783 6785
6783 6786
6784 6913
6784 6914
6784 6915
6784 6785
6784 6786
6785 6913
6785 6914
6785 6915
6785 6786
6785 6787
6785 6788
6786 6787
6786 6788
6787 6788
6788 7365
6788 7367
6789 6790
6789 6791
6789 6792
6789 6793
6790 10945
6790 11016
6790 11017
6790 10946
6790 10947
6790 6791
6790 11018
6790 11019
6790 11020
6790 10948
6790 11021
6790 11022
6790 11023
6790 6792
6790 6793
6792 6793
6794 6795
6794 6796
6794 6797
6794 6798
6794 6799
6794 6800
6794 6801
6794 6802
6794 6803
6794 6804
6794 6805
6795 6796
6795 6797
6795 6798
6795 6799
6795 6800
6795 6801
6795 6802
6795 6803
6796 6797
6796 6798
6796 6799
6796 6800
6796 6801
6796 6802
6796 6803
6796 6804
6796 6805
6797 6798
6797 6799
6797 6800
6797 6801
6797 6802
6797 6803
6798 6799
6798 6800
6798 6801
6798 6802
6798 6803
6799 6800
6799 6801
6799 6802
6799 6803
6800 6801
6800 6802
6800 6803
6801 6802
6801 6803
6802 6803
6804 6805
6805 11958
6805 11959
6805 11960
6806 6807
6806 6808
6807 6808
6809 6810
6809 6811
6809 6812
6809 6813
6809 6814
6809 6815
6810 6811
6810 9375
6810 6813
6810 6814
6811 6812
6811 6813
6811 6814
6811 6815
6812 9719
6812 9720
6812 9721
6812 9722
6812 9723
6813 6814
6813 6815
6816 6817
6816 6818
6816 6819
6816 6820
6816 6821
6816 6822
6817 6818
6817 6819
6817 6820
6817 6821
6817 6822
6818 6819
6818 6820
6818 6821
6818 6822
6819 6820
6819 6821
6819 6822
6820 6821
6820 6822
6821 6822
6823 6824
6823 6825
6824 7540
6824 7541
6824 7542
6825 8601
6825 8603
6825 8604
6826 9420
6826 8492
6826 9421
6826 8494
6826 8791
6826 9194
6826 8496
6826 9422
6829 6830
6829 6831
6829 6832
6830 6831
6830 6832
6831 6832
6833 6834
6833 6835
6833 6836
6834 6835
6834 6836
6835 6836
6837 6838
6837 6839
6838 6839
6839 10679
6839 10680
6839 10879
6840 6841
6841 10566
6841 10567
6841 10568
6841 10569
6841 10570
6841 10571
6842 6843
6842 6844
6842 6845
6842 6846
6842 6847
6842 6848
6842 6849
6842 6850
6842 6851
6842 6852
6843 8097
6843 8098
6843 8099
6843 8100
6843 8101
6843 6845
6844 10090
6844 6845
6844 10091
6844 10092
6844 10093
6844 10094
6844 10095
6844 10096
6845 6846
6845 6847
6845 6848
6845 6849
6845 6850
6845 6851
6846 6847
6846 6848
6846 6849
6846 6850
6846 6851
6846 11380
6846 11381
6846 11382
6846 11383
6846 11384
6846 11385
6846 11386
6847 6848
6847 6849
6847 6850
6847 6851
6848 6849
6848 6850
6848 6851
6849 6850
6849 6851
6850 6851
6853 6854
6853 6855
6854 6855
6855 11967
6855 11968
6855 11969
6855 11970
6855 11971
6855 11972
6856 9091
6856 9096
6857 6858
6857 6859
6858 6859
6860 6861
6860 6862
6860 6863
6860 6864
6860 6865
6860 6866
6860 6867
6860 6868
6861 6862
6861 6863
6861 6864
6861 6865
6861 6866
6861 6867
6861 6868
6862 6863
6862 6864
6862 6865
6862 6866
6862 6867
6862 6868
6863 6864
6863 6865
6863 6866
6863 6867
6863 6868
6864 6865
6864 6866
6864 6867
6864 6868
6865 6866
6865 6867
6865 6868
6866 6867
6866 6868
6867 6868
6869 6870
6869 6871
6869 6872
6869 6873
6869 6874
6869 6875
6869 6876
6869 6877
6869 6878
6869 6879
6869 6880
6870 6871
6870 6872
6870 6873
6870 6874
6870 6875
6870 6876
6870 6877
6870 6878
6870 6879
6870 6880
6871 6872
6871 6873
6871 6874
6871 6875
6871 6876
6871 6877
6871 6878
6871 6879
6871 6880
6872 6873
6872 6874
6872 6875
6872 6876
6872 6877
6872 6878
6872 6879
6872 6880
6873 6874
6873 6875
6873 6876
6873 6877
6873 6878
6873 6879
6873 6880
6874 6875
6874 6876
6874 6877
6874 6878
6874 6879
6874 6880
6875 6876
6875 6877
6875 6878
6875 6879
6875 6880
6876 6877
6876 6878
6876 6879
6876 6880
6877 6878
6877 6879
6877 6880
6878 6879
6878 6880
6879 6880
6881 6882
6881 6883
6882 10070
6882 10071
6882 10072
6882 10073
6886 6887
6888 6889
6888 6890
6888 6891
6888 6892
6888 6893
6888 6894
6888 6895
6888 6896
6889 6890
6889 6891
6889 6892
6889 6893
6889 6894
6890 6891
6890 6892
6890 6893
6890 6894
6891 6892
6891 6893
6891 6894
6892 6893
6892 6894
6893 6894
6897 6898
6897 6899
6897 6900
6897 6901
6897 6902
6898 6899
6898 6900
6898 6901
6898 6902
6899 6900
6899 6901
6899 6902
6900 6901
6900 6902
6901 6902
6903 6904
6903 6905
6903 6906
6903 6907
6904 6905
6904 6906
6904 6907
6905 6906
6905 6907
6906 6907
6909 6910
6909 6911
6909 6912
6910 6911
6910 6912
6911 6912
6913 6914
6913 6915
6913 6916
6913 6917
6913 6918
6913 6919
6913 6920
6913 6921
6913 6922
6913 6923
6914 7623
6914 7624
6914 7625
6914 7626
6914 7627
6914 6915
6917 10973
6917 6918
6918 10973
6919 6920
6919 6921
6919 6922
6919 6923
6920 6921
6920 6922
6920 6923
6921 6922
6921 6923
6922 6923
6924 6925
6924 6926
6924 6927
6924 6928
6924 6929
6924 6930
6924 6931
6924 6932
6924 6933
6924 6934
6924 6935
6924 6936
6924 6937
6924 6938
6924 6939
6924 6940
6924 6941
6925 6926
6925 6927
6925 6928
6925 6929
6925 6930
6925 6931
6925 6932
6925 6933
6925 6934
6925 6935
6925 6936
6925 6937
6925 6938
6925 6939
6925 6940
6925 6941
6926 6927
6926 6928
6926 6929
6926 6930
6926 6931
6926 6932
6926 6933
6926 6934
6926 6935
6926 6936
6926 6937
6926 6938
6926 6939
6926 6940
6926 6941
6927 6928
6927 6929
6927 6930
6927 6931
6927 6932
6927 6933
6927 6934
6927 6935
6927 6936
6927 6937
6927 6938
6927 6939
6927 6940
6927 6941
6928 6929
6928 6930
6928 6931
6928 6932
6928 6933
6928 6934
6928 6935
6928 6936
6928 6937
6928 6938
6928 6939
6928 6940
6928 6941
6928 6942
6929 6930
6929 6931
6929 6932
6929 6933
6929 6934
6929 6935
6929 6936
6929 6937
6929 6938
6929 6939
6929 6940
6929 6941
6930 6931
6930 6932
6930 6933
6930 6934
6930 6935
6930 6936
6930 6937
6930 6938
6930 6939
6930 6940
6930 6941
6931 6932
6931 6933
6931 6934
6931 6935
6931 6936
6931 6937
6931 6938
6931 6939
6931 6940
6931 6941
6932 6933
6932 6934
6932 6935
6932 6936
6932 6937
6932 6938
6932 6939
6932 6940
6932 6941
6933 6934
6933 6935
6933 6936
6933 6937
6933 6938
6933 6939
6933 6940
6933 6941
6934 6935
6934 6936
6934 6937
6934 6938
6934 6939
6934 6940
6934 6941
6935 6936
6935 6937
6935 6938
6935 6939
6935 6940
6935 6941
6936 6937
6936 6938
6936 6939
6936 6940
6936 6941
6937 6938
6937 6939
6937 6940
6937 6941
6938 6939
6938 6940
6938 6941
6939 6940
6939 6941
6940 6941
6941 6942
6943 6944
6945 6946
6948 8848
6948 6950
6948 6951
6948 6952
6949 8848
6949 10005
6949 10006
6949 10007
6949 10008
6950 6951
6950 6952
6951 6952
6953 6954
6953 6955
6953 6956
6953 6957
6954 6955
6954 6956
6954 6957
6955 6956
6955 6957
6956 6957
6959 6960
6959 6961
6959 6962
6959 6963
6959 6964
6959 6965
6959 6966
6960 6961
6960 6962
6960 6964
6960 6965
6960 6966
6961 8324
6961 6962
6961 8325
6961 8326
6961 8327
6961 8328
6961 6964
6961 6965
6961 6966
6962 9149
6962 6964
6962 6965
6962 6966
6963 11558
6963 11559
6963 11560
6963 11561
6963 11562
6963 11563
6964 6965
6964 6966
6965 8659
6965 6966
6967 6968
6967 6969
6967 6970
6967 6971
6967 6972
6967 6973
6967 6974
6968 6969
6968 6970
6968 6971
6968 6972
6968 6973
6968 6974
6969 6970
6969 6971
6969 6972
6969 6973
6969 6974
6970 6971
6970 6972
6970 6973
6970 6974
6971 6972
6971 6973
6971 6974
6972 6973
6972 6974
6973 6974
6975 6980
6975 6983
6975 6984
6976 8872
6976 10738
6976 8877
6976 10739
6976 8880
6976 8884
6976 8887
6976 8889
6976 8891
6977 9771
6977 9775
6977 9779
6978 6979
6978 6980
6978 6981
6979 6980
6979 6981
6980 6981
6980 6983
6980 6984
6981 10363
6982 10321
6982 10322
6982 10323
6982 10324
6982 6983
6983 6984
6985 6986
6985 6987
6986 6987
6988 7147
6988 8260
6988 8261
6988 8262
6988 8263
6988 8264
6989 6990
6989 6991
6989 6992
6989 6993
6989 6994
6989 6995
6989 6996
6989 6997
6990 6993
6990 6994
6990 6995
6990 6997
6991 6992
6991 6996
6991 6997
6992 6996
6992 6997
6993 6994
6993 6995
6993 6997
6994 6995
6994 6997
6995 6997
6996 6997
6999 7000
6999 7001
6999 7002
7000 7001
7000 7002
7001 7002
7003 8820
7003 7005
7003 7007
7003 7009
7003 8821
7003 8822
7003 8823
7004 10178
7004 7008
7004 7009
7004 10179
7004 10180
7004 10181
7004 10182
7005 7006
7005 7007
7005 7009
7005 7011
7005 8822
7005 8823
7005 10393
7006 7010
7006 7011
7006 7012
7006 7013
7006 7014
7006 7016
7006 7017
7006 7018
7007 7015
7008 10178
7008 7733
7008 10804
7008 7735
7008 10805
7008 7736
7008 10179
7008 10180
7008 10181
7008 10182
7009 7733
7009 11084
7009 8822
7009 10393
7010 7012
7010 7013
7010 7014
7010 7016
7012 7013
7012 7014
7012 7016
7013 7014
7013 7016
7014 7016
7017 7018
7019 7020
7019 7021
7019 7022
7020 10167
7020 10291
7020 10292
7020 10293
7020 10294
7020 10295
7020 10169
7020 10296
7021 7022
7023 7024
7023 7025
7023 7026
7023 7027
7024 7025
7024 7026
7024 7027
7025 7026
7025 7027
7026 7027
7028 7975
7028 7029
7028 7030
7028 7031
7029 7030
7029 7031
7030 7031
7032 7033
7032 7034
7033 7034
7035 7036
7035 7037
7035 7038
7035 7039
7036 7037
7036 7038
7036 7039
7037 7038
7037 7039
7038 7039
7040 8771
7040 8772
7040 8773
7040 8774
7040 8775
7041 7042
7041 7043
7041 7044
7041 7045
7041 7046
7042 7483
7042 7484
7042 7043
7042 7045
7042 7046
7043 7483
7043 7484
7043 7485
7043 7045
7043 7046
7043 7486
7044 8639
7044 8640
7044 9835
7044 9836
7044 9837
7044 9838
7044 9839
7044 9840
7044 9841
7045 7046
7047 7048
7047 7049
7047 7050
7047 7051
7047 7052
7048 10035
7048 10380
7048 10335
7048 7049
7048 10381
7048 7050
7048 7051
7048 10382
7048 7052
7049 10380
7049 10335
7049 10381
7049 7050
7049 7051
7049 10382
7049 7052
7050 7051
7050 7052
7051 7052
7053 8342
7053 7239
7053 8343
7054 7055
7054 7056
7054 7057
7054 7058
7055 7056
7055 7057
7055 7058
7056 7057
7056 7058
7057 10067
7059 7375
7059 10041
7059 7376
7059 7377
7059 7378
7059 7379
7059 7657
7059 7658
7059 7659
7059 7660
7059 7661
7059 7662
7059 7663
7059 7664
7059 7380
7059 7381
7059 7382
7059 7383
7061 11620
7061 11621
7061 11622
7061 11623
7061 11624
7061 11625
7061 11674
7061 11675
7061 7063
7064 8797
7064 8798
7065 7066
7065 7067
7066 7067
7068 7069
7068 7070
7068 7071
7068 7072
7069 10217
7069 7070
7069 7071
7069 7072
7070 7071
7070 7072
7073 7074
7073 7075
7073 7076
7073 7077
7073 7078
7074 7075
7074 7076
7074 7077
7074 7078
7075 7076
7075 7077
7075 7078
7076 7077
7076 7078
7077 7078
7079 7080
7081 7155
7081 7156
7081 7157
7081 7087
7081 7158
7081 7159
7081 7160
7081 7161
7081 7162
7081 7163
7082 10672
7084 11066
7084 11067
7084 7088
7085 7086
7085 7087
7085 10871
7086 7087
7086 7092
7086 7096
7086 7097
7086 7098
7087 7156
7087 8483
7087 10763
7087 7158
7087 10764
7087 11204
7091 11423
7100 7101
7100 7102
7100 7103
7100 7104
7100 7105
7100 7106
7100 7107
7100 7108
7100 7109
7100 7110
7100 7111
7100 7112
7100 7113
7101 7102
7101 7103
7101 7104
7101 7105
7101 7106
7101 7107
7101 7108
7101 7109
7101 7110
7101 7111
7101 7112
7101 7113
7102 7103
7102 7104
7102 7105
7102 7106
7102 7107
7102 7108
7102 7109
7102 7110
7102 7111
7102 7112
7102 7113
7103 7104
7103 7105
7103 7106
7103 7107
7103 7108
7103 7109
7103 7110
7103 7111
7103 7112
7103 7113
7104 7105
7104 7106
7104 7107
7104 7108
7104 7109
7104 7110
7104 7111
7104 7112
7104 7113
7105 7106
7105 7107
7105 7108
7105 7109
7105 7110
7105 7111
7105 7112
7105 7113
7106 7107
7106 7108
7106 7109
7106 7110
7106 7111
7106 7112
7106 7113
7107 7108
7107 7109
7107 7110
7107 7111
7107 7112
7107 7113
7108 7109
7108 7110
7108 7111
7108 7112
7108 7113
7109 7110
7109 7111
7109 7112
7109 7113
7110 7111
7110 7112
7110 7113
7111 7112
7111 7113
7112 7113
7114 7115
7114 7116
7114 7117
7114 7118
7114 7119
7114 7120
7114 7121
7114 7122
7114 7123
7114 7124
7114 7125
7115 7116
7115 7117
7115 7118
7115 7119
7115 7120
7115 7121
7115 7122
7115 7123
7115 7124
7115 7125
7116 7117
7116 7118
7116 7119
7116 7120
7116 7121
7116 7122
7116 7123
7116 7124
7116 7125
7117 7118
7117 7119
7117 7120
7117 7121
7117 7122
7117 7123
7117 7124
7117 7125
7118 7119
7118 7120
7118 7121
7118 7122
7118 7123
7118 7124
7118 7125
7119 7120
7119 7121
7119 7122
7119 7123
7119 7124
7119 7125
7120 7121
7120 7122
7120 7123
7120 7124
7120 7125
7121 7122
7121 7123
7121 7124
7121 7125
7122 7123
7122 7124
7122 7125
7123 7124
7123 7125
7124 7125
7126 9143
7126 9144
7126 8381
7126 9145
7126 9146
7128 8849
7128 8850
7128 8851
7128 8852
7128 8853
7128 7129
7128 7130
7128 7131
7128 7132
7128 7133
7128 7134
7128 7135
7128 7136
7129 7130
7129 7131
7129 7132
7129 7133
7129 7134
7129 7135
7129 7136
7130 7131
7130 7132
7130 7133
7130 7134
7130 7135
7130 7136
7131 7132
7131 7133
7131 7134
7131 7135
7131 7136
7132 7133
7132 7134
7132 7135
7132 7136
7133 7134
7133 7135
7133 7136
7134 7135
7134 7136
7135 7136
7137 7138
7137 7139
7138 7139
7140 9215
7140 10699
7140 10700
7141 7142
7141 7143
7141 7144
7141 7145
7142 7143
7142 7144
7142 7145
7143 7144
7143 7145
7144 7145
7146 7147
7146 7148
7146 7149
7147 7148
7147 8260
7147 8261
7147 8262
7147 8263
7147 8264
7147 7149
7148 8260
7148 7149
7150 7151
7150 7152
7150 7153
7150 7154
7151 8637
7151 8925
7151 8926
7151 8927
7151 8928
7151 8929
7151 8930
7151 7152
7151 7153
7151 8931
7151 8932
7151 8933
7151 7154
7151 8934
7151 8935
7151 8936
7151 8937
7151 8938
7151 8939
7151 8940
7151 8941
7152 8637
7152 8925
7152 8928
7152 8929
7152 8930
7152 7153
7152 7154
7152 8934
7152 8935
7152 8936
7152 8937
7152 8938
7152 8939
7153 7154
7155 7156
7155 7157
7156 7157
7156 7158
7156 7159
7156 7160
7156 7161
7158 7159
7158 7160
7158 7161
7158 7162
7158 7163
7159 7160
7162 7163
7164 7165
7164 7166
7164 7167
7164 7168
7164 7169
7165 7166
7165 7167
7165 7168
7165 7169
7166 7167
7166 7168
7166 7169
7167 7168
7167 7169
7168 7169
7170 7171
7170 7172
7171 7172
7173 7174
7173 7175
7173 7176
7173 7177
7173 7178
7173 7179
7173 7180
7173 7181
7173 7182
7173 7183
7173 7184
7173 7185
7174 7181
7174 7182
7174 11351
7174 11352
7174 11353
7174 11354
7174 11355
7174 11356
7174 11357
7175 7178
7175 7179
7176 7177
7176 7180
7177 7180
7177 7181
7178 7179
7181 7182
7183 7184
7183 7185
7184 7185
7186 7187
7186 7188
7186 7189
7186 7190
7186 7191
7186 7192
7186 7193
7187 8069
7187 8070
7187 8071
7187 8072
7187 8073
7187 7192
7187 7193
7188 7190
7189 7190
7189 7191
7190 7778
7190 7191
7190 10956
7190 10961
7192 7193
7194 7195
7194 7196
7194 7197
7194 7198
7195 7196
7195 7197
7195 7198
7196 8430
7196 8431
7196 8432
7196 8433
7196 8434
7196 8435
7196 8436
7196 8437
7196 8438
7196 8439
7196 8440
7196 8441
7196 8442
7196 8443
7197 8430
7197 7198
7199 7200
7199 7201
7199 7202
7199 7203
7199 7204
7199 7205
7199 7206
7199 7207
7199 7208
7199 7209
7199 7210
7199 7211
7200 7201
7200 7202
7200 7203
7200 7204
7200 7205
7200 7206
7201 7202
7201 7203
7201 7204
7201 7205
7201 7206
7201 11448
7201 11449
7201 11450
7201 11451
7201 11452
7201 11453
7202 7203
7202 7204
7202 7205
7202 7206
7202 11448
7202 11449
7202 11450
7202 11451
7203 7204
7203 7205
7203 7206
7203 11448
7203 11449
7203 11450
7203 11451
7203 11452
7203 11453
7204 7205
7204 7206
7204 11448
7204 11449
7204 11450
7204 11451
7205 7206
7205 11448
7205 11449
7205 11450
7205 11451
7206 11448
7206 11449
7206 11450
7206 11451
7206 11452
7206 11453
7207 7208
7207 7209
7207 7210
7207 7211
7208 7209
7208 7210
7208 7211
7209 7210
7209 7211
7210 7211
7212 7213
7212 7214
7212 7215
7212 7216
7213 7214
7213 7215
7213 7216
7214 7215
7214 7216
7215 7216
7217 7233
7217 7234
7217 7218
7217 7235
7217 7236
7217 7237
7218 7220
7218 7221
7218 7222
7219 9044
7219 9045
7219 9046
7219 9047
7219 9048
7219 9049
7220 7221
7220 7222
7221 7222
7223 7224
7223 7225
7223 7226
7223 7227
7223 7228
7223 7229
7223 7230
7223 7231
7223 7232
7224 7225
7225 7231
7225 7232
7226 7227
7226 7228
7226 7229
7226 7230
7226 7231
7226 7232
7227 7228
7227 7229
7227 7230
7227 7231
7227 7232
7228 7229
7228 7230
7228 7231
7228 7232
7229 7230
7229 7231
7229 7232
7230 7231
7230 7232
7231 7232
7233 7234
7233 7235
7233 7236
7233 11110
7233 11111
7234 7235
7234 7236
7234 11110
7234 11111
7235 7236
7235 7237
7235 11110
7235 11111
7236 11110
7236 11111
7238 7239
7238 7240
7238 7241
7239 11405
7239 11406
7239 8343
7239 11407
7242 7243
7242 7244
7242 7245
7242 7246
7242 7247
7242 7248
7243 7244
7243 7245
7243 7246
7243 7247
7243 7248
7244 7245
7244 7246
7244 7247
7244 7248
7245 7246
7245 7247
7245 7248
7246 7247
7246 7248
7247 7248
7249 7250
7249 7251
7249 7252
7249 7253
7250 7251
7250 7252
7250 7253
7251 7252
7251 7253
7252 7253
7254 7255
7254 7256
7254 7257
7254 7258
7254 7259
7255 7642
7255 7769
7255 7256
7255 7257
7255 7258
7255 7770
7255 7771
7255 7259
7255 7772
7255 7773
7255 7643
7256 7769
7256 7257
7256 7258
7256 11676
7256 11677
7256 11678
7256 7259
7256 7772
7256 11679
7256 11680
7257 7642
7257 7769
7257 7258
7257 7770
7257 7771
7257 7259
7257 7772
7257 7773
7257 7643
7259 7769
7260 7263
7260 7264
7260 7267
7260 7268
7261 7262
7261 7265
7261 7266
7262 7265
7262 7266
7263 7264
7263 7267
7263 7268
7264 7267
7264 7268
7265 7266
7267 7268
7269 8294
7269 8295
7269 8296
7269 8297
7269 8298
7269 8299
7270 7271
7270 7272
7270 7273
7271 7272
7271 7273
7272 7273
7274 7275
7274 7276
7274 7277
7274 7278
7274 7279
7274 7280
7274 7281
7275 7278
7275 7279
7275 7280
7275 7281
7276 9368
7276 9756
7276 9372
7278 7279
7278 7280
7278 7281
7279 7280
7279 7281
7280 7281
7283 11248
7283 11249
7283 11250
7283 7284
7283 11251
7283 7285
7283 7286
7283 7287
7283 11252
7284 7285
7286 11248
7286 11249
7286 11250
7286 11251
7286 7287
7286 11252
7287 11248
7287 11249
7287 11250
7287 11251
7287 11252
7289 7290
7289 7291
7289 7292
7289 7293
7289 7294
7289 7295
7289 7296
7290 7291
7290 7292
7290 7293
7290 7294
7290 7295
7290 7296
7291 7292
7291 7293
7291 7294
7291 7295
7291 7296
7292 7293
7292 7294
7292 7295
7292 7296
7293 7294
7293 7295
7293 7296
7294 7295
7294 7296
7295 7296
7297 7298
7297 7299
7297 7300
7297 7301
7297 7302
7298 7299
7298 7300
7298 7301
7298 7302
7299 7300
7299 7301
7299 7302
7300 7301
7300 7302
7301 7302
7303 7304
7303 7305
7303 7306
7303 7307
7304 11582
7304 11583
7304 11584
7304 11585
7304 11586
7304 11864
7305 7647
7305 7306
7305 7307
7306 7647
7306 7307
7307 11992
7307 11993
7307 11995
7307 11996
7308 7309
7308 7310
7308 7311
7308 7312
7309 7310
7309 7311
7309 7312
7309 11576
7310 7311
7310 7312
7311 7312
7313 7314
7313 7315
7313 7316
7314 7315
7317 7878
7317 7879
7317 7880
7317 7881
7317 7882
7318 7319
7318 7320
7318 7321
7319 7320
7319 7321
7320 7321
7322 7323
7322 7324
7322 7325
7323 8072
7323 11687
7323 11688
7323 11689
7323 7324
7323 11690
7323 7325
7324 7325
7326 8413
7326 8420
7328 7329
7328 7330
7328 7331
7328 7332
7328 7333
7328 7334
7328 7335
7329 7330
7329 7336
7329 7337
7329 7338
7329 7339
7329 7340
7329 7341
7330 7336
7330 7337
7331 7332
7331 7333
7331 7334
7331 7335
7332 7333
7332 7334
7332 7335
7333 7334
7333 7335
7334 7335
7336 7337
7338 7339
7338 7340
7338 7341
7339 7340
7339 7341
7340 7341
7342 7343
7342 7344
7342 7345
7342 7346
7342 7347
7342 7348
7342 7349
7342 7350
7343 8329
7343 9474
7343 9475
7343 8331
7343 9476
7343 9477
7343 7520
7343 7521
7344 7345
7344 7346
7344 7347
7344 7348
7344 7349
7344 7350
7345 7346
7345 7347
7345 7348
7345 7349
7345 7350
7346 7347
7346 7348
7346 7349
7346 7350
7347 7348
7347 7349
7347 7350
7348 7349
7348 7350
7349 7350
7351 7352
7353 7354
7353 7355
7353 7356
7353 7357
7353 7358
7353 7359
7353 7360
7353 7361
7354 7355
7354 7356
7354 7357
7354 7358
7354 7359
7354 7360
7354 7361
7355 7356
7355 7357
7355 7358
7355 7359
7355 7360
7355 7361
7356 7357
7356 7358
7356 7359
7356 7360
7356 7361
7357 7358
7357 7359
7357 7360
7357 7361
7358 7359
7358 7360
7358 7361
7359 7360
7359 7361
7360 7361
7362 10128
7363 7364
7365 7366
7365 7367
7365 7368
7366 7742
7366 7367
7366 7368
7367 7368
7369 7370
7369 7371
7369 7372
7369 7373
7369 7374
7370 7372
7375 7376
7375 7377
7375 7378
7375 7379
7375 7380
7375 7381
7375 7382
7375 7383
7376 7377
7376 7378
7376 7379
7376 7380
7376 7381
7376 7382
7376 7383
7377 7378
7377 7379
7377 7380
7377 7381
7377 7382
7377 7383
7378 7379
7378 7380
7378 7381
7378 7382
7378 7383
7379 7380
7379 7381
7379 7382
7379 7383
7380 7381
7380 7382
7380 7383
7381 7382
7381 7383
7382 7383
7384 7385
7384 7386
7384 7387
7384 7388
7384 7389
7384 7390
7384 7391
7384 7392
7385 7386
7385 7387
7385 7388
7385 7389
7385 7390
7385 7391
7385 7392
7386 7387
7386 7388
7386 7389
7386 7390
7386 7391
7386 7392
7387 7388
7387 7389
7387 7390
7387 7391
7387 7392
7388 7389
7388 7390
7388 7391
7388 7392
7389 7390
7389 7391
7389 7392
7390 7391
7390 7392
7391 7392
7393 7394
7393 7395
7394 9724
7394 9725
7394 9726
7394 9727
7394 9728
7396 7397
7396 7398
7396 7399
7396 7400
7396 7401
7396 7402
7396 7403
7396 7404
7397 7398
7397 7399
7397 7400
7397 7404
7398 7399
7398 7400
7398 7403
7398 7404
7399 7400
7399 7404
7400 7404
7401 7402
7402 8616
7405 7406
7405 7407
7405 7408
7405 7409
7405 7410
7405 7411
7406 7408
7406 7409
7406 7410
7406 7411
7407 9073
7407 9074
7407 9075
7407 9076
7408 7409
7408 7410
7408 7411
7409 7410
7409 7411
7410 7411
7412 7413
7412 7414
7412 7415
7412 7416
7412 7417
7412 7418
7412 7419
7412 7420
7412 7421
7412 7422
7412 7423
7412 7424
7412 7425
7412 7426
7413 7414
7413 7415
7413 7416
7413 7417
7413 7418
7413 7419
7413 7420
7413 7421
7413 7422
7413 7423
7413 7424
7413 7425
7413 7426
7414 7415
7414 7416
7414 7417
7414 7418
7414 7419
7414 7420
7414 7421
7414 7422
7414 7423
7414 7424
7414 7425
7414 7426
7415 7416
7415 7417
7415 7418
7415 7419
7415 7420
7415 7421
7415 7422
7415 7423
7415 7424
7415 7425
7415 7426
7416 7417
7416 7418
7416 7419
7416 7420
7416 7421
7416 7422
7416 7423
7416 7424
7416 7425
7416 7426
7417 7418
7417 7419
7417 7420
7417 7421
7417 7422
7417 7423
7417 7424
7417 7425
7417 7426
7418 7419
7418 7420
7418 7421
7418 7422
7418 7423
7418 7424
7418 7425
7418 7426
7419 7420
7419 7421
7419 7422
7419 7423
7419 7424
7419 7425
7419 7426
7420 7421
7420 7422
7420 7423
7420 7424
7420 7425
7420 7426
7421 7422
7421 7423
7421 7424
7421 7425
7421 7426
7422 7423
7422 7424
7422 7425
7422 7426
7423 7424
7423 7425
7423 7426
7424 7425
7424 7426
7425 7426
7427 7428
7427 7429
7427 7430
7427 7431
7428 7429
7428 7430
7428 7431
7429 7430
7429 7431
7430 9980
7430 7431
7432 7433
7432 7434
7432 7435
7433 9193
7433 7434
7433 7435
7434 9193
7434 7435
7436 7437
7436 7438
7436 7439
7436 7440
7436 7441
7436 7442
7436 7443
7436 7444
7436 7445
7436 7446
7437 7452
7437 7438
7437 7439
7437 7440
7437 7441
7437 7453
7438 7439
7438 7440
7438 7441
7438 9677
7438 9678
7438 9679
7438 9680
7438 9681
7438 9682
7438 9683
7438 9684
7439 7440
7439 7441
7439 7444
7439 7446
7440 7441
7440 7444
7440 7446
7441 7447
7441 7442
7441 7443
7441 7445
7441 7448
7441 7449
7441 7450
7442 7443
7442 7445
7443 7447
7443 7445
7443 7449
7443 7450
7445 7447
7445 7450
7447 7475
7447 7448
7447 7449
7447 10548
7447 7450
7447 7481
7447 7451
7448 10548
7454 7455
7454 7456
7455 7456
7457 7458
7457 7459
7457 7460
7457 7461
7457 7462
7457 7463
7457 7464
7457 7465
7457 7466
7457 7467
7457 7468
7457 7469
7457 7470
7457 7471
7457 7472
7457 7473
7458 7459
7458 7471
7459 7460
7459 7461
7459 7465
7459 7466
7459 7467
7459 7468
7459 7469
7459 7470
7459 7472
7460 7465
7460 7466
7460 7467
7461 7470
7461 7472
7462 7463
7462 7464
7462 7473
7463 7464
7463 7473
7464 7473
7465 7466
7465 7467
7466 7467
7468 7469
7470 7472
7473 8011
7473 8012
7473 11327
7473 11330
7474 7475
7474 7476
7474 7477
7474 7478
7474 7479
7474 7480
7474 7481
7474 7482
7475 10548
7475 7481
7476 7477
7476 7478
7476 7479
7476 7480
7476 7482
7477 7478
7477 7479
7477 7480
7477 7482
7478 7479
7478 7480
7478 7482
7479 7480
7479 7482
7480 7482
7481 10548
7483 7484
7483 7485
7483 7486
7484 7487
7484 7488
7484 7489
7484 7490
7484 7491
7485 10130
7487 7488
7487 7489
7487 7490
7487 7491
7488 7489
7488 7490
7488 7491
7489 7490
7489 7491
7490 7491
7492 7493
7492 7494
7492 7495
7492 7496
7492 7497
7492 7498
7492 7499
7492 7500
7493 7494
7493 7495
7493 7496
7493 7497
7493 7498
7493 7499
7493 7500
7494 7495
7494 7496
7494 7497
7494 7498
7494 7499
7494 7500
7495 7496
7495 7497
7495 7498
7495 7499
7495 7500
7496 7497
7496 7498
7496 7499
7496 7500
7497 7498
7497 7499
7497 7500
7498 7499
7498 7500
7499 7500
7501 7646
7502 7503
7502 7504
7502 7505
7502 7506
7502 7507
7502 7508
7503 7504
7503 7505
7503 7506
7503 10329
7503 7507
7503 10330
7503 10331
7504 7505
7504 10329
7504 10331
7505 7506
7505 10329
7505 7507
7505 10330
7505 10331
7506 7507
7506 10330
7507 7508
7507 10330
7507 11549
7508 10330
7508 11549
7509 7510
7509 7511
7509 7512
7509 7513
7510 7511
7510 7512
7510 7513
7511 7512
7511 7513
7512 7513
7514 7515
7516 7517
7516 7518
7516 7519
7516 9560
7516 7520
7517 7519
7518 8726
7518 9558
7518 7519
7518 9560
7520 9559
7520 9560
7520 7521
7522 7523
7522 7524
7523 7524
7525 7526
7525 7527
7525 7528
7526 7603
7526 7527
7526 7528
7526 11564
7527 10516
7527 7603
7527 9132
7527 7604
7527 7528
7527 11564
7528 10516
7528 10517
7528 11129
7528 7603
7528 10518
7528 11132
7528 10519
7528 10520
7528 11564
7529 7530
7529 7531
7529 7532
7529 7533
7529 7534
7529 7535
7529 7536
7529 7537
7529 7538
7529 7539
7530 7531
7530 7532
7530 7533
7530 7535
7531 7532
7531 7535
7531 7536
7531 7538
7531 7539
7532 7534
7533 8206
7533 9768
7535 7536
7535 7537
7535 7539
7536 7537
7536 7539
7538 7539
7540 7541
7540 10666
7540 10667
7540 7542
7540 10668
7541 7542
7542 10668
7543 7544
7543 7545
7543 7546
7543 7547
7544 7545
7544 7546
7544 7547
7545 7546
7545 11594
7545 11595
7545 7547
7545 11596
7546 7547
7548 7549
7549 7550
7549 7551
7549 7552
7549 7553
7549 7554
7549 7555
7551 8780
7551 7552
7551 7553
7551 7554
7551 7555
7552 7553
7552 7554
7552 7555
7553 7554
7553 7555
7554 7555
7557 9950
7557 11042
7557 11043
7557 11044
7557 8029
7557 11045
7557 9951
7557 9952
7557 11046
7557 11047
7557 11048
7557 9953
7558 7559
7558 7560
7558 7561
7558 7562
7558 7563
7559 7560
7559 7561
7559 7562
7559 7563
7560 7561
7560 7562
7560 7563
7561 7562
7561 7563
7562 7563
7564 7565
7564 7566
7564 7567
7564 7568
7564 7569
7564 7570
7564 7571
7565 7566
7565 7567
7566 7567
7568 7569
7568 7570
7568 7571
7569 7570
7569 7571
7570 7571
7572 7573
7572 7574
7572 7575
7572 7576
7572 7577
7573 9173
7573 9175
7573 9176
7573 7577
7574 7575
7578 8754
7578 8755
7578 8756
7578 8757
7578 8758
7578 8759
7578 8760
7579 9201
7579 9299
7579 9300
7579 7580
7579 9202
7579 9301
7579 9302
7579 9303
7579 9304
7579 9305
7579 9306
7580 9201
7580 9300
7580 9202
7580 9301
7580 9303
7580 9304
7580 9305
7580 9306
7581 7582
7581 7583
7581 7584
7581 7585
7581 7586
7581 7587
7581 7588
7581 7589
7582 8785
7582 8786
7582 7583
7582 7584
7582 7585
7582 7586
7582 7587
7582 7588
7582 7589
7583 7584
7583 7585
7583 7586
7583 7587
7583 7588
7583 7589
7584 7585
7584 7586
7584 7587
7584 7588
7584 7589
7585 7586
7585 7587
7585 7588
7585 7589
7586 7587
7586 7588
7586 7589
7587 7588
7587 7589
7588 7589
7590 7591
7591 11557
7592 7593
7592 7594
7592 7595
7592 7596
7592 7597
7593 7594
7593 7595
7593 7596
7593 7597
7594 7595
7594 7596
7594 7597
7595 7596
7595 7597
7596 7597
7597 11899
7597 11900
7598 7599
7598 9237
7598 9238
7598 9239
7598 9240
7599 9185
7599 9186
7599 9237
7599 9238
7599 9239
7599 9240
7599 9241
7600 7601
7600 7602
7600 7603
7600 7604
7600 7605
7601 7816
7601 7819
7601 7820
7602 7605
7603 9132
7603 7604
7603 11354
7603 11564
7604 9132
7606 10962
7606 10963
7606 10209
7607 7608
7607 7610
7608 7822
7608 7823
7608 7824
7608 7825
7608 7826
7609 7610
7609 7611
7612 7615
7616 7617
7616 7618
7616 7619
7616 7620
7617 7618
7617 7619
7617 7620
7618 7619
7618 7620
7619 7620
7621 11375
7621 11376
7621 11377
7621 11378
7621 11379
7621 7622
7623 7624
7623 7625
7623 7626
7623 7627
7624 7625
7624 7626
7624 7627
7625 7626
7625 7627
7626 7627
7626 7628
7630 10869
7632 10964
7632 10965
7632 7633
7632 7634
7633 7634
7635 7638
7635 7639
7636 7637
7636 7640
7636 7641
7637 7640
7637 7641
7638 7639
7640 7641
7642 7643
7643 9589
7643 9590
7643 9591
7644 7645
7646 10261
7646 8336
7646 10262
7646 8950
7646 10263
7646 10264
7646 10265
7646 10266
7646 10267
7647 7648
7647 7649
7647 7650
7647 7651
7647 7652
7647 7653
7647 7654
7648 7649
7648 7650
7648 7651
7648 7652
7648 7653
7648 7654
7649 9981
7649 7650
7649 7651
7649 7652
7649 7653
7649 7654
7650 7651
7650 7652
7650 7653
7650 7654
7651 7652
7651 7653
7651 7654
7652 7653
7652 7654
7653 7654
7655 8787
7655 8788
7655 7656
7655 7657
7655 7658
7655 7660
7655 7661
7656 8787
7656 8788
7656 7657
7656 7658
7656 7660
7656 7661
7657 7658
7657 7659
7657 7660
7657 7661
7657 7662
7657 7663
7657 7664
7658 7659
7658 7660
7658 7661
7658 7662
7658 7663
7658 7664
7660 7661
7660 7662
7660 7663
7660 7664
7661 7662
7661 7663
7661 7664
7662 7663
7662 7664
7663 7664
7665 7666
7665 7667
7665 7668
7666 7667
7666 7668
7667 7668
7669 7670
7669 7671
7669 7672
7669 7673
7669 7674
7669 7675
7669 7676
7669 7677
7669 7678
7669 7679
7669 7680
7669 7681
7669 7682
7670 7671
7670 7672
7670 7673
7670 7674
7670 7675
7670 7676
7670 7677
7670 7678
7670 7679
7670 7680
7670 7681
7670 7682
7671 7672
7671 7673
7671 7674
7671 7675
7671 7676
7672 7673
7672 7674
7672 7675
7672 7676
7673 7674
7673 7675
7673 7676
7674 7675
7674 7676
7675 7676
7677 7678
7677 7679
7677 7680
7677 7681
7677 7682
7678 7679
7678 7680
7678 7681
7678 7682
7679 7680
7679 7681
7679 7682
7680 7681
7680 7682
7681 7682
7683 7684
7683 7685
7683 7686
7684 7685
7684 7686
7685 7686
7687 7688
7687 7689
7687 7690
7688 8398
7688 7689
7688 7690
7688 8399
7688 8400
7688 8401
7688 8402
7688 8403
7688 8404
7688 8405
7688 8406
7689 7690
7690 8401
7690 8402
7690 8403
7690 8404
7693 7694
7693 7695
7693 7696
7693 7697
7693 7698
7693 7699
7693 7700
7693 7701
7693 7702
7693 7703
7694 7695
7694 7696
7694 7697
7694 7698
7694 7699
7694 7700
7694 7701
7694 7702
7694 7703
7695 7696
7695 7697
7695 7698
7695 7699
7695 7700
7695 7701
7695 7702
7695 7703
7696 7697
7696 7698
7696 7699
7696 7700
7696 7701
7696 7702
7696 7703
7697 7698
7697 7699
7697 7700
7697 7701
7697 7702
7697 7703
7698 7699
7698 7700
7698 7701
7698 7702
7698 7703
7699 7700
7699 7701
7699 7702
7699 7703
7700 7701
7700 7702
7700 7703
7701 7702
7701 7703
7702 7703
7704 7705
7704 7706
7704 7707
7704 7708
7704 7709
7704 7710
7704 7711
7704 7712
7704 7713
7705 7707
7705 7708
7707 9423
7707 8914
7707 8422
7707 11030
7707 11031
7707 9424
7707 7708
7707 11032
7707 11287
7707 11288
7707 11289
7707 10594
7709 7710
7709 7711
7709 7712
7709 7713
7710 7711
7710 7712
7710 7713
7711 7712
7711 7713
7712 7713
7714 9550
7714 7715
7714 9551
7714 9552
7714 9553
7715 7716
7717 7718
7717 7719
7717 7720
7717 7721
7718 7719
7718 7720
7718 7721
7719 7720
7719 7721
7720 7721
7721 9300
7722 7723
7722 7724
7722 7725
7722 7726
7722 7727
7722 7728
7723 8143
7723 8149
7723 8144
7723 8146
7723 8148
7723 8150
7724 7725
7724 7726
7724 7727
7724 7728
7725 7726
7725 7727
7725 7728
7726 7727
7726 7728
7727 7728
7729 7730
7729 7731
7730 11285
7730 7770
7730 11286
7730 7731
7730 11944
7732 7733
7732 7734
7732 7735
7732 7736
7732 7737
7732 7738
7732 7739
7732 7740
7733 10178
7733 11084
7733 7734
7733 7735
7733 7736
7733 7737
7733 7738
7733 7739
7733 7740
7734 7735
7734 7736
7734 7737
7734 7738
7734 7739
7734 7740
7735 7736
7735 7737
7735 7738
7735 7739
7735 7740
7736 7737
7736 7738
7736 7739
7736 7740
7737 7738
7737 7739
7737 7740
7738 7739
7738 7740
7739 7740
7741 7742
7741 7743
7741 7744
7741 7745
7741 7746
7741 7747
7741 7748
7742 7743
7742 7744
7742 7745
7742 7746
7742 7747
7742 7748
7743 7744
7743 7745
7743 7746
7743 7747
7743 7748
7744 7745
7744 7746
7744 7747
7744 7748
7745 7746
7745 7747
7745 7748
7746 7747
7746 7748
7747 7748
7748 10974
7749 7750
7749 7751
7749 7752
7749 7753
7749 7754
7749 7755
7749 7756
7749 7757
7750 7751
7750 7752
7750 7753
7751 7752
7751 7753
7751 7754
7751 7755
7751 11597
7751 7756
7751 7757
7752 7753
7753 11691
7753 11692
7753 11597
7754 7755
7754 7757
7755 11691
7755 11692
7755 11597
7755 7757
7758 7759
7758 7760
7758 7761
7758 7762
7758 7763
7759 7760
7759 7761
7759 7762
7759 7763
7760 7761
7760 7762
7760 7763
7761 7762
7761 7763
7762 8542
7762 8642
7762 8644
7762 7763
7762 8647
7762 8651
7764 7765
7764 7766
7764 7767
7764 7768
7765 7766
7765 7767
7765 7768
7766 11521
7766 7767
7766 7768
7767 9478
7767 9479
7767 7768
7770 7771
7770 11944
7771 7773
7774 7775
7774 7776
7775 7776
7777 7778
7777 7779
7777 7780
7777 7781
7778 10956
7778 10957
7778 10958
7778 10959
7778 10960
7778 10961
7779 7780
7779 7781
7780 7781
7782 7810
7782 7811
7782 7812
7782 7813
7782 7814
7782 7815
7783 10849
7783 7786
7783 10111
7784 7785
7786 10111
7788 7789
7788 7790
7788 7791
7788 7792
7788 7793
7789 7794
7789 7795
7789 7792
7789 7796
7789 7793
7790 7791
7791 8538
7791 8542
7791 8642
7791 8644
7792 7794
7792 7795
7792 7796
7792 7793
7793 7794
7793 7795
7793 7796
7794 7795
7794 7796
7795 7796
7797 8556
7797 11750
7797 11751
7797 11752
7797 11753
7797 11754
7797 11755
7797 11756
7797 11757
7797 11758
7797 11759
7798 7799
7798 7800
7798 7801
7798 7802
7798 7803
7798 7804
7798 7805
7798 7806
7799 7800
7799 7801
7799 7802
7799 7803
7799 7804
7799 7805
7799 7806
7800 7801
7800 7802
7800 7803
7800 7804
7800 7805
7800 7806
7801 7802
7801 7803
7801 7804
7801 7805
7801 7806
7802 7803
7802 7804
7802 7805
7802 7806
7803 7804
7803 7805
7803 7806
7804 7805
7804 7806
7805 7806
7807 8448
7807 10097
7807 7808
7807 11126
7807 11127
7807 7809
7808 11126
7808 11127
7810 7811
7810 7812
7810 7813
7810 7814
7810 7815
7811 7812
7811 7813
7811 7814
7811 7815
7812 7813
7812 7814
7812 7815
7813 7814
7813 7815
7814 7815
7816 7817
7816 7818
7816 7819
7816 7820
7816 7821
7817 7818
7817 7821
7818 7821
7819 7820
7822 8087
7822 8348
7822 8088
7822 7823
7822 7824
7822 8089
7822 9083
7822 9084
7822 9085
7822 9086
7822 7825
7822 9087
7822 8090
7822 9088
7822 7826
7823 8348
7823 8088
7823 7824
7823 8089
7823 7825
7823 9087
7823 8090
7823 9088
7823 7826
7824 8088
7824 9083
7824 9084
7824 9085
7824 9086
7824 7825
7825 9087
7826 8088
7827 7828
7827 7829
7827 7830
7827 7831
7827 7832
7827 7833
7827 7834
7827 7835
7827 7836
7827 7837
7827 7838
7827 7839
7827 7840
7827 7841
7828 7829
7828 7830
7828 7831
7828 7832
7828 7833
7828 7834
7828 7835
7828 7836
7828 7837
7828 7838
7829 10993
7829 7830
7829 7831
7829 7832
7829 7833
7829 7834
7829 7835
7829 7836
7829 7837
7829 7839
7829 7840
7829 7841
7830 7831
7830 7832
7830 7833
7830 7834
7830 7835
7830 7836
7830 7837
7830 7838
7831 7832
7831 7833
7831 7834
7831 7835
7831 7836
7831 7837
7832 7833
7832 7834
7832 7835
7832 7836
7832 7837
7833 7834
7833 7835
7833 7836
7833 7837
7834 7835
7834 7836
7834 7837
7835 7836
7835 7837
7836 7837
7839 7840
7839 7841
7840 7841
7842 7843
7844 7845
7844 7846
7845 7846
7845 8396
7846 8394
7846 8211
7846 8212
7846 8395
7847 7848
7847 7849
7848 11185
7848 11187
7848 11188
7850 7851
7850 7852
7850 7853
7851 7852
7851 7853
7852 7853
7854 7859
7856 7857
7856 7858
7857 7858
7860 7861
7860 7862
7860 7863
7860 7864
7860 7865
7860 7866
7860 7867
7860 7868
7860 7869
7860 7870
7860 7871
7861 7862
7861 7863
7861 7864
7861 7865
7861 7866
7861 7867
7861 7868
7861 7869
7861 7870
7861 7871
7862 7863
7862 7864
7862 7865
7862 7866
7862 7867
7862 7868
7862 7869
7862 7870
7862 7871
7863 7864
7863 7865
7863 7866
7863 7867
7863 7868
7863 7869
7863 7870
7863 7871
7864 7865
7864 7866
7864 7867
7864 7868
7864 7869
7864 7870
7864 7871
7865 7866
7865 7867
7865 7868
7865 7869
7865 7870
7865 7871
7866 7867
7866 7868
7866 7869
7866 7870
7866 7871
7867 7868
7867 7869
7867 7870
7867 7871
7868 7869
7868 7870
7868 7871
7869 7870
7869 7871
7870 7871
7872 7873
7874 8700
7874 8701
7878 7879
7878 7883
7878 7884
7878 7885
7878 7886
7879 7883
7879 7884
7879 7885
7879 7880
7879 7881
7879 7882
7879 7886
7880 7881
7880 7882
7881 7882
7883 7884
7883 7885
7883 7886
7884 7885
7884 11617
7884 11618
7884 11619
7884 7886
7885 11617
7885 11618
7885 11619
7885 7886
7887 7888
7887 7889
7887 7890
7887 7891
7887 7892
7887 7893
7887 7894
7887 7895
7887 7896
7887 7897
7887 7898
7887 7899
7888 11052
7888 11053
7889 7890
7889 7891
7889 7892
7889 7893
7889 7894
7889 7896
7890 7891
7890 7892
7890 7893
7890 7894
7890 7896
7891 7892
7891 7893
7891 7894
7891 7896
7892 7893
7892 7894
7892 7896
7893 7894
7893 7896
7894 7896
7897 7898
7897 7899
7898 7899
7900 7901
7900 7902
7900 7903
7901 7902
7901 7903
7902 7903
7904 7906
7904 7907
7904 7909
7905 7908
7905 7909
7905 11639
7906 7907
7906 7909
7907 7909
7908 11639
7910 7911
7910 7912
7910 7913
7911 7912
7911 7913
7912 7913
7914 7915
7914 7916
7917 9077
7917 9078
7917 9079
7917 9080
7917 9081
7917 9082
7918 7920
7918 7921
7918 7922
7918 7923
7918 7925
7919 7927
7919 7929
7919 7930
7919 7931
7920 7921
7920 7922
7920 7923
7920 7925
7921 7922
7921 7923
7921 7925
7922 7923
7922 7925
7923 10510
7923 7925
7924 10485
7924 10486
7924 9830
7924 10487
7924 10488
7924 9833
7924 10489
7926 7927
7926 7928
7927 7928
7927 7931
7929 7930
7929 7931
7930 7931
7932 7933
7932 7934
7932 7935
7932 7936
7933 7934
7933 7935
7933 7936
7934 7935
7934 7936
7935 7936
7937 7938
7937 7939
7937 7940
7937 7941
7938 7939
7938 7940
7938 7941
7939 7940
7939 7941
7940 7941
7942 7943
7942 7944
7943 7944
7945 7946
7945 7947
7945 7948
7945 7949
7945 7950
7946 7947
7946 9513
7946 9514
7946 7948
7946 7949
7946 7950
7946 9515
7947 9864
7947 9513
7947 9514
7947 7948
7947 7949
7947 7950
7947 9515
7948 7949
7948 7950
7949 7950
7951 7952
7951 7953
7951 7954
7952 7953
7952 7954
7953 7954
7955 7956
7955 7957
7955 7958
7955 7959
7955 7960
7955 7961
7955 7962
7955 7963
7955 7964
7955 7965
7956 7957
7956 7958
7956 7959
7956 7960
7956 7961
7956 7962
7956 7963
7956 7964
7956 7965
7957 7958
7957 7959
7957 7960
7957 7961
7957 7962
7957 7963
7957 7964
7957 7965
7958 7959
7958 7960
7958 7961
7958 7962
7958 7963
7958 7964
7958 7965
7959 7960
7959 7961
7959 7962
7959 7963
7959 7964
7959 7965
7960 7961
7960 7962
7960 7963
7960 7964
7960 7965
7961 7962
7961 7963
7961 7964
7961 7965
7962 7963
7962 7964
7962 7965
7963 7964
7963 7965
7964 7965
7966 7967
7966 7968
7966 7969
7966 7970
7966 7971
7966 7972
7966 7973
7966 7974
7967 7968
7967 7969
7967 7970
7967 7971
7967 7972
7967 7973
7967 7974
7968 7969
7968 7970
7968 7971
7968 7972
7968 7973
7968 7974
7969 7970
7969 7971
7969 7972
7969 7973
7969 7974
7970 7971
7970 7972
7970 7973
7970 7974
7971 7972
7971 7973
7971 7974
7972 7973
7972 7974
7973 7974
7976 7977
7976 9098
7976 7978
7976 7979
7976 7981
7977 9098
7977 7978
7977 7979
7977 7981
7978 9098
7978 7979
7978 7980
7978 7981
7978 7982
7979 9649
7979 9098
7979 11107
7979 7980
7979 7981
7979 7982
7980 9098
7980 10513
7980 7981
7980 7982
7981 9098
7981 7982
7983 7984
7983 7985
7983 7986
7983 7987
7983 7988
7984 7985
7984 7986
7984 7987
7984 7988
7985 7986
7985 7987
7985 7988
7986 7987
7986 7988
7987 7988
7989 7990
7989 7991
7990 7991
7992 7993
7992 7994
7992 7995
7992 7996
7992 7997
7993 7994
7993 7995
7993 7996
7993 7997
7994 7995
7994 7996
7994 7997
7995 7996
7995 7997
7996 7997
7998 7999
7998 8000
7999 8000
8001 8002
8001 8003
8002 8003
8004 8784
8005 8006
8005 8007
8005 8008
8005 8009
8005 8010
8005 8011
8005 8012
8006 8007
8006 8008
8006 8009
8006 8010
8007 8008
8007 8009
8007 8010
8008 8009
8008 8010
8009 8010
8011 8012
8011 11327
8011 11328
8011 11329
8011 11330
8011 11331
8012 11327
8012 11328
8012 11329
8012 11330
8012 11331
8014 8015
8014 8016
8014 8017
8014 8018
8014 8019
8015 9691
8015 8016
8015 9692
8015 9693
8015 8017
8015 8018
8015 8019
8015 9694
8015 9695
8016 9691
8016 9692
8016 9693
8016 8017
8016 8018
8016 8019
8017 8018
8017 8019
8017 9694
8018 8019
8020 9541
8020 8022
8021 8023
8021 8025
8023 8025
8026 8027
8026 8028
8027 8028
8029 9950
8029 9951
8029 9952
8029 9953
8030 8031
8030 8032
8031 8032
8031 8033
8034 8035
8034 8036
8034 8037
8034 8038
8034 8039
8034 8040
8035 8036
8035 8037
8035 8038
8035 8039
8035 8040
8036 8037
8036 8038
8036 8039
8036 8040
8037 8038
8037 8039
8037 8040
8038 8039
8038 8040
8039 8040
8046 8047
8046 8048
8047 8048
8049 8050
8049 8051
8050 9818
8050 9819
8050 9820
8050 9821
8050 9822
8050 9823
8050 9824
8052 8053
8054 8055
8054 8056
8055 8056
8055 8497
8057 8058
8057 8059
8057 8060
8059 8060
8061 8062
8062 9617
8062 9618
8062 9619
8062 9620
8062 9621
8062 9622
8062 9623
8062 9624
8062 9625
8062 9626
8063 8065
8063 8066
8064 10034
8064 11038
8064 11039
8064 11040
8064 11041
8065 8066
8067 8068
8069 9764
8069 8070
8069 9765
8069 9766
8069 10950
8069 11480
8069 11481
8069 11482
8069 11483
8069 8071
8069 8072
8069 11484
8069 11485
8070 9765
8070 9766
8070 8071
8072 9765
8072 10950
8072 8073
8072 11671
8073 11671
8074 8075
8074 8076
8075 8076
8077 8078
8077 8079
8078 8079
8081 8082
8081 8083
8081 8084
8081 8085
8081 8086
8082 8083
8082 8084
8082 8085
8082 8086
8083 8084
8083 8085
8083 8086
8084 8085
8084 8086
8085 8086
8087 8088
8087 8089
8087 8090
8088 8089
8088 8090
8089 9087
8089 8090
8089 9088
8090 9088
8091 8092
8091 8093
8091 8094
8091 8095
8091 8096
8092 8093
8092 8094
8092 8095
8092 8096
8093 8094
8093 8095
8093 8096
8094 8095
8094 8096
8095 8096
8097 8098
8097 8099
8097 8100
8097 8101
8098 8099
8098 8100
8098 8101
8099 8100
8099 8101
8100 8101
8102 8103
8102 8104
8102 8105
8102 8106
8102 8107
8102 8108
8102 8109
8102 8110
8103 8104
8103 8105
8103 8106
8103 8107
8103 8108
8103 8109
8103 8110
8104 8105
8104 8106
8104 8107
8104 8108
8104 8109
8104 8110
8105 8106
8105 8107
8105 8108
8105 8109
8105 8110
8106 8107
8106 8108
8106 8109
8106 8110
8107 8108
8107 8109
8107 8110
8108 8109
8108 8110
8109 8110
8112 8113
8112 8114
8113 8114
8115 8116
8115 8117
8115 8118
8115 8119
8115 8120
8115 8121
8115 8122
8115 8123
8116 8117
8116 8118
8116 8119
8116 8120
8116 8121
8116 8122
8116 8123
8117 8118
8117 11290
8117 8119
8117 8120
8117 8121
8117 8122
8117 8123
8118 8119
8118 8120
8118 8121
8118 8122
8118 8123
8119 8120
8119 8121
8119 8122
8119 8123
8120 8121
8120 8122
8120 8123
8121 8122
8121 8123
8122 8123
8124 8125
8124 8126
8124 8127
8124 8129
8124 8130
8125 8126
8125 8127
8125 8129
8125 8130
8126 8127
8126 8129
8126 8130
8127 8129
8127 8130
8128 8131
8129 8130
8132 8133
8132 8134
8132 8135
8132 8136
8132 8137
8132 8138
8132 8139
8132 8140
8132 8141
8132 8142
8133 8134
8133 8135
8134 8895
8134 8896
8134 8897
8134 8898
8134 8899
8134 8900
8135 8140
8135 8141
8135 8142
8136 8137
8136 8138
8136 8139
8137 8138
8137 8139
8140 8141
8140 8142
8141 8142
8143 8144
8143 8148
8144 10122
8144 10123
8144 10124
8144 10125
8144 8148
8144 10126
8145 8147
8149 8150
8149 8947
8149 8948
8150 11666
8151 8152
8151 8153
8151 8154
8151 8155
8151 8156
8151 8157
8152 9364
8152 9365
8152 9366
8153 8154
8153 8155
8153 8156
8154 10595
8154 10596
8154 8155
8154 8156
8154 8157
8154 10597
8154 10598
8154 10599
8155 8156
8156 8157
8158 8159
8158 8160
8158 8161
8158 8162
8158 8163
8158 8164
8159 8160
8159 8161
8159 8162
8159 8163
8159 8164
8160 8161
8160 8162
8160 8163
8160 8164
8161 8162
8161 8163
8161 8164
8162 8163
8162 8164
8163 8164
8165 8166
8165 8167
8165 8168
8165 8169
8165 8170
8165 8171
8165 8172
8165 8173
8165 8174
8165 8175
8166 8167
8166 8171
8166 8173
8166 8174
8166 9198
8166 9199
8166 8175
8167 8168
8167 8169
8167 8171
8167 8172
8167 8173
8167 8174
8168 8173
8170 8172
8170 8173
8171 8172
8171 8173
8172 8173
8173 8174
8173 9199
8174 9198
8174 8175
8176 8177
8176 8178
8177 8178
8178 10214
8178 10216
8179 8180
8179 8181
8179 8182
8180 8181
8180 8182
8181 8182
8183 8184
8183 8185
8183 8186
8183 8187
8184 8185
8184 8186
8184 8187
8185 8186
8185 8187
8186 8187
8188 8189
8190 8191
8190 8192
8190 8193
8190 8194
8190 8195
8191 8192
8191 8193
8191 8194
8191 8195
8192 8193
8192 8194
8192 8195
8193 8194
8193 8195
8194 8195
8196 8197
8196 8198
8196 8199
8196 8200
8197 8198
8197 8199
8197 8200
8198 8199
8201 8202
8201 8203
8201 8204
8201 11494
8201 11495
8201 11496
8201 11497
8201 11498
8201 11499
8202 8203
8202 8204
8203 8204
8205 8449
8206 8207
8206 8208
8209 8213
8209 8214
8209 8215
8211 8212
8211 8216
8212 8216
8213 8214
8213 8215
8214 8215
8217 8218
8217 8219
8217 8220
8217 8222
8217 8223
8217 8225
8217 8226
8217 8227
8217 8229
8217 8230
8218 8219
8218 8222
8218 8223
8218 8229
8219 8223
8220 8226
8221 8224
8221 8228
8222 8225
8222 8227
8222 8229
8222 8230
8224 8228
8225 8227
8225 8229
8225 8230
8227 8229
8227 8230
8229 8230
8231 8232
8231 8233
8231 8234
8231 8235
8232 8233
8232 8236
8232 8237
8232 8234
8232 8238
8232 8239
8232 8240
8232 8241
8233 8234
8233 8241
8234 8236
8234 8238
8234 8239
8234 8241
8236 8237
8236 8238
8236 8239
8236 8240
8236 8241
8236 11342
8236 11343
8236 11344
8236 11345
8237 8238
8237 8239
8237 8240
8237 11342
8237 11345
8238 8239
8238 8240
8238 8241
8238 11342
8238 11343
8238 11344
8238 11345
8239 8240
8239 8241
8239 11343
8239 11344
8241 11343
8241 11344
8242 10442
8242 8243
8242 10461
8243 10442
8243 10461
8244 8245
8244 8246
8244 8247
8244 8248
8244 8249
8244 8250
8244 8251
8244 8252
8245 8246
8247 8248
8247 8249
8247 8251
8248 8249
8248 8251
8249 8251
8250 8252
8253 8254
8253 10415
8253 8256
8253 10416
8254 8255
8255 8257
8258 8259
8260 8261
8260 8262
8260 8263
8260 8264
8261 8262
8261 8263
8261 8264
8262 8263
8262 8264
8263 8264
8265 8266
8265 8267
8265 8268
8265 8269
8265 8270
8265 8271
8265 8272
8265 8273
8265 8274
8266 8271
8266 8272
8266 8273
8266 8274
8267 8268
8267 8269
8267 8270
8267 8271
8268 8269
8268 8270
8268 8271
8269 8270
8269 8271
8270 8271
8271 8272
8271 8273
8271 8274
8272 8273
8272 8274
8273 8274
8275 8276
8275 8277
8275 8278
8275 8279
8275 8280
8276 8277
8276 8278
8276 8279
8276 8280
8277 8278
8277 8279
8277 8280
8278 8279
8278 8280
8279 8280
8281 8282
8281 8283
8281 8284
8281 8285
8281 8286
8281 8287
8282 8283
8282 8284
8282 8285
8282 8286
8282 8287
8282 11177
8282 11178
8282 11179
8283 8284
8283 8285
8283 8286
8283 8287
8283 11177
8283 11178
8283 11179
8284 8285
8284 8286
8284 8287
8285 8286
8285 8287
8285 11177
8285 11178
8285 11179
8286 8287
8288 8289
8288 8290
8288 8291
8288 8292
8288 8293
8289 11591
8289 11592
8289 11593
8289 8290
8290 11591
8290 11592
8290 11593
8290 8291
8290 8292
8290 8293
8291 8292
8291 8293
8292 8293
8294 8295
8294 8296
8294 8297
8294 8298
8294 8299
8295 8296
8295 8297
8295 8298
8295 8299
8296 8297
8296 8298
8296 8299
8297 8298
8297 8299
8298 8299
8300 10845
8300 10846
8300 10847
8300 10848
8301 8302
8301 8303
8301 8304
8301 8305
8302 8303
8302 8304
8302 8305
8303 8304
8303 8305
8304 8305
8306 8307
8306 8308
8306 8309
8306 8310
8306 8311
8307 8308
8307 8309
8307 8310
8307 8311
8308 8309
8308 8310
8308 8311
8309 8310
8309 8311
8310 8311
8312 8313
8312 8314
8313 8314
8315 8316
8315 8317
8315 8318
8315 8319
8316 10015
8316 10016
8316 8317
8316 8318
8316 8319
8316 10102
8316 10018
8317 10015
8317 10016
8317 10017
8317 8318
8317 8319
8317 10102
8317 10018
8317 10019
8317 10020
8317 10021
8317 10022
8317 10844
8318 8319
8319 10015
8319 10016
8319 10017
8319 10018
8319 10019
8319 10020
8319 10021
8319 10022
8319 10844
8320 8321
8320 8322
8320 8323
8321 8470
8321 8471
8321 10319
8321 8473
8321 8322
8321 8323
8321 8474
8321 8475
8322 8323
8323 8471
8323 10319
8323 8473
8324 8325
8324 8326
8324 8327
8324 8328
8325 8326
8325 8327
8325 8328
8326 8327
8326 8328
8327 8328
8329 8330
8329 8331
8330 8331
8332 8333
8332 8334
8333 8334
8335 8336
8336 10239
8336 9970
8336 8950
8336 10240
8337 8338
8337 8339
8337 8340
8338 8339
8338 8340
8339 11087
8339 11088
8339 11089
8339 11090
8339 11091
8342 8344
8342 8345
8342 8346
8342 8347
8344 11816
8344 11817
8344 11818
8344 11819
8344 11820
8345 8346
8348 8349
8348 8350
8348 8351
8348 8352
8349 8353
8349 8354
8349 8350
8349 8355
8350 8353
8350 8354
8350 10536
8350 10555
8350 8355
8350 10556
8350 10557
8350 10537
8350 10558
8350 10559
8350 10560
8350 10459
8350 10561
8350 10538
8350 10539
8350 10540
8350 10541
8350 10542
8350 10562
8350 10563
8351 10727
8351 8352
8352 10727
8353 8354
8354 10536
8354 10537
8354 10538
8354 10539
8354 10540
8354 10541
8354 10542
8355 10556
8356 8357
8356 8358
8356 8359
8356 8360
8356 8361
8356 8362
8356 8363
8357 8358
8357 8359
8357 8361
8357 8362
8358 8359
8358 8360
8358 8361
8358 8362
8359 8361
8359 8362
8361 8362
8364 8365
8364 8366
8364 8367
8365 8366
8365 8368
8365 8369
8365 8367
8366 8368
8366 8369
8366 8367
8367 8369
8368 9714
8368 10243
8368 9715
8368 9716
8368 9717
8368 9718
8370 8371
8372 8373
8372 8374
8373 8374
8375 8376
8375 8377
8375 8378
8375 8379
8376 8377
8376 8378
8376 8379
8377 8378
8377 8379
8378 8379
8380 8381
8380 8382
8380 8383
8380 8384
8380 8385
8380 8386
8380 8387
8380 8388
8380 8389
8380 8390
8380 8391
8380 8392
8380 8393
8381 9143
8381 9144
8381 9145
8381 9146
8382 8383
8382 8384
8382 8388
8382 8389
8382 8390
8382 8391
8382 8393
8383 8384
8383 8388
8383 8389
8383 8390
8383 8391
8383 8393
8384 8388
8384 8389
8384 8390
8384 8391
8384 8393
8385 8386
8385 8387
8385 8392
8386 8387
8386 8392
8387 8388
8387 8392
8388 8390
8388 8391
8388 8393
8390 8391
8390 8393
8391 8393
8394 8395
8394 8396
8394 8397
8396 8397
8396 10937
8399 8400
8399 8405
8399 8406
8401 8402
8401 8403
8401 8404
8402 8403
8402 8404
8403 8404
8405 8406
8407 8408
8407 8409
8407 8410
8407 8411
8407 8412
8408 8409
8408 8410
8408 8411
8408 8412
8409 8410
8409 8411
8409 8412
8410 8411
8410 8412
8411 8412
8413 8414
8413 8415
8413 8416
8413 8417
8413 8418
8413 8419
8413 8420
8413 10773
8413 10774
8414 8415
8415 10773
8415 10774
8416 8417
8416 8420
8417 8420
8418 8419
8421 8422
8421 8423
8421 8424
8421 8425
8421 8426
8421 8427
8421 8428
8421 8429
8422 9423
8422 8423
8422 11030
8422 11031
8422 8424
8422 9424
8422 11032
8422 8425
8422 8426
8422 8427
8422 8428
8422 8429
8423 8424
8423 8426
8423 8429
8424 8425
8424 8426
8424 8427
8424 8428
8425 8426
8425 8427
8425 8428
8426 8427
8426 8428
8426 8429
8427 8428
8430 8438
8430 8439
8430 8440
8430 8441
8430 8442
8432 8437
8432 11221
8432 11222
8432 11223
8432 11224
8433 8434
8433 8435
8434 8435
8434 8436
8434 8442
8436 8442
8437 9054
8437 9055
8437 9056
8437 9057
8437 9058
8438 8439
8438 8440
8438 8441
8438 8442
8438 8443
8439 8440
8439 8441
8439 8442
8440 8441
8440 8442
8441 8442
8445 8446
8445 8447
8446 8447
8449 10870
8449 10871
8450 8451
8450 8452
8450 8453
8450 8454
8450 8455
8450 8456
8450 8457
8450 8458
8451 8453
8451 8454
8451 8455
8451 8456
8451 8458
8452 8453
8452 8456
8452 8457
8453 8454
8453 8455
8453 8456
8453 8457
8454 8455
8454 8456
8455 8456
8456 8457
8459 8460
8459 8461
8459 8462
8459 8463
8460 8461
8460 8462
8460 8463
8461 8462
8461 8463
8462 8463
8462 10226
8463 10226
8464 8465
8464 8466
8464 8467
8464 8468
8464 8469
8465 8466
8465 8467
8465 8468
8465 8469
8466 11729
8466 11730
8466 8467
8466 8468
8466 8469
8466 11731
8466 11735
8466 11737
8467 8468
8467 8469
8468 8469
8470 8471
8470 8472
8470 8473
8470 8474
8470 8475
8470 8476
8471 10319
8471 8473
8471 8474
8471 8475
8471 8476
8471 10320
8472 10419
8472 10420
8473 10319
8473 8474
8473 8475
8474 8475
8476 10320
8477 8478
8477 8479
8477 8480
8477 8481
8477 8482
8477 8483
8477 8484
8477 8485
8477 8486
8477 8487
8478 8479
8478 8480
8478 8481
8478 8483
8479 8480
8479 8481
8480 8481
8482 10672
8482 8484
8482 8485
8482 8486
8482 8487
8483 10248
8483 10763
8484 8485
8484 8486
8484 8487
8485 8486
8485 8487
8486 8487
8488 8489
8488 8490
8488 8491
8489 8490
8489 8491
8490 10506
8490 10434
8490 10507
8490 10508
8490 10439
8490 10509
8492 8494
8492 8791
8492 8496
8493 8495
8494 8496
8494 8498
8496 8498
8499 8500
8499 8501
8499 8502
8499 8503
8500 8501
8500 8502
8500 8503
8501 8502
8501 8503
8502 8503
8505 8506
8505 8507
8505 8508
8506 8507
8506 8508
8507 8508
8509 8510
8511 8512
8511 8513
8511 8514
8511 8515
8511 8516
8511 8517
8511 8518
8512 10131
8512 10132
8512 10133
8512 10134
8512 10135
8512 10136
8512 10137
8513 8517
8513 8518
8514 8516
8515 10131
8515 10138
8515 10142
8515 10132
8517 8518
8519 8942
8519 8521
8519 8522
8519 8523
8519 8524
8521 8522
8521 8523
8521 8524
8522 8523
8522 8524
8523 8524
8525 9254
8525 9258
8525 8529
8526 8527
8529 9254
8529 8533
8529 8536
8530 8532
8531 11346
8531 11218
8531 11219
8531 8537
8532 8533
8532 8534
8532 8535
8533 8534
8533 11787
8533 11788
8533 8536
8534 8535
8538 8641
8538 8542
8538 8642
8538 8643
8538 8644
8538 9401
8538 8646
8538 8651
8539 8543
8539 8544
8539 8549
8540 10692
8540 8648
8540 8649
8540 8650
8540 10693
8541 9602
8541 9603
8541 9604
8541 9565
8541 8543
8541 8544
8541 8548
8542 8642
8542 8644
8542 8651
8543 8544
8543 8545
8543 8546
8543 8547
8543 8548
8543 8549
8544 10691
8544 8545
8544 8546
8544 8547
8544 8548
8544 8549
8545 8546
8546 8547
8550 8645
8551 8552
8551 9627
8551 9628
8551 9629
8551 9630
8551 9631
8551 9632
8551 9633
8551 9634
8551 9635
8551 9636
8552 9627
8552 9632
8552 9634
8552 9635
8553 8554
8553 8555
8553 8556
8553 8557
8553 8558
8554 8555
8554 10342
8554 8557
8554 10343
8554 10344
8554 10345
8554 8558
8555 8557
8555 8558
8556 11750
8556 11751
8556 11752
8556 11753
8556 11754
8556 11755
8556 11756
8556 11757
8556 11758
8556 11759
8557 10343
8557 8558
8560 8561
8560 8562
8560 8563
8561 8562
8561 8563
8562 8563
8564 8565
8564 8566
8564 8567
8564 8568
8564 8569
8564 8570
8564 8571
8564 8572
8564 8573
8564 8574
8564 8575
8564 8576
8565 8566
8565 8567
8565 8568
8565 8569
8565 8570
8565 8571
8565 8572
8565 8573
8565 8574
8565 8575
8565 8576
8566 8567
8566 8568
8566 8569
8566 8570
8566 8571
8566 8572
8566 8573
8566 8574
8566 8575
8566 8576
8567 8568
8567 8569
8567 8570
8567 8571
8567 8572
8567 8573
8567 8574
8567 8575
8567 8576
8568 8569
8568 8570
8568 8571
8568 8572
8568 8573
8568 8574
8568 8575
8568 8576
8569 8570
8569 8571
8569 8572
8569 8573
8569 8574
8569 8575
8569 8576
8570 8571
8570 8572
8570 8573
8570 8574
8570 8575
8570 8576
8571 8572
8571 8573
8571 8574
8571 8575
8571 8576
8572 8573
8572 8574
8572 8575
8572 8576
8573 8574
8573 8575
8573 8576
8574 10897
8574 10898
8574 10899
8574 10900
8574 10901
8574 8575
8574 8576
8575 8576
8577 9195
8577 9196
8577 9197
8578 8584
8578 8585
8578 8586
8578 8587
8579 8580
8579 8581
8579 8582
8579 8583
8580 8581
8580 8582
8580 8583
8581 8582
8581 8583
8582 8583
8584 8585
8584 8586
8584 8587
8585 8586
8585 8587
8586 8587
8588 8589
8588 8590
8588 8591
8588 8592
8588 8593
8588 8594
8589 8590
8589 8591
8589 8592
8589 8593
8589 8594
8590 8591
8590 8592
8590 8593
8590 8594
8591 8592
8591 8593
8591 8594
8592 8593
8592 8594
8593 8594
8595 8596
8595 8597
8595 8598
8595 8599
8595 8600
8596 9670
8596 9671
8596 9672
8596 9673
8596 9674
8597 11983
8597 8598
8597 11984
8597 11985
8597 11986
8597 11987
8597 11988
8597 11989
8597 8599
8598 8599
8601 8602
8601 8603
8601 8604
8603 8604
8605 8606
8606 8607
8608 8609
8608 8610
8608 8611
8609 8610
8609 8611
8610 8611
8610 11825
8610 11826
8610 11827
8610 11828
8610 11829
8610 11830
8610 11831
8612 8613
8612 11360
8612 11361
8613 11360
8613 11361
8617 8618
8617 8619
8617 8620
8617 8621
8617 8622
8617 8623
8617 8624
8618 10212
8618 8619
8618 8620
8618 8621
8618 8622
8618 8623
8618 8624
8618 10213
8619 10212
8619 8620
8619 8621
8619 8622
8619 8623
8619 8624
8619 10213
8620 8621
8620 8622
8620 8623
8620 8624
8621 10212
8621 8622
8621 8623
8621 8624
8621 10213
8622 8623
8622 8624
8623 8624
8624 10723
8625 8626
8626 9257
8627 8629
8627 10772
8627 8632
8628 8633
8629 8630
8629 8631
8629 10772
8629 8632
8630 8631
8630 8634
8630 8635
8630 8636
8632 10772
8633 8634
8633 8635
8633 8636
8634 8635
8634 8636
8635 8636
8637 8638
8639 8640
8639 9835
8639 9836
8639 9837
8639 9838
8639 9839
8639 9840
8639 9841
8640 9835
8640 9836
8640 9837
8640 9838
8640 9839
8640 9840
8640 9841
8642 8643
8642 8644
8642 8646
8642 8647
8642 8651
8644 8646
8644 8647
8648 10692
8648 8649
8648 8650
8648 10693
8650 10692
8650 10693
8652 8653
8654 8655
8655 9895
8655 10997
8656 8657
8656 8658
8657 8658
8659 8660
8659 8661
8660 8661
8662 8663
8662 8664
8662 8665
8662 8666
8662 8667
8662 8668
8662 8669
8662 8670
8662 8671
8662 8672
8663 8664
8663 8665
8663 8666
8663 8667
8663 8668
8663 8669
8663 8670
8663 8671
8663 8672
8664 8665
8664 8666
8664 8667
8664 8668
8664 8669
8664 8670
8664 8671
8664 8672
8665 8666
8665 8667
8665 8668
8665 8669
8665 8670
8665 8671
8665 8672
8666 8667
8666 8668
8666 8669
8666 8670
8666 8671
8666 8672
8667 8668
8667 8669
8667 8670
8667 8671
8667 8672
8668 8669
8668 8670
8668 8671
8668 8672
8669 8670
8669 8671
8669 8672
8670 8671
8670 8672
8671 8672
8673 8674
8673 8675
8673 8676
8673 8677
8673 8678
8673 8679
8674 8675
8674 8676
8674 8677
8674 8678
8674 8679
8675 8676
8675 8677
8675 8678
8675 8679
8676 8677
8676 8678
8676 8679
8677 8678
8677 8679
8678 8679
8680 8681
8680 8682
8680 9067
8680 9068
8681 8682
8683 8684
8683 8685
8683 8686
8683 8687
8683 8688
8684 8685
8684 8686
8684 8687
8684 8688
8685 8686
8685 8687
8685 8688
8686 8687
8686 8688
8687 8688
8688 8689
8688 9991
8688 9992
8689 8690
8689 8691
8689 8692
8689 8693
8689 9991
8689 9992
8690 8691
8690 8692
8690 8693
8691 8692
8691 8693
8692 8693
8694 8699
8695 8696
8695 8697
8695 8698
8696 8697
8696 8698
8697 8698
8700 8701
8702 8703
8702 8704
8702 8705
8702 8706
8702 8707
8702 8708
8702 8709
8702 8710
8702 8711
8702 8712
8702 8713
8703 8704
8703 8705
8703 8706
8703 8707
8703 8708
8703 8709
8703 8710
8703 8711
8703 8714
8703 8715
8703 8712
8703 8713
8703 8716
8703 8717
8703 8718
8703 8719
8703 8720
8703 8721
8703 8722
8704 8705
8704 8706
8704 8707
8704 8708
8704 8709
8704 8710
8704 8711
8704 8723
8704 8714
8704 8724
8705 8706
8705 8707
8705 8708
8705 8709
8705 8710
8705 8711
8706 8707
8706 8708
8706 8709
8706 8710
8706 8711
8707 8708
8707 8709
8707 8710
8707 8711
8708 8709
8708 8710
8708 8711
8709 8710
8709 8711
8710 8711
8712 8714
8712 8715
8712 8713
8712 8716
8712 8718
8712 8719
8712 8720
8713 8714
8713 8716
8713 8718
8713 8719
8713 8720
8713 8721
8713 8722
8714 8715
8714 8716
8714 8717
8714 8718
8714 8719
8714 8720
8715 8716
8716 8718
8716 8719
8716 8720
8716 8721
8716 8722
8718 8719
8718 8720
8718 8721
8718 8722
8719 8720
8719 8721
8719 8722
8720 8721
8720 8722
8721 8722
8723 8724
8725 8727
8725 8728
8725 8729
8726 9558
8727 8728
8727 8729
8728 8729
8730 8731
8730 8732
8730 8733
8730 8734
8730 8735
8731 8732
8731 8733
8731 8734
8731 8735
8732 8733
8732 8734
8732 8735
8733 8734
8733 8735
8734 8735
8736 8737
8736 8738
8736 8739
8736 8740
8736 8741
8736 8742
8736 8743
8736 8744
8736 8745
8736 8746
8736 8747
8737 8738
8737 8739
8737 8740
8737 8741
8737 8742
8737 8743
8737 8744
8737 8745
8737 8746
8737 8747
8738 8739
8738 8740
8738 8741
8738 8742
8738 8743
8738 8744
8738 8745
8738 8746
8738 8747
8739 8740
8739 8741
8739 8742
8739 8743
8739 8744
8740 8741
8740 8742
8740 8743
8740 8744
8740 8745
8740 8746
8740 8747
8741 8742
8741 8743
8741 8744
8742 8743
8742 8744
8742 8745
8742 8746
8742 8747
8743 8744
8743 8745
8743 8746
8743 8747
8744 8745
8744 8746
8744 8747
8745 8746
8745 8747
8746 8747
8749 8750
8749 8751
8749 8752
8749 8753
8750 8751
8750 8752
8750 8753
8751 11872
8751 8752
8751 11920
8751 11921
8751 11922
8751 11923
8751 11924
8751 11925
8751 11873
8751 11874
8751 8753
8752 8753
8754 8789
8754 8759
8754 8760
8754 8792
8754 8793
8754 9561
8754 9562
8754 9563
8754 8794
8754 8795
8754 8796
8754 9564
8755 8757
8758 10038
8758 10039
8759 8760
8759 9562
8760 9561
8760 9562
8760 9563
8761 8762
8761 8763
8761 8764
8761 8765
8761 8766
8761 8767
8761 8768
8761 8769
8761 8770
8762 8763
8762 8764
8762 8765
8762 8766
8762 8767
8762 8768
8762 8769
8762 8770
8763 8764
8763 8765
8763 8766
8763 8767
8763 8768
8763 8769
8763 8770
8764 8765
8764 8766
8764 8767
8764 8768
8764 8769
8764 8770
8765 8766
8765 8767
8765 8768
8765 8769
8765 8770
8766 8767
8766 8768
8766 8769
8766 8770
8767 8768
8767 8769
8767 8770
8768 8769
8768 8770
8769 8770
8771 8772
8771 8773
8771 8774
8771 8775
8772 8773
8772 8774
8772 8775
8773 8774
8773 8775
8774 8775
8776 8777
8776 8778
8776 8779
8776 8780
8776 8781
8777 8778
8777 8779
8777 8780
8777 8781
8778 8779
8778 8780
8778 8781
8779 8780
8779 8781
8780 8781
8782 8783
8785 8819
8785 8786
8786 8819
8787 8788
8789 8790
8789 8791
8789 8792
8789 8793
8789 8794
8789 8795
8789 8796
8790 9193
8790 8791
8790 9194
8792 8793
8792 11575
8792 8794
8792 8795
8792 8796
8793 11575
8793 8794
8793 8795
8793 8796
8793 9564
8793 8818
8794 8795
8794 8796
8795 11575
8795 8796
8795 9564
8795 8818
8797 8798
8799 8800
8799 8801
8800 8801
8802 8803
8802 8804
8802 8805
8802 8806
8802 8807
8802 8808
8803 8804
8803 8805
8803 8806
8803 8807
8803 8808
8804 8805
8804 8806
8804 8807
8804 8808
8805 8806
8805 8807
8805 8808
8806 8807
8806 8808
8807 8808
8809 8810
8810 10276
8810 10277
8810 10278
8811 9367
8811 8812
8811 9368
8811 9369
8811 9370
8811 9371
8811 8813
8811 8814
8811 9372
8811 9373
8811 9374
8811 8815
8811 8816
8811 8817
8812 9368
8812 9658
8812 9659
8812 9660
8812 9661
8812 9662
8812 8813
8812 8814
8812 8815
8812 8816
8812 8817
8813 8814
8813 8815
8813 8816
8813 8817
8814 8815
8814 8816
8814 8817
8815 8816
8815 8817
8816 8817
8820 8821
8824 8825
8824 8826
8824 8827
8824 8828
8824 8829
8824 8830
8824 8831
8824 8832
8824 8833
8824 8834
8824 8835
8824 8836
8824 8837
8824 8838
8825 8826
8825 8827
8825 8828
8825 8829
8825 8830
8825 8831
8825 8832
8825 8833
8825 8834
8825 8835
8825 8836
8825 8837
8825 8838
8826 8827
8826 8828
8826 8829
8826 8830
8826 8831
8826 8832
8826 8833
8826 8834
8826 8835
8826 8836
8826 8837
8826 8838
8827 8828
8827 8829
8827 8830
8827 8831
8827 8832
8827 8833
8827 8834
8827 8835
8827 8836
8827 8837
8827 8838
8828 8829
8828 8830
8828 8831
8828 8832
8828 8833
8828 8834
8828 8835
8828 8836
8828 8837
8828 8838
8829 8830
8829 8831
8829 8832
8829 8833
8829 8834
8829 8835
8829 8836
8829 8837
8829 8838
8830 8831
8830 8832
8830 8833
8830 8834
8830 8835
8830 8836
8830 8837
8830 8838
8831 10155
8831 8832
8831 8833
8831 8834
8831 8835
8831 8836
8831 8837
8831 8838
8832 8833
8832 8834
8832 8835
8832 8836
8832 8837
8832 8838
8833 8834
8833 8835
8833 8836
8833 8837
8833 8838
8834 8835
8834 8836
8834 8837
8834 8838
8835 8836
8835 8837
8835 8838
8836 8837
8836 8838
8837 8838
8839 8840
8839 8841
8839 8842
8839 8843
8839 8844
8839 8845
8839 8846
8839 8847
8840 8841
8840 8842
8840 8843
8840 8844
8840 8845
8840 8846
8841 8842
8841 8843
8841 8844
8841 8845
8841 8846
8841 8847
8841 9343
8842 8843
8842 8844
8843 8844
8843 8846
8845 8846
8848 10005
8848 10006
8848 10007
8848 10008
8849 8850
8849 8851
8849 8852
8849 8853
8850 8851
8850 8852
8850 8853
8851 8852
8851 8853
8852 8853
8854 8855
8856 8857
8856 8858
8856 8859
8856 8860
8856 8861
8856 8862
8856 8863
8856 8864
8857 10887
8857 10888
8857 8858
8857 8859
8857 8860
8857 8861
8857 8862
8857 8863
8857 8864
8858 8859
8858 8860
8858 8861
8858 8862
8858 8863
8858 8864
8859 8860
8859 8861
8859 8862
8859 8863
8859 8864
8860 8861
8860 8862
8860 8863
8860 8864
8861 8862
8861 8863
8861 8864
8862 8863
8862 8864
8865 8866
8865 8867
8865 8868
8865 8869
8865 8870
8865 8871
8866 8867
8866 8868
8866 8869
8866 8870
8866 8871
8867 8868
8867 8869
8867 8870
8867 8871
8868 8869
8868 8870
8868 8871
8869 8870
8869 8871
8870 8871
8872 8873
8872 8874
8872 8875
8872 8876
8872 8877
8872 8878
8872 8879
8872 8880
8872 8881
8872 8882
8872 8883
8872 8884
8872 8885
8872 8886
8872 8887
8872 8888
8872 8889
8872 8890
8872 8891
8872 8892
8872 8893
8872 8894
8873 9170
8874 8875
8874 10694
8874 10695
8874 8878
8874 8879
8874 8880
8874 8882
8874 10696
8874 10697
8874 10698
8875 8878
8875 8879
8875 8880
8875 8881
8875 8882
8875 8884
8875 8887
8875 8888
8875 8893
8876 8877
8876 9169
8876 8890
8876 8894
8877 11276
8877 8880
8877 8883
8877 8884
8877 8886
8877 8887
8877 8889
8877 11277
8877 8890
8877 11278
8877 8891
8877 8894
8878 8879
8878 8880
8878 8881
8878 8882
8878 11537
8878 11538
8878 11539
8878 11540
8878 11541
8878 11542
8878 11543
8879 8880
8879 8881
8879 8882
8879 8888
8880 8881
8880 8882
8880 8884
8880 8887
8880 8888
8880 8889
8880 8891
8881 9169
8881 8882
8881 8884
8881 9171
8881 9172
8883 11276
8883 11277
8883 8890
8883 11278
8884 8887
8884 8888
8884 8889
8884 8891
8885 11762
8885 11763
8885 11764
8885 8892
8885 11765
8885 8893
8886 9772
8886 9775
8886 9776
8887 11500
8887 11587
8887 8888
8887 8889
8887 8891
8887 11588
8887 11589
8887 11590
8889 8891
8890 11276
8890 11277
8890 11278
8890 8894
8892 11762
8892 11763
8892 11764
8892 11765
8892 8893
8895 8896
8895 8897
8895 8898
8895 8899
8895 8900
8896 8897
8896 8898
8896 8899
8896 8900
8897 8898
8897 8899
8897 8900
8898 8899
8898 8900
8899 8900
8901 8902
8901 8903
8901 8904
8901 8905
8902 8903
8902 8904
8902 8905
8903 8904
8903 8905
8904 8905
8907 8908
8908 10176
8908 10177
8909 8910
8909 8911
8909 8912
8909 8913
8910 8911
8910 8912
8911 8912
8913 8949
8914 8915
8914 10593
8914 10594
8915 8916
8917 11009
8925 8929
8925 8930
8926 8927
8926 8931
8926 8932
8926 8933
8928 8939
8928 8940
8928 8941
8929 8930
8931 8932
8931 8933
8932 8933
8934 8935
8934 8936
8934 8937
8934 8938
8935 8936
8935 8937
8935 8938
8936 8937
8936 8938
8937 8938
8940 8941
8943 8944
8943 8945
8943 8946
8944 8945
8944 8946
8944 9264
8944 9265
8945 9266
8945 8946
8945 9264
8945 9265
8945 9267
8945 9268
8945 9269
8945 9270
8947 8948
8950 10261
8950 10267
8951 8952
8953 8954
8953 8955
8953 8956
8953 8957
8953 9319
8953 9320
8953 9321
8954 8957
8954 9319
8955 8956
8955 8957
8956 8957
8957 9319
8958 8959
8958 8960
8958 8961
8958 8962
8958 8963
8958 8964
8958 8965
8958 8966
8959 8960
8959 11340
8960 8961
8960 8962
8960 11867
8960 8963
8960 8965
8960 8966
8961 8962
8961 8963
8961 8964
8961 8966
8962 8963
8962 11949
8963 8965
8963 8966
8965 8966
8968 8969
8968 8970
8968 8971
8968 8972
8968 8973
8968 8974
8968 8975
8968 8976
8969 8971
8970 8971
8971 8973
8971 8975
8971 8976
8972 8974
8977 8978
8977 8979
8980 8981
8980 8982
8980 8983
8980 8984
8981 8982
8981 8983
8981 8984
8982 8983
8982 8984
8983 8984
8985 8986
8985 8987
8985 8988
8985 8989
8985 8990
8986 9598
8986 8987
8986 8988
8986 8989
8986 8990
8986 9668
8986 9669
8986 9936
8987 9598
8987 8988
8987 8989
8987 8990
8987 9668
8987 9669
8988 8989
8988 8990
8989 8990
8991 8992
8991 8993
8991 8994
8991 8995
8991 8996
8991 8997
8992 8993
8992 8994
8992 8995
8992 8996
8992 8997
8993 8994
8993 8995
8993 8996
8993 8997
8994 8995
8994 8996
8994 8997
8995 8996
8995 8997
8996 8997
8998 8999
8998 9000
8998 9001
8998 9002
8998 9003
8998 9004
8998 9005
8998 9006
8999 9000
8999 9001
8999 9002
8999 9003
8999 9004
8999 9005
8999 9006
9000 9001
9000 9002
9000 9003
9000 9004
9000 9005
9000 9006
9001 9002
9001 9003
9001 9004
9001 9005
9001 9006
9002 9003
9002 9004
9002 9005
9002 9006
9003 9004
9003 9005
9003 9006
9004 9005
9004 9006
9005 9006
9007 9008
9007 9009
9007 9010
9007 9011
9007 9012
9007 9013
9007 9014
9008 9012
9008 9015
9008 9016
9008 9017
9008 9013
9008 9014
9008 9018
9009 10580
9009 9010
9009 9011
9010 9011
9012 9015
9012 9016
9012 9017
9012 9013
9012 9014
9012 9018
9013 9015
9013 9016
9013 9017
9013 9014
9013 9018
9014 9018
9015 9016
9015 9017
9016 9017
9019 9020
9021 9022
9021 9023
9021 9024
9021 9025
9021 9026
9021 9027
9021 9028
9021 9029
9021 9030
9021 9031
9021 9032
9021 9033
9021 9034
9021 9035
9021 9036
9022 9023
9022 9024
9022 9025
9023 9024
9025 9033
9025 9034
9026 9027
9026 9028
9026 9029
9026 9030
9026 9031
9026 9032
9026 9036
9027 9028
9027 9029
9027 9030
9027 9031
9027 9032
9027 9036
9028 9029
9028 9030
9028 9031
9028 9032
9028 9036
9029 9030
9029 9031
9029 9032
9029 9036
9030 9031
9030 9032
9030 9036
9031 9032
9031 9036
9032 9036
9033 9034
9037 9038
9037 9039
9040 10651
9040 9041
9040 10652
9040 10653
9040 9042
9040 9043
9041 9042
9041 9043
9044 9045
9044 9046
9044 9047
9044 9048
9044 9049
9045 9046
9045 9047
9045 9048
9045 9049
9046 10099
9046 10100
9046 10101
9046 9047
9046 9048
9046 9049
9047 9048
9047 9049
9048 9049
9050 9051
9050 9052
9051 9052
9054 9055
9054 9056
9054 9057
9054 9058
9055 9056
9055 9057
9055 9058
9056 9057
9056 9058
9057 9058
9059 9060
9059 9064
9060 9064
9061 9062
9062 9063
9065 9066
9067 9068
9069 10417
9069 9070
9069 9071
9069 9072
9069 10418
9070 9071
9070 9072
9071 9072
9073 9074
9073 9075
9073 9076
9074 9075
9074 9076
9075 9076
9077 11206
9077 11207
9077 11208
9077 10788
9078 9079
9078 9080
9078 9081
9078 9082
9079 9080
9079 9081
9079 9082
9080 9081
9080 9082
9081 9082
9083 9084
9083 9085
9083 9086
9084 9085
9084 9086
9085 9086
9089 9090
9089 10684
9089 10685
9091 9092
9091 9093
9091 9094
9091 9095
9091 9096
9092 9093
9092 9094
9092 9095
9093 9094
9093 9095
9094 9095
9098 9649
9099 9100
9099 9101
9099 9102
9100 9101
9100 9102
9101 9102
9103 9104
9103 9105
9103 9106
9103 9107
9103 9108
9103 9109
9103 9110
9103 9111
9104 9105
9104 9106
9104 9107
9104 9108
9104 9109
9104 9110
9104 9111
9105 9106
9105 9108
9106 9107
9106 9108
9107 9108
9108 9111
9112 9113
9112 9114
9112 9115
9112 9116
9112 9117
9112 9118
9112 9119
9112 9120
9112 9121
9112 9122
9112 9123
9113 9114
9113 9115
9113 9116
9113 9117
9113 9118
9114 9115
9114 9116
9114 9117
9114 9118
9115 9116
9115 9117
9115 9118
9115 9119
9115 9120
9115 9121
9115 9122
9115 9123
9116 9117
9116 9118
9117 9118
9117 9119
9117 9120
9117 9121
9117 9122
9117 9123
9119 9120
9119 9121
9119 9122
9119 9123
9120 9121
9120 9122
9120 9123
9121 9122
9121 9123
9122 9123
9124 9125
9124 9126
9124 9127
9124 9128
9124 9129
9125 10103
9125 10104
9126 10495
9126 10501
9126 9127
9126 9128
9126 9129
9127 9128
9127 9129
9128 9129
9130 9131
9130 9132
9130 9133
9130 9134
9130 9135
9130 9136
9130 9137
9130 9138
9130 9139
9131 9132
9131 9133
9131 9134
9131 9135
9131 9136
9131 9137
9131 9138
9131 9139
9132 9134
9133 9135
9133 9136
9133 9137
9134 9534
9134 9535
9134 9536
9135 9136
9135 9137
9136 9137
9138 9139
9140 10425
9140 10155
9140 10426
9140 10427
9140 10428
9140 10429
9140 9141
9140 11172
9140 9142
9141 11172
9141 9142
9143 9144
9143 9145
9143 9146
9144 9145
9144 9146
9145 9146
9148 9149
9148 9150
9148 9151
9148 9152
9149 9150
9149 9151
9149 9152
9150 9151
9150 9152
9151 9152
9153 9154
9153 9155
9153 9156
9153 9157
9153 9158
9153 9159
9154 9478
9154 10934
9154 9155
9154 9156
9154 9157
9154 9158
9154 9159
9155 9156
9155 9157
9155 9158
9155 9159
9156 9157
9156 9158
9156 9159
9157 9158
9157 9159
9158 9159
9160 9161
9162 9163
9162 9164
9162 9165
9162 9166
9162 9167
9162 9168
9163 9164
9163 9165
9163 9166
9163 9167
9164 9165
9164 9166
9164 9167
9164 9168
9165 9166
9165 9167
9166 9167
9169 9171
9169 9172
9171 9172
9173 9174
9173 9176
9175 9176
9177 9178
9177 9179
9177 9180
9177 9181
9178 9179
9178 9180
9178 9181
9179 11868
9179 11869
9179 11870
9179 11871
9179 9180
9179 9181
9180 9181
9182 9183
9182 9184
9183 9184
9185 9186
9191 9192
9193 9194
9194 9422
9195 9196
9195 9197
9196 9197
9201 9202
9203 9204
9203 9205
9204 9205
9206 9207
9206 9419
9207 9419
9208 9209
9208 10065
9208 9210
9208 9211
9208 9212
9208 10066
9209 10065
9209 9210
9209 9212
9209 10066
9210 10065
9210 9212
9210 10066
9212 10065
9212 10066
9213 9221
9213 9229
9213 9230
9213 9231
9214 10913
9214 10914
9215 9217
9218 9219
9218 9222
9218 9223
9218 9224
9218 9225
9219 9222
9221 9229
9221 9230
9221 9231
9223 9224
9223 9225
9224 9225
9226 9227
9229 9230
9229 9231
9230 9231
9232 9233
9232 9234
9232 10333
9232 9235
9233 10521
9233 11191
9233 11192
9233 9234
9233 10333
9233 9235
9233 10522
9233 10523
9234 10521
9234 10333
9234 9235
9234 10522
9234 10523
9235 10521
9236 9490
9236 9491
9236 9492
9236 9493
9236 9494
9237 9238
9237 9239
9237 9240
9238 9239
9238 9240
9239 9240
9241 11553
9241 11470
9241 11554
9243 9244
9243 9245
9243 9246
9243 9247
9243 9248
9244 9245
9244 9246
9244 9247
9244 9248
9245 9246
9245 9247
9245 9248
9246 9247
9246 9248
9247 9248
9250 9251
9250 9253
9251 9252
9254 9588
9254 9258
9256 9260
9259 9966
9262 9263
9264 9266
9264 9929
9264 9265
9264 9267
9264 9268
9264 9269
9264 9270
9264 9298
9264 9930
9266 9296
9266 9297
9266 9298
9267 9268
9267 9930
9268 9269
9271 9272
9271 9273
9271 9274
9271 9275
9271 9276
9271 9277
9272 9857
9272 9273
9272 9274
9272 9275
9272 9276
9272 9277
9272 9858
9272 9859
9272 9860
9272 9861
9272 9862
9272 9863
9273 9274
9273 9275
9273 9276
9273 9277
9274 9275
9274 9276
9274 9277
9275 9276
9275 9277
9276 9277
9278 9279
9280 9281
9280 9282
9280 9283
9280 9284
9280 9285
9280 9286
9280 9287
9280 9288
9280 9289
9281 9282
9281 9283
9281 9284
9281 9285
9281 9286
9281 9287
9281 9288
9281 9289
9282 9283
9282 9284
9282 9285
9282 9286
9282 9287
9282 9288
9282 9289
9283 9284
9283 9285
9283 9286
9283 9287
9283 9288
9283 9289
9284 9285
9284 9286
9284 9287
9284 9288
9284 9289
9285 9286
9285 9287
9285 9288
9285 9289
9286 9287
9286 9288
9286 9289
9287 9288
9287 9289
9288 9289
9290 9980
9290 9291
9290 9981
9290 9982
9290 9983
9290 9984
9290 9985
9290 9986
9291 9980
9291 9982
9291 9983
9291 9984
9291 9985
9291 9986
9292 9293
9292 9294
9292 9295
9293 9294
9293 9295
9294 9295
9296 9929
9296 9297
9296 9931
9296 9932
9297 9929
9297 9931
9297 9932
9299 9519
9299 9520
9299 9521
9299 9300
9299 9303
9300 9301
9300 9302
9300 9303
9302 9303
9303 9304
9303 9305
9304 9305
9307 9308
9307 9309
9308 9309
9310 9311
9310 9312
9310 9313
9310 9314
9310 9315
9310 9316
9310 9317
9311 9312
9311 9313
9311 9314
9311 9315
9311 9803
9311 9804
9311 9805
9311 9806
9311 9807
9311 9808
9311 9809
9311 9810
9311 9316
9311 9811
9311 9812
9311 9317
9311 9813
9311 9814
9312 9313
9312 9314
9312 9315
9312 9803
9312 9804
9312 9806
9312 9807
9312 9809
9312 9810
9312 9316
9312 9811
9312 9812
9312 9317
9312 9814
9313 9314
9313 9315
9314 9315
9314 9807
9314 9810
9314 9316
9314 9317
9314 9814
9315 9803
9315 9804
9315 9807
9315 9808
9315 9809
9315 9316
9315 9317
9315 9814
9316 9803
9316 9804
9316 9807
9316 9808
9316 9809
9316 9810
9316 9811
9316 9812
9316 9317
9319 9320
9319 9321
9320 9321
9322 9323
9322 9324
9322 9325
9322 9326
9322 9327
9322 9328
9322 9329
9322 9330
9322 9331
9322 9332
9322 9333
9322 9334
9322 9335
9323 9324
9323 9325
9323 9326
9323 9327
9323 9328
9323 9329
9323 9330
9323 9331
9324 11112
9324 11113
9324 11114
9324 9325
9324 9326
9324 9327
9324 9328
9324 9329
9324 9330
9324 9331
9325 9326
9325 9327
9325 9328
9325 9329
9325 9330
9325 9331
9325 9332
9326 9327
9326 9328
9326 9329
9326 9330
9326 9331
9327 9328
9327 9329
9327 9330
9327 9331
9327 9333
9327 9334
9327 9335
9328 9329
9328 9330
9328 9331
9329 9330
9329 9331
9329 9332
9330 9331
9331 9332
9331 9333
9331 9334
9331 9335
9333 9334
9333 9335
9334 9335
9336 9337
9336 9338
9336 9339
9337 9338
9337 9339
9338 9339
9340 9341
9340 9342
9341 9342
9346 9347
9346 9348
9346 9349
9346 9350
9346 9351
9346 9352
9346 9353
9347 9348
9347 9349
9347 9350
9347 9354
9347 9355
9347 9351
9347 9352
9347 9353
9347 9356
9348 9349
9348 9350
9348 9351
9348 9352
9349 9350
9349 9351
9349 9352
9350 9351
9350 9352
9351 9354
9351 9355
9351 9352
9351 9353
9351 9430
9351 9356
9352 9430
9353 9354
9356 9430
9357 9358
9357 9359
9357 9360
9358 9359
9358 9360
9359 9360
9361 9362
9361 9363
9362 9363
9364 9365
9364 9366
9365 9366
9367 9368
9367 9369
9367 9370
9367 9371
9367 9372
9367 9373
9367 9374
9368 9754
9368 9369
9368 9370
9368 9755
9368 9756
9368 9757
9368 9372
9369 9370
9369 9756
9369 9372
9369 9373
9369 9374
9370 9754
9370 9755
9370 9756
9370 9372
9372 9756
9373 9374
9375 9965
9375 9966
9375 9401
9376 9377
9376 9378
9376 9379
9376 9380
9377 10469
9377 9378
9377 10470
9377 9379
9377 9380
9377 10471
9377 10472
9378 10469
9378 9379
9378 9380
9379 9380
9381 9382
9383 9384
9383 9385
9383 9386
9383 9387
9383 9388
9383 9389
9383 9390
9384 9385
9384 9386
9384 9387
9384 9388
9384 9389
9384 9390
9385 9386
9385 9387
9385 9388
9385 9389
9385 9390
9386 10656
9386 9387
9386 9388
9386 9389
9386 9390
9387 10656
9387 9388
9387 9389
9387 9390
9388 9389
9388 9390
9389 10656
9389 9390
9390 10656
9391 9392
9391 9393
9391 9394
9391 9395
9391 9396
9392 9393
9392 9394
9392 9395
9392 9396
9393 9394
9393 9395
9393 9396
9394 11425
9394 11426
9394 9395
9394 9396
9395 9396
9397 9398
9397 9399
9397 9400
9398 9399
9398 9400
9399 9400
9401 9964
9401 9965
9401 9966
9401 9967
9401 10889
9401 10743
9402 9403
9402 9404
9402 9405
9402 9406
9402 9407
9402 9408
9403 9404
9403 9405
9403 9408
9404 9405
9404 9408
9405 9408
9406 9407
9409 9410
9409 9411
9409 9412
9409 9413
9410 9411
9410 9412
9410 9413
9411 9412
9411 9413
9412 9413
9414 9415
9414 9416
9414 9417
9414 9418
9415 9416
9415 9417
9415 9418
9416 9417
9420 9421
9423 9424
9424 11032
9425 9426
9425 9427
9425 9428
9425 9429
9426 9427
9426 9428
9426 9429
9427 9428
9427 9429
9428 9429
9431 9432
9431 9433
9431 9434
9431 9435
9431 9436
9431 9437
9432 9433
9432 9434
9432 9435
9432 9436
9432 9437
9433 9434
9433 9435
9433 9436
9433 9437
9434 9435
9434 9436
9434 9437
9435 9436
9435 9437
9436 9437
9438 9439
9438 9440
9438 9441
9438 9442
9438 9443
9438 9444
9438 9445
9438 9446
9438 9447
9438 9448
9438 9449
9438 9450
9438 9451
9439 9441
9439 9442
9439 9443
9439 9444
9439 9445
9439 9447
9440 9446
9441 9442
9441 9443
9441 9444
9441 9445
9441 9447
9441 9448
9441 9449
9441 9450
9441 9451
9442 9443
9442 9444
9442 9445
9442 9447
9443 9444
9443 9445
9443 9447
9444 9445
9444 9447
9445 9447
9448 9449
9448 9450
9448 9451
9449 9450
9449 9451
9450 9451
9452 9453
9452 9454
9452 9455
9452 9456
9453 9454
9453 9586
9453 9455
9453 9456
9454 9587
9455 9586
9457 9458
9457 9459
9457 9460
9457 9461
9457 9462
9457 9463
9457 9464
9457 9465
9457 9466
9457 9467
9457 9468
9457 9469
9457 9470
9457 9471
9457 9472
9457 9473
9458 9459
9458 9460
9458 9461
9458 9469
9458 9470
9458 9472
9458 9473
9459 9460
9459 9461
9459 9469
9459 9470
9459 9472
9459 9473
9460 9461
9460 9462
9460 9463
9460 9464
9460 9465
9460 9466
9460 9467
9460 9468
9460 9469
9460 9470
9460 9471
9460 9472
9460 9473
9461 9462
9461 9463
9461 9464
9461 9465
9461 9466
9461 9467
9461 9468
9461 9469
9461 9470
9461 9471
9461 9472
9461 9473
9462 9463
9462 9464
9462 9465
9462 9466
9462 9467
9462 9468
9462 9469
9462 9470
9462 9471
9463 9464
9463 9465
9463 9466
9463 9467
9463 9468
9463 9469
9463 9470
9463 9471
9464 9465
9464 9466
9464 9467
9464 9468
9464 9469
9464 9470
9464 9471
9465 9466
9465 9467
9465 9468
9465 9469
9465 9470
9465 9471
9466 9467
9466 9468
9466 9469
9466 9470
9466 9471
9467 9468
9467 9469
9467 9470
9467 9471
9468 9469
9468 9470
9468 9471
9469 9470
9469 9471
9469 9472
9469 9473
9470 9471
9470 9472
9470 9473
9472 9473
9474 9475
9475 9476
9476 9477
9478 9479
9478 9480
9478 9481
9478 9482
9478 9483
9479 9522
9479 10445
9479 9480
9479 9524
9479 10926
9479 9481
9479 10927
9479 10928
9479 10929
9479 9482
9479 10930
9479 9483
9480 9524
9480 9525
9480 9481
9480 9482
9480 9483
9481 9482
9481 9483
9482 10445
9482 9483
9484 9485
9484 9486
9484 9487
9484 9488
9484 9489
9485 9486
9485 9487
9485 9488
9485 9489
9486 9487
9486 9488
9486 9489
9487 9488
9487 9489
9488 9489
9490 9491
9490 9492
9490 9493
9490 9494
9491 9492
9491 9493
9491 9494
9492 9493
9492 9494
9493 9494
9495 9496
9495 9497
9495 9498
9495 9499
9495 9500
9496 9497
9496 9498
9496 9499
9496 9500
9497 9498
9497 9499
9497 9500
9498 9499
9498 9500
9499 9500
9501 9502
9503 9504
9503 9505
9503 9506
9504 9506
9507 9954
9507 9955
9507 9956
9507 9957
9507 9958
9507 9959
9507 9960
9507 9961
9507 9962
9507 9963
9508 9509
9508 9510
9508 9511
9508 9512
9509 9510
9509 9511
9509 9512
9510 9511
9510 9512
9511 9512
9513 9864
9513 9514
9513 9515
9514 9864
9514 9515
9516 9752
9516 9753
9517 9518
9519 9520
9519 9521
9520 9521
9522 9523
9522 9524
9522 9525
9522 9526
9522 9527
9522 9528
9523 9524
9523 9525
9524 9525
9524 11552
9524 9527
9524 9528
9525 11552
9526 9527
9526 9528
9527 11552
9527 9528
9528 11552
9530 9531
9530 9532
9530 9533
9531 9532
9531 9533
9532 9533
9532 11807
9532 11808
9532 11809
9532 11810
9533 11807
9533 11808
9533 11809
9533 11810
9534 9535
9534 9536
9535 9536
9537 9538
9537 9539
9538 9540
9538 9539
9539 9540
9540 9543
9541 9993
9541 9994
9541 9995
9541 9996
9541 9542
9541 9997
9541 9998
9541 9999
9544 9545
9544 9546
9544 9547
9544 9548
9544 9549
9545 9547
9545 9548
9545 9549
9546 9920
9546 9933
9546 9548
9546 9934
9546 9935
9547 9548
9547 9549
9548 9549
9550 10591
9550 9551
9550 9552
9550 9553
9550 10592
9551 9552
9551 9553
9552 9553
9554 9555
9554 9556
9554 9557
9555 9556
9555 9557
9556 9557
9559 10830
9559 9560
9559 10831
9559 10511
9559 11700
9559 11701
9559 11702
9559 11703
9561 9562
9566 9567
9566 9568
9567 9568
9569 9570
9569 9571
9569 9572
9569 9573
9569 9574
9569 9575
9569 9576
9569 9577
9570 9571
9570 9572
9570 9573
9570 9574
9570 9575
9570 9576
9570 9577
9571 9572
9571 9573
9571 9574
9571 9575
9571 9576
9571 9577
9572 9573
9572 9574
9572 9575
9572 9576
9572 9577
9573 9574
9573 9575
9573 9576
9573 9577
9574 9575
9574 9576
9574 9577
9575 9576
9575 9577
9576 9577
9578 9579
9578 9580
9578 9581
9578 9582
9578 9583
9578 9584
9578 9585
9579 10874
9579 10875
9579 10876
9579 10877
9579 10878
9579 10879
9579 10880
9579 10881
9579 10882
9579 10883
9579 10884
9579 10885
9579 10886
9580 9581
9580 9582
9580 9583
9580 9584
9580 9585
9581 9582
9581 9583
9581 9584
9581 9585
9582 9583
9582 9584
9582 9585
9583 9584
9583 9585
9584 9585
9586 9740
9586 9741
9586 9742
9586 9743
9586 9744
9586 9745
9589 9590
9589 9591
9590 9591
9597 9598
9598 9668
9598 9669
9602 9603
9605 9606
9605 9607
9605 9608
9605 9609
9605 9610
9605 9611
9605 9612
9605 9613
9605 9614
9605 9615
9605 9616
9606 9613
9606 9614
9606 9615
9607 9608
9607 9609
9607 9610
9607 9611
9607 9612
9607 9616
9608 9609
9608 9610
9608 9611
9608 9612
9608 9616
9609 9610
9609 9611
9609 9612
9609 9616
9610 9611
9610 9612
9610 9616
9611 9612
9611 9616
9612 9616
9613 9614
9613 9615
9614 9615
9617 9623
9617 9624
9617 9625
9617 9626
9619 9620
9619 9621
9619 9622
9620 9621
9620 9622
9621 9622
9623 9624
9623 9625
9623 9626
9624 9625
9624 9626
9625 9626
9627 9632
9628 9629
9628 9630
9628 9631
9629 9630
9629 9631
9630 9631
9632 9633
9632 9636
9633 9636
9634 9635
9638 9639
9638 9640
9638 9641
9639 9640
9639 9641
9640 9641
9642 9645
9643 9644
9643 9646
9643 9647
9644 9646
9644 9647
9646 9647
9648 9649
9648 9650
9648 9651
9648 9652
9648 9653
9648 9654
9648 9655
9648 9656
9648 9657
9649 10513
9649 9650
9649 9651
9649 9652
9649 9653
9649 9654
9649 9655
9649 9656
9649 9657
9650 10513
9650 9651
9650 9652
9650 9653
9650 9654
9650 9655
9650 9656
9650 9657
9651 10513
9651 9652
9651 9653
9651 9654
9651 9655
9651 9656
9651 9657
9652 10513
9652 9653
9652 9654
9652 9655
9652 9656
9652 9657
9653 10513
9653 9654
9653 9655
9653 9656
9653 9657
9654 10513
9654 9655
9654 9656
9654 9657
9655 10513
9655 9656
9655 9657
9656 10513
9656 9657
9658 9660
9658 9661
9658 9662
9660 9661
9660 9662
9661 9662
9663 9664
9663 9665
9663 9666
9663 9667
9664 9665
9664 9666
9664 9667
9665 9666
9665 9667
9666 9667
9668 9669
9670 9671
9670 9672
9670 9673
9670 9674
9671 9672
9671 9673
9671 9674
9672 9673
9672 9674
9673 9674
9675 9676
9677 9678
9677 9679
9677 9680
9677 9681
9677 9682
9677 9683
9677 9684
9678 9679
9678 9680
9678 9681
9678 9682
9678 9683
9678 9684
9679 9680
9679 9681
9679 9682
9679 9683
9679 9684
9680 9681
9680 9682
9680 9683
9680 9684
9681 9682
9681 9683
9681 9684
9682 9683
9682 9684
9683 9684
9686 11647
9686 11648
9686 11649
9686 11650
9686 11651
9686 11652
9686 11653
9686 9687
9686 9688
9686 9689
9686 9690
9687 9688
9687 9689
9687 9690
9688 9689
9688 9690
9689 9690
9691 9692
9691 9693
9692 9693
9694 9695
9696 9697
9696 9698
9696 9699
9696 9700
9696 9701
9696 9702
9697 10464
9697 9698
9697 9699
9697 9700
9698 9699
9698 9700
9699 9700
9699 9701
9699 9702
9700 9701
9700 9702
9701 9702
9703 9704
9703 9705
9704 9705
9706 9707
9706 9708
9707 9708
9709 9710
9709 9711
9709 9712
9709 9713
9710 9711
9710 9712
9710 9713
9711 11006
9711 9712
9711 9713
9711 11982
9711 11007
9712 11006
9712 11955
9712 11956
9712 11980
9712 11981
9712 9713
9712 11982
9712 11957
9712 11007
9713 11982
9713 11007
9714 9715
9714 9716
9714 9717
9714 9718
9715 9716
9715 9717
9715 9718
9716 10243
9716 9717
9716 9718
9717 9718
9718 10243
9719 9720
9719 9721
9719 9722
9719 9723
9720 9721
9720 9722
9720 9723
9721 9722
9721 9723
9722 9723
9724 9725
9724 9726
9724 9727
9724 9728
9725 9726
9725 9727
9725 9728
9726 9727
9726 9728
9727 9728
9729 9730
9729 9731
9729 9732
9730 9894
9730 9895
9730 9731
9730 11092
9730 9896
9730 11119
9730 9732
9730 11120
9731 11092
9731 9732
9733 9734
9733 9735
9733 9736
9733 9737
9733 9738
9734 9767
9734 9735
9734 9736
9734 9737
9734 9738
9735 9736
9735 9737
9735 9738
9736 9737
9736 9738
9737 9738
9740 9741
9740 9742
9740 9743
9740 9744
9740 9745
9741 9742
9741 9743
9741 9744
9741 9745
9742 9743
9742 9744
9742 9745
9743 9744
9743 9745
9744 9745
9746 9750
9746 9751
9747 9748
9747 9749
9748 9749
9750 9751
9752 9753
9754 10304
9754 10305
9754 10306
9754 10307
9754 9755
9754 9757
9758 9762
9759 9760
9759 9761
9759 9763
9760 9761
9760 9763
9761 9763
9764 9765
9764 9766
9765 9766
9765 11484
9767 10818
9767 10819
9769 9771
9769 9777
9769 9778
9770 9771
9770 9772
9770 9773
9770 9774
9771 9772
9771 9773
9771 9774
9771 9775
9771 9777
9771 9778
9771 9779
9772 9773
9772 9774
9772 9775
9772 9776
9773 9774
9775 9776
9775 9779
9777 9778
9780 9781
9780 9782
9780 9784
9781 9782
9781 9783
9781 9784
9781 9785
9781 9786
9782 9783
9782 9784
9782 9785
9782 9786
9783 9784
9783 9785
9783 9786
9784 9785
9784 9786
9785 9786
9787 9788
9787 9789
9787 9790
9787 9791
9787 9792
9787 9793
9787 9794
9787 9795
9787 9796
9787 9797
9787 9798
9788 10941
9788 9789
9788 9792
9788 9794
9788 9797
9788 9798
9789 10941
9789 9790
9789 9791
9789 9792
9789 9793
9789 9794
9789 9795
9789 9796
9789 9797
9789 9798
9790 9791
9790 9792
9790 9793
9790 9795
9790 9796
9791 9792
9791 9793
9791 9795
9791 9796
9792 9793
9792 9794
9792 9795
9792 9796
9792 9797
9792 9798
9793 9795
9793 9796
9794 10941
9794 9797
9794 9798
9795 9796
9797 9798
9799 9800
9799 9801
9799 9802
9800 11216
9800 11217
9800 9802
9803 9804
9803 9808
9803 9809
9804 9808
9804 9809
9805 9813
9808 9809
9809 9810
9809 9811
9809 9812
9810 9811
9810 9812
9811 9812
9815 9816
9818 9819
9818 9820
9818 9821
9818 9822
9819 9820
9819 9821
9819 9822
9820 9821
9820 9822
9821 9822
9823 9824
9825 9826
9825 9827
9825 9828
9826 9827
9826 9828
9827 9828
9829 9830
9829 9831
9829 9832
9829 9833
9830 10486
9830 9831
9830 9832
9830 10487
9830 10488
9830 9833
9830 10771
9830 10489
9830 10896
9831 9832
9831 9833
9832 9833
9833 10487
9833 10488
9833 10896
9834 10068
9834 10069
9835 9836
9835 9837
9835 9838
9835 9839
9835 9840
9835 9841
9836 9837
9836 9838
9836 9839
9836 9840
9836 9841
9837 9838
9837 9839
9837 9840
9837 9841
9838 9839
9838 9840
9838 9841
9839 9840
9839 9841
9840 9841
9842 9843
9842 9844
9842 9845
9842 9846
9842 9847
9842 9848
9842 9849
9842 9850
9842 9851
9842 9852
9842 9853
9842 9854
9842 9855
9842 9856
9843 9844
9843 9845
9843 9846
9843 9847
9843 9848
9843 9849
9843 9850
9843 9851
9843 9852
9843 9853
9843 9854
9843 9855
9843 9856
9844 9845
9844 9846
9844 9847
9844 9848
9844 9849
9844 9850
9844 9851
9844 9852
9844 9853
9844 9854
9844 9855
9844 9856
9845 9846
9845 9847
9845 9848
9845 9849
9845 9850
9845 9851
9845 9852
9845 9853
9845 9854
9845 9855
9845 9856
9846 9847
9846 9848
9846 9849
9846 9850
9846 9851
9846 9852
9846 9853
9846 9854
9846 9855
9846 9856
9847 9848
9847 9849
9847 9850
9847 9851
9847 9852
9847 9853
9847 9854
9847 9855
9847 9856
9848 9849
9848 9850
9848 9851
9848 9852
9848 9853
9848 9854
9848 9855
9848 9856
9849 9850
9849 9851
9849 9852
9849 9853
9849 9854
9849 9855
9849 9856
9850 9851
9850 9852
9850 9853
9850 9854
9850 9855
9850 9856
9851 9852
9851 9853
9851 9854
9851 9855
9851 9856
9852 9853
9852 9854
9852 9855
9852 9856
9853 9854
9853 9855
9853 9856
9854 9855
9854 9856
9855 9856
9857 9858
9857 9859
9857 9860
9858 9859
9858 9860
9859 9860
9860 9861
9860 9862
9860 9863
9861 9862
9861 9863
9862 9863
9864 10036
9864 10037
9865 9866
9865 9867
9865 9868
9866 9867
9866 9868
9867 9868
9868 9869
9868 9870
9869 9870
9871 9872
9871 9873
9871 9874
9871 9875
9871 9876
9871 9877
9871 9878
9871 9879
9871 9880
9871 9881
9871 9882
9871 9883
9871 9884
9871 9885
9871 9886
9871 9887
9871 9888
9871 9889
9871 9890
9871 9891
9871 9892
9871 9893
9872 9873
9872 9874
9872 9875
9872 9876
9872 9877
9872 9878
9872 9879
9872 9880
9872 9881
9872 9882
9872 9883
9872 9884
9872 9885
9872 9886
9872 9887
9872 9888
9872 9889
9872 9890
9872 9891
9872 9892
9872 9893
9873 9874
9873 9875
9873 9876
9873 9877
9873 9878
9873 9879
9873 9880
9873 9881
9873 9882
9873 9883
9873 9884
9873 9885
9873 9886
9873 9887
9873 9888
9873 9889
9873 9890
9873 9891
9873 9892
9873 9893
9874 9875
9874 9876
9874 9877
9874 9878
9874 9879
9874 9880
9874 9881
9874 9882
9874 9883
9874 9884
9874 9885
9874 9886
9874 9887
9874 9888
9874 9889
9874 9890
9874 9891
9874 9892
9874 9893
9875 9876
9875 9877
9875 9878
9875 9879
9875 9880
9875 9881
9875 9882
9875 9883
9875 9884
9875 9885
9875 9886
9875 9887
9875 9888
9875 9889
9875 9890
9875 9891
9875 9892
9875 9893
9876 9877
9876 9878
9876 9879
9876 9880
9876 9881
9876 9882
9876 9883
9876 9884
9876 9885
9876 9886
9876 9887
9876 9888
9876 9889
9876 9890
9876 9891
9876 9892
9876 9893
9877 9878
9877 9879
9877 9880
9877 9881
9877 9882
9877 9883
9877 9884
9877 9885
9877 9886
9877 9887
9877 9888
9877 9889
9877 9890
9878 9879
9878 9880
9878 9881
9878 9882
9878 9883
9878 9884
9878 9885
9878 9886
9878 9887
9878 9888
9878 9889
9878 9890
9879 9880
9879 9881
9879 9882
9879 9883
9879 9884
9879 9885
9879 9886
9879 9887
9879 9888
9879 9889
9879 9890
9880 9881
9880 9882
9880 9883
9880 9884
9880 9885
9880 9886
9880 9887
9880 9888
9880 9889
9880 9890
9881 9882
9881 9883
9881 9884
9881 9885
9881 9886
9881 9887
9881 9888
9881 9889
9881 9890
9882 9883
9882 9884
9882 9885
9882 9886
9882 9887
9882 9888
9882 9889
9882 9890
9883 9884
9883 9885
9883 9886
9883 9887
9883 9888
9883 9889
9883 9890
9883 9891
9883 9892
9883 9893
9884 9885
9884 9886
9884 9887
9884 9888
9884 9889
9884 9890
9885 9886
9885 9887
9885 9888
9885 9889
9885 9890
9886 9887
9886 9888
9886 9889
9886 9890
9887 9888
9887 9889
9887 9890
9888 9889
9888 9890
9889 9890
9889 9891
9889 9892
9889 9893
9891 9892
9891 9893
9892 9893
9894 9895
9894 11092
9894 9896
9894 11119
9895 10996
9895 10997
9895 10998
9895 9896
9895 10999
9895 11000
9897 10579
9897 9898
9899 9900
9899 9901
9900 9901
9902 9903
9902 9904
9902 9905
9903 9904
9903 9905
9904 9905
9906 9907
9906 9908
9906 9909
9906 9910
9906 9911
9906 9912
9906 9913
9906 9914
9906 9915
9906 9916
9906 9917
9906 9918
9907 9908
9907 9909
9907 9913
9907 9914
9907 9915
9907 9916
9907 9917
9907 9918
9908 9909
9908 9910
9908 9911
9908 9912
9908 9913
9908 9914
9908 9915
9908 9916
9908 9917
9908 9918
9909 9913
9909 9914
9909 9915
9909 9916
9909 9917
9909 9918
9910 9911
9910 9912
9911 9912
9913 9914
9913 9915
9913 9916
9913 9917
9913 9918
9914 9915
9914 9916
9914 9917
9914 9918
9915 9916
9915 9917
9915 9918
9916 9917
9916 9918
9917 9918
9919 9920
9919 9921
9919 9922
9919 9923
9921 9922
9921 9923
9922 9923
9924 9925
9924 9926
9924 9927
9924 9928
9925 11001
9925 9926
9925 11002
9925 11003
9925 11004
9926 11002
9927 9928
9928 11001
9928 11004
9928 11883
9928 11609
9929 9931
9929 9932
9931 9932
9933 9934
9933 9935
9934 9935
9937 9938
9937 9939
9937 9940
9937 9941
9937 9942
9937 9943
9937 9944
9937 9945
9938 9939
9938 9940
9938 9941
9938 9942
9938 9943
9938 9944
9938 9945
9939 9940
9939 9941
9939 9942
9939 9943
9939 9944
9939 9945
9940 9941
9940 9942
9940 9943
9940 9944
9940 9945
9941 9942
9941 9943
9941 9944
9941 9945
9942 9943
9942 9944
9942 9945
9943 9944
9943 9945
9944 9945
9946 9947
9948 10780
9948 10781
9948 10812
9948 10813
9948 10814
9948 10815
9948 10816
9948 10817
9948 9949
9950 9951
9950 9952
9950 9953
9951 9952
9951 9953
9952 9953
9954 9955
9954 9956
9954 9957
9954 9958
9954 9959
9954 9960
9954 9961
9954 9962
9954 9963
9955 9956
9955 9957
9955 9958
9955 9959
9955 9960
9955 9961
9955 9962
9955 9963
9956 9957
9956 9958
9956 9959
9956 9960
9956 9961
9956 9962
9956 9963
9957 9958
9957 9961
9957 9962
9958 9959
9958 9960
9958 9961
9958 9962
9958 9963
9959 9960
9959 9961
9959 9962
9959 9963
9960 9961
9960 9962
9960 9963
9961 9962
9961 9963
9962 9963
9964 9965
9964 9966
9964 9967
9965 9966
9965 9968
9965 9969
9965 9970
9965 9967
9966 9969
9966 9967
9966 10742
9966 10743
9966 10744
9968 9970
9969 10431
9969 10432
9969 10433
9970 10239
9971 9972
9971 9973
9972 9973
9974 9975
9974 9976
9974 9977
9974 9978
9974 9979
9975 11707
9975 9976
9976 9977
9976 9978
9976 11860
9976 11861
9976 11862
9976 11863
9976 9979
9977 9978
9977 9979
9978 9979
9980 9982
9980 9983
9980 9984
9980 9985
9980 9986
9981 11465
9981 11466
9982 9983
9982 9984
9982 9985
9982 9986
9983 9984
9983 9985
9983 9986
9984 9985
9984 9986
9985 9986
9987 9988
9987 9989
9987 9990
9988 9989
9988 9990
9989 9990
9991 9992
9993 9994
9993 9995
9993 9996
9993 9997
9993 9998
9993 9999
9994 9995
9994 9996
9994 9997
9994 9998
9994 11544
9994 9999
9995 9996
9995 9997
9995 9998
9995 9999
9996 9997
9996 9998
9996 9999
9997 9998
9997 9999
9998 9999
10000 10001
10000 10002
10000 10003
10000 10004
10001 10002
10001 10003
10001 10004
10002 10003
10002 10004
10003 10004
10005 10006
10005 10007
10005 10008
10006 10007
10006 10008
10007 10008
10009 10010
10009 10011
10009 10012
10009 10013
10009 10014
10011 10012
10015 10016
10015 10017
10015 10018
10015 10019
10015 10020
10015 10021
10015 10022
10016 10017
10016 10018
10016 10019
10016 10020
10016 10021
10016 10022
10016 10844
10017 10018
10017 10019
10017 10020
10017 10021
10017 10022
10018 10019
10018 10020
10018 10021
10018 10022
10018 10844
10019 10020
10019 10021
10019 10022
10020 10021
10020 10022
10021 10022
10023 10024
10023 10025
10023 10026
10023 10027
10023 10028
10024 10025
10024 10026
10024 10027
10024 10028
10025 10026
10025 10027
10025 10028
10026 10027
10026 10028
10027 10028
10029 10030
10029 10031
10029 10032
10029 10033
10029 10034
10030 10031
10030 10032
10030 10033
10030 10034
10031 10032
10031 10033
10031 10034
10032 10033
10032 10034
10033 10034
10034 10775
10034 10776
10034 10777
10034 10778
10034 10779
10035 10334
10035 10335
10035 10336
10036 10037
10038 10039
10041 10042
10041 10043
10041 10044
10041 10045
10041 10046
10042 10043
10042 10044
10042 10045
10042 10046
10043 10044
10043 10045
10043 10046
10044 10045
10044 10046
10045 10046
10047 10048
10047 10049
10048 10049
10050 10051
10050 10052
10050 10053
10050 10054
10050 10055
10050 10056
10050 10057
10050 10058
10050 10059
10050 10060
10050 10061
10050 10062
10050 10063
10050 10064
10051 10183
10051 10184
10051 10052
10051 10053
10051 10185
10051 10186
10051 10187
10051 10188
10051 10189
10051 10064
10052 10053
10052 10064
10053 10064
10054 10055
10054 10056
10054 10057
10055 10056
10055 10057
10056 10057
10058 10059
10058 10062
10058 10063
10059 10062
10059 10063
10060 10061
10060 10063
10061 10063
10062 10063
10065 10066
10068 10159
10068 10160
10068 10161
10068 10162
10068 10163
10068 10164
10070 10071
10070 10072
10070 10073
10071 10072
10071 10073
10072 10073
10074 10075
10074 10076
10074 10077
10074 10078
10074 10079
10074 10080
10074 10081
10074 10082
10074 10083
10075 10076
10075 10077
10075 10078
10075 10079
10075 10080
10075 10081
10075 10082
10075 10083
10076 10077
10076 11203
10076 10078
10076 10079
10076 10080
10076 10081
10076 10082
10076 10083
10077 10078
10077 10079
10077 10080
10077 10081
10077 10082
10077 10083
10078 10079
10078 10080
10078 10081
10078 10082
10078 10083
10079 10080
10079 10081
10079 10082
10079 10083
10080 10081
10080 10082
10080 10083
10081 10082
10081 10083
10082 10083
10084 10085
10084 10086
10084 10087
10084 10088
10084 10089
10085 10086
10085 10087
10085 10088
10085 10089
10086 10087
10086 10088
10086 10089
10087 10088
10087 10089
10088 10089
10090 10091
10090 10092
10090 10093
10090 10094
10090 10095
10090 10096
10091 10092
10091 10093
10091 10094
10091 10095
10091 10096
10092 10093
10092 10094
10092 10095
10092 10096
10093 10094
10093 10095
10093 10096
10094 10095
10094 10096
10095 10096
10098 10099
10098 10100
10098 10101
10099 10552
10099 10553
10099 10554
10100 10101
10103 11093
10103 11094
10103 11095
10103 11096
10103 11097
10103 11098
10103 11099
10103 11100
10103 11101
10103 10104
10105 10106
10105 10107
10105 10108
10105 10109
10105 10110
10106 10107
10106 10108
10106 10109
10106 10110
10107 10108
10107 10109
10107 10110
10108 10109
10108 10110
10109 10110
10112 10113
10112 10114
10112 10115
10113 11313
10113 10114
10113 10115
10113 11841
10113 11842
10114 10115
10116 10249
10116 10117
10116 10118
10116 10119
10116 10120
10116 10121
10116 10272
10117 10118
10117 10119
10117 10120
10117 10121
10117 10272
10118 10119
10118 10120
10118 10121
10118 10272
10119 10120
10119 10121
10119 10272
10120 10121
10120 10272
10121 10272
10122 10172
10122 10173
10123 10125
10124 11438
10124 10125
10125 11438
10126 11663
10126 11665
10127 10128
10127 10129
10128 10703
10128 10129
10128 10708
10128 10709
10128 10710
10128 10711
10128 10712
10128 10713
10128 10714
10131 10138
10131 10139
10131 10140
10131 10141
10131 10142
10131 10132
10132 10138
10132 10142
10133 10134
10133 10135
10133 10136
10133 10137
10134 10135
10134 10136
10134 10137
10135 10136
10135 10137
10136 10137
10138 10142
10139 10140
10139 10141
10140 10141
10143 10144
10143 10145
10143 10146
10143 10147
10143 10148
10144 10145
10144 10146
10144 10147
10144 10148
10145 10146
10145 10147
10145 10148
10146 10147
10146 10148
10147 10148
10149 10150
10149 10151
10149 10152
10150 10151
10150 10152
10151 10152
10153 10514
10153 10515
10154 10155
10154 10156
10154 10157
10154 10158
10155 10156
10155 10157
10155 10158
10156 10157
10156 10158
10157 10158
10159 10160
10159 10161
10159 10162
10159 10163
10159 10164
10160 10161
10160 10162
10160 10163
10160 10164
10161 10162
10161 10163
10161 10164
10162 10163
10162 10164
10163 10164
10166 10167
10166 10168
10166 10169
10167 10291
10167 10292
10167 10168
10167 10440
10167 10169
10168 10169
10169 10292
10170 10171
10172 10173
10174 10175
10176 10177
10178 10804
10178 10805
10178 10179
10178 10806
10178 10182
10179 10805
10179 10180
10179 10181
10180 10181
10183 10184
10183 10186
10183 10187
10183 10188
10183 10189
10184 11781
10184 11782
10184 11783
10184 11784
10184 10186
10184 10187
10184 10188
10184 10189
10186 10187
10186 10188
10186 10189
10187 10188
10187 10189
10188 10189
10190 10191
10190 10192
10190 10193
10190 10194
10190 10195
10190 10196
10190 10197
10190 10198
10190 10199
10191 10192
10191 10193
10191 10195
10191 10196
10191 10197
10191 10198
10191 10199
10192 10193
10194 10823
10194 10824
10194 10825
10194 10195
10195 10823
10195 10824
10195 10825
10196 10197
10198 10199
10201 10202
10201 10203
10201 10204
10202 10203
10202 10204
10203 10204
10207 10208
10207 10209
10207 10210
10207 10211
10208 10209
10208 10210
10209 10962
10209 10963
10209 11824
10209 10210
10209 10211
10211 11824
10212 10213
10214 10215
10214 10216
10217 10218
10217 10219
10217 10220
10217 10221
10217 10222
10217 10223
10218 10219
10218 10220
10218 10221
10218 10222
10218 10223
10219 10220
10219 10221
10219 10222
10219 10223
10220 10221
10220 10222
10220 10223
10221 10222
10221 10223
10222 10223
10224 10225
10225 11121
10225 11122
10225 11123
10225 11124
10225 11125
10227 10228
10227 10229
10227 10230
10228 10231
10228 10229
10228 10230
10228 10232
10228 10233
10228 10234
10228 10235
10228 10236
10228 10237
10228 10238
10229 10230
10231 10232
10231 10233
10231 10234
10231 10235
10231 10236
10231 10237
10231 10238
10232 10233
10232 10234
10232 10235
10232 10236
10232 10237
10232 10238
10233 10234
10233 10235
10233 10236
10233 10237
10233 10238
10234 10235
10234 10236
10234 10237
10234 10238
10235 10236
10235 10237
10235 10238
10236 10237
10236 10238
10237 10238
10239 10240
10241 10242
10241 10243
10241 10244
10241 10245
10241 10246
10242 10243
10242 10244
10242 10245
10242 10246
10242 10247
10243 10244
10243 10245
10243 10246
10244 10245
10244 10246
10245 10246
10249 10250
10249 10251
10250 10251
10252 10253
10252 10254
10253 10254
10255 10256
10255 10257
10255 10258
10255 10259
10255 10260
10256 10260
10257 10584
10257 10258
10257 10259
10258 10259
10258 11037
10259 11037
10261 10262
10263 10264
10265 10266
10268 10269
10268 10270
10269 10270
10273 10274
10273 10275
10274 10275
10276 10277
10276 10278
10277 10278
10279 10280
10279 10281
10279 10282
10279 10283
10279 10284
10279 10285
10279 10286
10279 10287
10279 10288
10279 10289
10279 10290
10280 10281
10280 10282
10280 10286
10280 10288
10281 10282
10283 10284
10283 10285
10283 10286
10284 10285
10285 10286
10285 10287
10286 10287
10286 10288
10288 10289
10288 10290
10289 10290
10291 11694
10291 11695
10291 11696
10291 11697
10291 11698
10291 11699
10292 10440
10293 10294
10293 10295
10293 10296
10294 10295
10294 10296
10295 10296
10297 10387
10297 10391
10300 10301
10300 10302
10303 10304
10303 10305
10303 10306
10303 10307
10304 10305
10304 10306
10304 10307
10305 10306
10305 10307
10306 10307
10307 10654
10307 10655
10308 10309
10308 10310
10308 10311
10308 10312
10308 10313
10308 10314
10308 10315
10308 10316
10308 10317
10308 10318
10309 10310
10309 10311
10309 10316
10309 10317
10309 10318
10310 10311
10313 10314
10313 10315
10313 11709
10314 10315
10314 10316
10314 11709
10315 11709
10316 10317
10316 10318
10317 10318
10321 10322
10321 10323
10321 10324
10322 10832
10322 10833
10322 10834
10322 10323
10322 10324
10323 10832
10323 10833
10323 10834
10323 10324
10325 10326
10325 10327
10325 10328
10326 10327
10326 10328
10327 10328
10329 10331
10330 11549
10334 10336
10335 10380
10335 10381
10335 10382
10337 10338
10337 10339
10337 10340
10337 10341
10338 10587
10338 10588
10338 10589
10338 10590
10338 10339
10338 10340
10338 10341
10340 10855
10340 10341
10340 10858
10340 10859
10340 10860
10341 10855
10341 10858
10341 10859
10341 10860
10342 10343
10342 10344
10342 10345
10343 10344
10343 10345
10344 10345
10346 10347
10346 10348
10346 10349
10346 10350
10346 10351
10346 10352
10346 10353
10346 10354
10346 10355
10346 10356
10346 10357
10346 10358
10346 10359
10346 10360
10346 10361
10346 10362
10347 10348
10347 10351
10347 10352
10347 10353
10347 10354
10347 10355
10348 10349
10348 10350
10348 10351
10348 10352
10348 10353
10348 10354
10348 10355
10349 10350
10350 10351
10350 10360
10350 10361
10351 10352
10351 10353
10351 10354
10351 10355
10352 10353
10352 10354
10352 10355
10352 10356
10352 10357
10352 10358
10353 10354
10353 10355
10354 10355
10355 10356
10356 10357
10356 10358
10356 10360
10356 10362
10357 10358
10359 10360
10359 10361
10359 10362
10360 10361
10360 10362
10361 10362
10363 11417
10363 11418
10363 10580
10363 11419
10363 11420
10364 10365
10364 10366
10364 10367
10364 10368
10364 10369
10364 10370
10365 10366
10365 10367
10365 10368
10365 10369
10365 10370
10366 10367
10366 10368
10366 10369
10366 10370
10367 10368
10367 10369
10367 10370
10367 11389
10368 10369
10368 10370
10369 10370
10371 10372
10371 10373
10371 10374
10371 10375
10372 10373
10372 10374
10372 10375
10373 10374
10373 10375
10374 10375
10376 10377
10376 10378
10376 10379
10377 10378
10377 10379
10378 10379
10380 10381
10380 10382
10381 10382
10383 10384
10383 10385
10383 10386
10384 10385
10384 10386
10385 10386
10386 10407
10387 10808
10387 10809
10387 10390
10388 10389
10391 11416
10391 10392
10392 11416
10394 10395
10394 10396
10394 10397
10394 10398
10394 10399
10394 10400
10394 10401
10394 10402
10394 10403
10394 10404
10395 10396
10395 10397
10395 10398
10395 10399
10395 10400
10395 10401
10395 10402
10395 10404
10396 10397
10396 10398
10396 10399
10396 10400
10396 10401
10396 10402
10396 10403
10396 10404
10397 10398
10397 10399
10397 10400
10397 10401
10397 10402
10397 10403
10397 10404
10398 10399
10398 10400
10398 10401
10398 10402
10398 10403
10398 10404
10399 10400
10399 10401
10399 10402
10399 10403
10399 10404
10400 10401
10400 10402
10400 10403
10400 10404
10401 10402
10401 10404
10402 10403
10402 10404
10409 10410
10409 10411
10409 10412
10409 10413
10409 10414
10410 11766
10410 11767
10410 11768
10410 10411
10410 10412
10410 10413
10410 10414
10411 10412
10411 10413
10411 10414
10412 10413
10412 10414
10413 10414
10415 10416
10417 10418
10419 10420
10421 10422
10421 10423
10421 10850
10421 10424
10422 10423
10422 10850
10422 10424
10423 10850
10423 10424
10424 10850
10425 10426
10425 10427
10425 10428
10425 10429
10426 10427
10426 10428
10428 10429
10431 10432
10431 10433
10432 11175
10432 10433
10432 11176
10433 11175
10433 11176
10434 10439
10435 10436
10435 10437
10435 10438
10441 10442
10441 10443
10441 10444
10441 10445
10441 10446
10441 10447
10442 10444
10442 10461
10442 10462
10443 10444
10443 10445
10443 10446
10443 10447
10444 10445
10444 10446
10444 10447
10445 10446
10445 10447
10446 10447
10448 10449
10448 10450
10448 10451
10448 10452
10448 10453
10448 10454
10448 10455
10449 10450
10449 10456
10449 10451
10449 10452
10449 10453
10449 10454
10449 10455
10449 10457
10449 10458
10450 10451
10450 10453
10450 10454
10450 10455
10451 10452
10451 10454
10453 10454
10453 10455
10454 10455
10456 10458
10459 10537
10463 10464
10463 10465
10463 10466
10464 10465
10464 10922
10464 10923
10464 10924
10464 10466
10464 10925
10465 10922
10465 10966
10465 10923
10465 10924
10465 10466
10465 10967
10465 10925
10465 10968
10467 10468
10469 10470
10469 10471
10469 10472
10470 10471
10470 10472
10471 10472
10473 10474
10473 10477
10474 10475
10474 10476
10474 10477
10475 10476
10479 10480
10479 10481
10479 10482
10479 10483
10479 10484
10480 10482
10480 10483
10480 10484
10481 11210
10481 11211
10481 11212
10481 11213
10481 11214
10481 11215
10482 10483
10482 10484
10483 10484
10485 10486
10485 10487
10485 10488
10485 10489
10486 10487
10486 10488
10486 10771
10486 10489
10487 10488
10487 11500
10487 10489
10488 11500
10488 10489
10489 10771
10490 10491
10490 10492
10490 10493
10490 10494
10491 10492
10491 10493
10491 10494
10492 10493
10492 10494
10493 10494
10495 10497
10495 10499
10495 10500
10495 10501
10496 10499
10496 10502
10496 10503
10497 10498
10499 10502
10499 10503
10500 10501
10502 10503
10504 10505
10506 10509
10507 10508
10510 10511
10510 10512
10511 10512
10511 11701
10511 11702
10516 10517
10516 10518
10516 10519
10516 10520
10517 10518
10517 10519
10517 10520
10518 11129
10518 11132
10518 10519
10518 10520
10519 11128
10519 11129
10519 11130
10519 11131
10519 11132
10519 11133
10519 10520
10521 10522
10521 10523
10522 10523
10524 10525
10524 10526
10524 10527
10524 10528
10524 10529
10524 10530
10525 10526
10525 10921
10525 10527
10525 10529
10525 10530
10526 10921
10526 10527
10526 10528
10526 10529
10526 11358
10526 10530
10526 11359
10527 10921
10527 10528
10529 10530
10531 10533
10531 10534
10531 10535
10532 10533
10532 10534
10532 10535
10533 10534
10533 10535
10534 10535
10536 10557
10536 10559
10537 10538
10537 10539
10538 10539
10538 10540
10538 10542
10540 10542
10541 10555
10541 10561
10541 10562
10541 10563
10543 10544
10545 10546
10545 10547
10546 10547
10552 11545
10552 11546
10552 11547
10552 10553
10552 10554
10553 10554
10555 10561
10555 10562
10555 10563
10557 10559
10558 10561
10561 10562
10561 10563
10562 10563
10564 10565
10566 10567
10566 10568
10566 10569
10566 10570
10566 10571
10567 10568
10567 10569
10567 10570
10567 10571
10568 10569
10568 10570
10568 10571
10569 10570
10569 10571
10570 10571
10572 10573
10574 10575
10574 10576
10574 10577
10575 10576
10575 10577
10576 10577
10579 10686
10579 10687
10579 10688
10579 10689
10579 10690
10580 11417
10580 11418
10580 11419
10580 11420
10581 10582
10581 10583
10582 10583
10584 10585
10584 10586
10585 10586
10587 10588
10587 10589
10587 10590
10588 10589
10588 10590
10589 10590
10591 10592
10595 10596
10595 10597
10595 10598
10595 10599
10596 10600
10596 10597
10596 10598
10596 10599
10597 10598
10597 10599
10598 10599
10600 11159
10600 11160
10600 11161
10600 11162
10601 10602
10601 10603
10601 10604
10601 10605
10601 10606
10601 10607
10601 10608
10601 10609
10601 10610
10602 10603
10602 10604
10602 10605
10602 10606
10602 10607
10602 10608
10602 10609
10602 10610
10603 10608
10603 10610
10604 10605
10604 10606
10604 10609
10605 10606
10605 10609
10606 10609
10608 10610
10611 10612
10611 10613
10611 10614
10611 10615
10611 10616
10612 10613
10612 10614
10612 10615
10612 10616
10613 10614
10613 10615
10613 10616
10614 10615
10614 10616
10615 10616
10617 10618
10617 10619
10617 10620
10617 10621
10617 10622
10617 10623
10617 10624
10617 10625
10618 10619
10618 10620
10618 10621
10618 10622
10618 10623
10618 10624
10618 10625
10619 10620
10619 10621
10619 10622
10619 10623
10619 10624
10619 10625
10620 10621
10620 10622
10620 10623
10620 10624
10620 10625
10621 10622
10621 10623
10621 10624
10621 10625
10622 10623
10622 10624
10622 10625
10623 10624
10623 10625
10624 10625
10626 10627
10628 10796
10628 10629
10628 10630
10628 10797
10628 10798
10628 10631
10628 10632
10628 10799
10628 10800
10629 10796
10629 10630
10629 10797
10629 10798
10629 10631
10629 10632
10629 10799
10629 10800
10631 10632
10633 10634
10633 10638
10634 10635
10634 10636
10634 10638
10635 10636
10635 10638
10636 10638
10637 10638
10639 10640
10639 10641
10639 10642
10639 10643
10639 10644
10639 10645
10639 10646
10639 10647
10639 10648
10639 10649
10640 10641
10640 10642
10640 10643
10640 10644
10640 10645
10640 10646
10640 10647
10640 10648
10640 10649
10641 10642
10641 10643
10641 10644
10641 10645
10641 10646
10641 10647
10641 10648
10641 10649
10642 10643
10642 10644
10642 10645
10642 10646
10642 10647
10642 10648
10642 10649
10643 10644
10643 10645
10643 10646
10643 10647
10643 10648
10643 10649
10644 10645
10644 10646
10644 10647
10644 10648
10644 10649
10645 10646
10645 10647
10645 10648
10645 10649
10646 10647
10646 10648
10646 10649
10647 10648
10647 10649
10648 10649
10651 10652
10651 10653
10652 10653
10654 10657
10654 10658
10654 10659
10654 10655
10654 10660
10654 10661
10654 10662
10654 10663
10654 10664
10654 10665
10655 10657
10655 10658
10655 10659
10655 10660
10655 10661
10655 10662
10657 10658
10657 10659
10657 10660
10657 10661
10657 10662
10657 10663
10657 10664
10657 10665
10658 10659
10658 10660
10658 10661
10658 10662
10658 10663
10658 10665
10659 10660
10659 10661
10659 10662
10659 10663
10659 10665
10660 10661
10660 10662
10660 10663
10660 10665
10661 10662
10661 10663
10661 10664
10661 10665
10663 10665
10664 10855
10664 10856
10664 10857
10664 10858
10664 10859
10664 10942
10664 10943
10664 10944
10666 11555
10666 11556
10666 10667
10667 11555
10667 11556
10671 10672
10672 10975
10672 10976
10673 10674
10673 10675
10673 10676
10673 10677
10673 10678
10674 11134
10674 10675
10674 10676
10674 10677
10674 10678
10675 10676
10675 10677
10675 10678
10676 10677
10676 10678
10677 10678
10679 10680
10680 10681
10680 10682
10680 10683
10681 10682
10683 11875
10683 11876
10683 11877
10683 11878
10683 11879
10684 10685
10686 10687
10686 10688
10686 10689
10687 10688
10687 10689
10688 10689
10688 10690
10691 11283
10691 11284
10694 10695
10694 10696
10695 10696
10697 10698
10699 10700
10703 10704
10703 10705
10703 10706
10703 10707
10703 10708
10703 10709
10703 10710
10703 10711
10703 10712
10703 10713
10703 10714
10704 10705
10704 10707
10705 10707
10708 10709
10708 10710
10708 10711
10708 10712
10708 10713
10708 10714
10709 10710
10709 10711
10709 10712
10709 10713
10709 10714
10710 10711
10710 10712
10710 10713
10710 10714
10711 10712
10711 10713
10711 10714
10712 10713
10712 10714
10713 10714
10718 10719
10718 10937
10720 10721
10724 10725
10724 10726
10725 10726
10728 10729
10728 10730
10728 10731
10728 10732
10728 10733
10728 10734
10728 10735
10728 10736
10728 10737
10729 10730
10729 10731
10729 10732
10729 10733
10729 10734
10729 10735
10729 10736
10729 10737
10730 10731
10730 10732
10730 10733
10730 10734
10730 10735
10730 10736
10730 10737
10731 10732
10731 10733
10731 10734
10731 10735
10731 10736
10731 10737
10732 10733
10732 10734
10732 10735
10732 10736
10732 10737
10733 10734
10733 10735
10733 10736
10733 10737
10734 10735
10734 10736
10734 10737
10735 10736
10735 10737
10736 10737
10738 10739
10740 10741
10742 10744
10745 10746
10747 10748
10747 10749
10747 10750
10747 10751
10747 10752
10747 10753
10747 10754
10747 10755
10747 10756
10747 10757
10747 10758
10747 10759
10748 10749
10748 10750
10748 10751
10748 10752
10748 10753
10748 10754
10748 10755
10748 10756
10749 10750
10749 10751
10749 10752
10749 10753
10749 10754
10749 10755
10749 10756
10750 10751
10750 10752
10750 10753
10750 10754
10750 10755
10750 10756
10751 10752
10751 10753
10751 10754
10751 10755
10751 10756
10752 10753
10752 10754
10752 10755
10752 10756
10753 10754
10753 10755
10753 10756
10754 10755
10754 10756
10755 10756
10757 10758
10757 10759
10758 10759
10761 10762
10766 10767
10766 10768
10766 10769
10766 10770
10767 10768
10767 10769
10767 10770
10768 10769
10768 10770
10769 10770
10773 10774
10775 10776
10775 10777
10775 10778
10775 10779
10776 10777
10776 10778
10776 10779
10777 10778
10777 10779
10778 10779
10780 10781
10782 10783
10782 10784
10782 10785
10782 10786
10782 10787
10783 10784
10783 10785
10783 10786
10783 10787
10784 10785
10784 10786
10784 10787
10785 10786
10785 10787
10786 10787
10788 11206
10788 11207
10788 10789
10788 10790
10788 10791
10788 10792
10788 10793
10788 10794
10789 10790
10789 10791
10789 10792
10789 10793
10789 10794
10790 10791
10790 10792
10790 10793
10790 10794
10791 10792
10791 10793
10791 10794
10792 10793
10792 10794
10793 10794
10796 10797
10796 10798
10796 10799
10796 10800
10797 10798
10798 10799
10798 10800
10799 10800
10802 10803
10804 10805
10804 10806
10807 11141
10808 10809
10810 10811
10812 10816
10812 10817
10813 10814
10813 10815
10813 10816
10813 10817
10814 10815
10814 10816
10814 10817
10815 10816
10815 10817
10816 10817
10818 10819
10820 10821
10820 10822
10821 10822
10821 11655
10821 11656
10823 10824
10823 10825
10824 10825
10826 10827
10826 10828
10827 10828
10829 11461
10829 11462
10829 11320
10829 11463
10829 11464
10830 10831
10831 11700
10831 11703
10832 10833
10832 10834
10833 10834
10835 10836
10835 10837
10835 10838
10835 10839
10836 10837
10836 10838
10836 10839
10837 10838
10837 10839
10838 10839
10841 11134
10841 10842
10841 10843
10841 11135
10841 11136
10841 11137
10841 11138
10842 11134
10842 10843
10842 11135
10842 11136
10842 11137
10842 11138
10843 11134
10843 11135
10843 11136
10843 11137
10843 11138
10845 10846
10845 10847
10845 10848
10846 10847
10846 10848
10847 10848
10851 10852
10853 10854
10855 10856
10855 10857
10855 10858
10855 10859
10855 10860
10856 10857
10856 10858
10856 10859
10856 10931
10856 10932
10856 10933
10857 10858
10857 10859
10858 10859
10858 10860
10859 10860
10861 10862
10861 10863
10861 10864
10861 10865
10861 10866
10861 10867
10861 10868
10862 10863
10862 10864
10863 10864
10863 10865
10863 10866
10863 10867
10863 10868
10865 10866
10865 10867
10865 10868
10866 10867
10866 10868
10867 10868
10872 10873
10874 10875
10874 10876
10874 10877
10874 10878
10874 10879
10874 10880
10874 10881
10875 10876
10875 10877
10875 10878
10875 10879
10875 10880
10875 10881
10876 10877
10876 10878
10876 10879
10876 10880
10876 10881
10877 10878
10877 10879
10877 10880
10877 10881
10878 10879
10878 10880
10878 10881
10879 10880
10879 10881
10880 10881
10880 11926
10880 11927
10880 11928
10880 11929
10880 11896
10882 10883
10882 10884
10882 10885
10882 10886
10883 10884
10883 10885
10883 10886
10884 10885
10884 10886
10885 10886
10889 11706
10890 10891
10890 10892
10891 10892
10892 10893
10892 10894
10892 10895
10893 10894
10893 10895
10894 10895
10897 10898
10897 10899
10897 10900
10897 10901
10898 10899
10898 10900
10898 10901
10899 10900
10899 10901
10900 10901
10902 10903
10902 10904
10902 10905
10902 10906
10902 10907
10903 10904
10903 10905
10903 10906
10903 10907
10904 10905
10904 10906
10904 10907
10905 10906
10905 10907
10906 10907
10908 11681
10908 11682
10908 11683
10908 11684
10908 11685
10908 11686
10909 10910
10909 10911
10909 10912
10910 10911
10910 10912
10911 10912
10913 10914
10915 11976
10915 10916
10915 10917
10915 10918
10916 10917
10916 10918
10917 10918
10921 11358
10921 11359
10923 10925
10924 10966
10924 10967
10924 10968
10926 11821
10926 10927
10926 11822
10926 11823
10926 10928
10926 10929
10926 10930
10927 11821
10927 11822
10927 11823
10927 10928
10927 10929
10927 10930
10928 11821
10928 11822
10928 11823
10928 10929
10928 10930
10929 11821
10929 11822
10929 11823
10929 10930
10930 11821
10930 11822
10930 11823
10931 10932
10931 11897
10931 10933
10931 11898
10932 11897
10932 10933
10932 11898
10933 11897
10933 11898
10934 11611
10934 11612
10938 10939
10939 11632
10939 11633
10939 10940
10939 11634
10939 11635
10939 11636
10939 11637
10939 11638
10942 11851
10942 10943
10942 10944
10942 11852
10942 11853
10943 10944
10944 11997
10944 11998
10945 10946
10945 10947
10945 10948
10946 11017
10946 10947
10946 11021
10947 11017
10947 11705
10948 11023
10949 10950
10949 10951
10949 10952
10949 10953
10949 10954
10949 10955
10950 11577
10950 11578
10950 11579
10950 11580
10950 11581
10951 10952
10951 10953
10951 10954
10951 10955
10952 10953
10952 10954
10952 10955
10953 10954
10953 10955
10954 10955
10956 10957
10956 10958
10956 10959
10956 10960
10956 10961
10957 10958
10957 10959
10957 10960
10958 10959
10958 10960
10959 10960
10962 10963
10964 10965
10966 10967
10966 10968
10967 10968
10969 10970
10969 10971
10969 10972
10970 11311
10970 10971
10970 10972
10971 10972
10975 10976
10977 10979
10978 10980
10978 10981
10979 10982
10979 10983
10980 10981
10982 10983
10984 10985
10986 10987
10986 10988
10986 10989
10986 10990
10986 10991
10987 10988
10987 10989
10987 10990
10987 10991
10988 10989
10988 10990
10988 10991
10989 10990
10989 10991
10990 10991
10992 10993
10992 10994
10992 10995
10993 10994
10993 10995
10994 10995
10996 10997
10996 10998
10997 10998
10997 11000
10998 11000
11001 11605
11001 11003
11001 11004
11001 11606
11001 11607
11001 11608
11001 11609
11003 11605
11003 11004
11004 11605
11004 11606
11004 11883
11004 11607
11004 11608
11004 11609
11006 11007
11007 11982
11011 11012
11011 11013
11011 11014
11011 11015
11012 11013
11012 11014
11012 11015
11013 11014
11013 11015
11014 11015
11016 11017
11016 11018
11016 11337
11017 11018
11017 11337
11017 11338
11017 11339
11018 11337
11018 11339
11021 11022
11021 11023
11024 11025
11024 11026
11025 11662
11025 11026
11027 11028
11030 11031
11033 11034
11033 11035
11033 11036
11034 11035
11034 11036
11035 11054
11035 11057
11035 11058
11035 11036
11038 11039
11038 11040
11038 11041
11039 11040
11039 11041
11040 11041
11042 11043
11042 11045
11042 11048
11043 11049
11043 11044
11043 11045
11043 11050
11043 11051
11043 11048
11044 11045
11044 11046
11044 11047
11045 11048
11046 11047
11049 11050
11049 11051
11050 11051
11054 11055
11054 11056
11054 11057
11054 11058
11055 11056
11057 11058
11059 11060
11059 11061
11060 11061
11062 11063
11062 11064
11062 11065
11063 11064
11063 11065
11064 11065
11065 11964
11065 11965
11065 11966
11066 11067
11068 11069
11068 11070
11068 11071
11068 11072
11068 11073
11068 11074
11068 11075
11069 11070
11069 11071
11069 11072
11069 11073
11069 11074
11069 11075
11070 11071
11070 11072
11070 11073
11070 11074
11070 11075
11071 11072
11071 11073
11071 11074
11071 11075
11072 11073
11072 11074
11072 11075
11073 11074
11073 11075
11074 11075
11076 11077
11076 11078
11076 11079
11077 11078
11077 11079
11078 11079
11080 11081
11080 11082
11080 11083
11081 11082
11081 11083
11082 11083
11085 11086
11087 11088
11087 11089
11087 11090
11087 11091
11088 11089
11088 11090
11088 11091
11089 11090
11089 11091
11090 11091
11093 11094
11093 11095
11093 11096
11093 11097
11093 11098
11093 11099
11094 11095
11094 11096
11094 11097
11094 11098
11094 11099
11095 11096
11095 11097
11095 11098
11095 11099
11096 11097
11096 11098
11096 11099
11097 11098
11097 11099
11098 11099
11100 11101
11103 11104
11105 11106
11107 11271
11107 11272
11107 11273
11107 11274
11107 11275
11108 11173
11108 11174
11110 11111
11112 11113
11112 11114
11112 11115
11112 11116
11113 11114
11114 11115
11114 11116
11115 11116
11117 11118
11121 11122
11121 11123
11121 11124
11121 11125
11122 11123
11122 11124
11122 11125
11123 11124
11123 11125
11124 11125
11126 11910
11126 11911
11126 11127
11128 11129
11128 11130
11128 11131
11128 11132
11128 11133
11129 11130
11129 11131
11129 11132
11129 11133
11130 11131
11130 11132
11130 11133
11131 11132
11131 11133
11132 11133
11134 11135
11134 11136
11134 11137
11134 11138
11135 11136
11135 11137
11135 11138
11136 11137
11136 11138
11137 11138
11139 11140
11142 11143
11142 11144
11142 11145
11142 11146
11142 11147
11142 11148
11142 11149
11142 11150
11142 11151
11142 11152
11142 11153
11142 11154
11143 11144
11143 11147
11143 11148
11143 11149
11143 11150
11143 11151
11143 11152
11143 11153
11143 11154
11144 11147
11144 11148
11144 11149
11144 11150
11144 11151
11144 11152
11144 11153
11144 11154
11145 11146
11147 11148
11147 11149
11147 11150
11147 11151
11147 11152
11147 11153
11147 11154
11148 11149
11148 11150
11148 11151
11148 11152
11148 11153
11148 11154
11149 11150
11149 11151
11149 11152
11149 11153
11149 11154
11150 11151
11150 11152
11150 11153
11150 11154
11151 11152
11151 11153
11151 11154
11152 11153
11152 11154
11153 11154
11155 11156
11155 11157
11155 11158
11156 11362
11156 11157
11156 11363
11156 11364
11156 11158
11158 11362
11158 11363
11158 11364
11159 11160
11159 11161
11159 11162
11160 11161
11160 11162
11161 11162
11163 11164
11163 11165
11163 11166
11163 11167
11163 11168
11163 11169
11163 11170
11163 11171
11164 11165
11164 11166
11164 11167
11164 11168
11164 11169
11164 11170
11164 11171
11165 11166
11165 11167
11165 11168
11165 11169
11165 11170
11165 11171
11166 11167
11166 11168
11166 11169
11166 11170
11166 11171
11167 11168
11167 11169
11167 11170
11167 11171
11168 11169
11168 11170
11168 11171
11169 11170
11169 11171
11170 11171
11173 11174
11175 11176
11177 11178
11177 11179
11178 11179
11180 11181
11180 11182
11180 11183
11180 11184
11181 11182
11181 11183
11181 11184
11182 11183
11182 11184
11183 11184
11185 11186
11185 11187
11185 11188
11185 11189
11185 11190
11186 11189
11186 11190
11187 11188
11189 11190
11191 11192
11193 11194
11193 11195
11193 11196
11193 11197
11194 11195
11194 11196
11194 11197
11195 11196
11195 11197
11196 11281
11196 11950
11196 11197
11196 11282
11196 11951
11196 11952
11196 11953
11198 11199
11198 11200
11198 11201
11198 11202
11199 11200
11199 11201
11199 11202
11200 11201
11200 11202
11201 11202
11203 11392
11203 11393
11203 11394
11203 11395
11203 11396
11206 11207
11206 11208
11207 11208
11210 11211
11210 11212
11210 11215
11211 11212
11211 11215
11212 11213
11212 11214
11212 11215
11213 11214
11216 11217
11218 11219
11218 11220
11218 11439
11219 11220
11219 11439
11220 11439
11221 11222
11221 11223
11221 11224
11222 11223
11222 11224
11223 11224
11225 11226
11227 11228
11227 11229
11227 11230
11227 11231
11227 11232
11227 11233
11227 11234
11227 11235
11228 11229
11228 11230
11228 11231
11228 11232
11228 11233
11228 11234
11228 11235
11229 11230
11229 11231
11229 11232
11229 11233
11229 11234
11229 11235
11230 11231
11230 11232
11230 11233
11230 11234
11230 11235
11231 11232
11231 11233
11231 11234
11231 11235
11232 11233
11232 11234
11232 11235
11233 11234
11233 11235
11234 11235
11236 11237
11238 11239
11238 11240
11238 11241
11238 11242
11239 11240
11239 11241
11239 11242
11240 11241
11240 11242
11241 11242
11242 11243
11242 11244
11242 11245
11242 11246
11242 11247
11243 11244
11243 11245
11243 11246
11243 11247
11244 11245
11244 11246
11244 11247
11245 11246
11245 11247
11246 11247
11248 11249
11248 11250
11248 11251
11248 11252
11249 11250
11249 11251
11249 11252
11250 11251
11250 11252
11251 11252
11253 11254
11253 11255
11253 11256
11253 11257
11254 11255
11254 11256
11254 11257
11255 11256
11255 11257
11256 11257
11258 11259
11258 11260
11258 11261
11259 11260
11259 11261
11260 11261
11261 11977
11261 11978
11261 11979
11262 11263
11262 11264
11262 11265
11262 11266
11263 11264
11263 11265
11263 11266
11264 11265
11264 11266
11265 11266
11267 11269
11267 11270
11269 11270
11271 11431
11271 11432
11271 11433
11271 11434
11271 11272
11271 11273
11271 11274
11271 11275
11271 11435
11271 11436
11271 11437
11272 11273
11272 11274
11272 11275
11273 11274
11273 11275
11274 11275
11276 11277
11276 11278
11277 11278
11279 11280
11280 11291
11280 11292
11280 11293
11280 11294
11280 11295
11280 11296
11280 11297
11280 11298
11280 11299
11281 11282
11283 11284
11285 11286
11287 11288
11287 11289
11288 11289
11290 11456
11290 11457
11290 11458
11290 11459
11290 11460
11292 11293
11292 11294
11292 11295
11292 11296
11292 11297
11292 11298
11292 11299
11293 11294
11293 11295
11293 11296
11293 11297
11293 11298
11293 11299
11294 11295
11294 11296
11294 11297
11294 11298
11294 11299
11295 11296
11295 11297
11295 11298
11295 11299
11296 11297
11296 11298
11296 11299
11297 11298
11297 11299
11297 11421
11297 11422
11298 11299
11298 11421
11298 11422
11299 11421
11299 11422
11300 11301
11302 11303
11302 11304
11302 11305
11302 11306
11302 11307
11302 11308
11302 11309
11302 11310
11303 11304
11303 11305
11303 11306
11303 11307
11303 11308
11303 11309
11303 11310
11304 11305
11304 11306
11304 11307
11304 11308
11304 11309
11304 11310
11305 11306
11305 11307
11305 11308
11305 11309
11305 11310
11306 11307
11306 11308
11306 11309
11306 11310
11307 11308
11307 11309
11307 11310
11308 11309
11308 11310
11309 11310
11311 11312
11311 11313
11311 11314
11311 11315
11311 11316
11311 11317
11311 11318
11312 11313
11312 11314
11313 11314
11313 11839
11313 11840
11313 11841
11313 11842
11315 11316
11315 11317
11315 11318
11316 11317
11316 11318
11317 11318
11319 11320
11319 11321
11319 11322
11319 11323
11319 11324
11320 11461
11320 11462
11320 11463
11320 11464
11320 11321
11320 11322
11320 11323
11320 11324
11321 11322
11321 11323
11321 11324
11322 11323
11322 11324
11323 11324
11327 11328
11327 11329
11327 11331
11328 11329
11328 11331
11329 11331
11332 11333
11332 11334
11332 11335
11332 11336
11333 11334
11333 11335
11333 11336
11334 11335
11334 11336
11335 11336
11337 11339
11342 11345
11343 11344
11347 11348
11347 11349
11347 11350
11348 11349
11348 11350
11349 11350
11351 11353
11351 11354
11351 11356
11351 11357
11352 11353
11352 11354
11352 11355
11352 11356
11353 11354
11353 11355
11353 11356
11353 11357
11354 11355
11354 11356
11354 11357
11355 11356
11356 11357
11358 11359
11360 11361
11362 11363
11362 11364
11363 11364
11365 11366
11365 11367
11365 11368
11365 11369
11365 11370
11366 11367
11366 11368
11366 11369
11366 11370
11366 11371
11366 11372
11366 11373
11366 11374
11367 11368
11367 11369
11367 11370
11367 11371
11367 11372
11367 11373
11367 11374
11368 11369
11368 11370
11368 11371
11368 11372
11368 11373
11368 11374
11369 11370
11369 11371
11369 11372
11369 11373
11369 11374
11371 11372
11371 11373
11371 11374
11372 11373
11372 11374
11373 11374
11375 11376
11375 11377
11375 11378
11375 11379
11376 11377
11376 11378
11376 11379
11377 11378
11377 11379
11378 11379
11380 11381
11380 11382
11380 11383
11380 11384
11380 11385
11380 11386
11381 11382
11381 11383
11381 11384
11381 11385
11381 11386
11382 11383
11382 11384
11382 11385
11382 11386
11383 11384
11383 11385
11383 11386
11384 11385
11384 11386
11385 11386
11387 11388
11389 11626
11389 11627
11389 11628
11389 11629
11390 11391
11392 11393
11392 11398
11392 11394
11392 11395
11392 11396
11393 11397
11393 11398
11393 11394
11393 11399
11393 11395
11393 11396
11393 11400
11393 11401
11394 11397
11394 11398
11394 11399
11394 11395
11394 11396
11394 11400
11394 11401
11395 11396
11396 11397
11396 11398
11396 11399
11396 11400
11396 11401
11397 11398
11397 11399
11397 11400
11397 11401
11398 11399
11398 11400
11398 11401
11399 11400
11399 11401
11400 11401
11402 11408
11402 11409
11402 11410
11402 11403
11402 11411
11402 11404
11403 11408
11403 11409
11403 11410
11403 11411
11403 11404
11404 11408
11404 11409
11404 11410
11404 11411
11405 11406
11405 11407
11406 11407
11408 11409
11408 11410
11409 11410
11410 11411
11412 11413
11412 11414
11412 11415
11413 11901
11413 11902
11413 11903
11413 11904
11413 11414
11413 11905
11413 11415
11414 11415
11417 11418
11417 11419
11417 11420
11418 11419
11418 11420
11419 11420
11421 11422
11424 11425
11424 11426
11424 11427
11424 11428
11424 11429
11424 11430
11425 11426
11425 11427
11425 11428
11425 11429
11425 11430
11426 11427
11426 11428
11426 11429
11426 11430
11427 11428
11427 11429
11427 11430
11428 11429
11428 11430
11429 11430
11431 11432
11431 11433
11431 11434
11431 11435
11431 11436
11431 11437
11432 11433
11432 11434
11432 11435
11432 11436
11432 11437
11433 11434
11433 11435
11433 11436
11433 11437
11434 11435
11434 11436
11434 11437
11435 11436
11435 11437
11436 11437
11440 11441
11440 11442
11440 11443
11440 11444
11440 11445
11441 11442
11441 11443
11441 11444
11441 11445
11442 11443
11442 11444
11442 11445
11443 11444
11443 11445
11444 11445
11448 11449
11448 11450
11448 11451
11449 11450
11449 11451
11450 11451
11452 11453
11454 11455
11456 11457
11456 11458
11456 11459
11456 11460
11457 11458
11457 11459
11457 11460
11458 11459
11458 11460
11459 11460
11461 11462
11461 11463
11461 11464
11462 11463
11462 11464
11463 11464
11465 11466
11467 11468
11467 11469
11467 11470
11468 11469
11468 11470
11469 11470
11470 11553
11470 11554
11471 11472
11471 11473
11471 11474
11471 11475
11471 11476
11471 11477
11471 11478
11471 11479
11472 11473
11472 11474
11472 11475
11472 11476
11472 11477
11472 11478
11472 11479
11473 11474
11473 11475
11473 11476
11473 11477
11473 11478
11473 11479
11474 11475
11474 11476
11474 11477
11474 11478
11474 11479
11475 11476
11475 11477
11475 11478
11475 11479
11476 11477
11476 11478
11476 11479
11477 11478
11477 11479
11478 11479
11480 11481
11480 11482
11480 11483
11480 11485
11481 11482
11481 11483
11481 11485
11482 11483
11482 11485
11483 11485
11484 11640
11484 11641
11484 11672
11484 11673
11486 11487
11486 11488
11486 11489
11486 11490
11486 11491
11486 11492
11486 11493
11487 11488
11487 11489
11487 11490
11487 11491
11487 11492
11487 11493
11488 11489
11488 11490
11488 11491
11488 11492
11488 11493
11489 11490
11489 11491
11489 11492
11489 11493
11490 11491
11490 11492
11490 11493
11491 11492
11491 11493
11492 11493
11494 11495
11494 11496
11494 11497
11494 11498
11494 11499
11495 11496
11495 11497
11495 11498
11495 11499
11496 11497
11496 11498
11496 11499
11497 11498
11497 11499
11498 11499
11500 11587
11500 11588
11500 11589
11500 11590
11501 11502
11501 11503
11501 11504
11501 11505
11501 11506
11501 11507
11501 11508
11501 11509
11501 11510
11501 11511
11501 11512
11501 11513
11501 11514
11501 11515
11502 11503
11502 11504
11502 11505
11502 11506
11502 11507
11502 11508
11502 11509
11502 11510
11502 11511
11502 11512
11502 11513
11502 11514
11502 11515
11503 11504
11503 11505
11503 11506
11503 11507
11503 11508
11503 11509
11503 11510
11503 11511
11503 11512
11503 11513
11503 11514
11503 11515
11504 11505
11504 11506
11504 11507
11504 11508
11504 11509
11504 11510
11504 11511
11504 11512
11504 11513
11504 11514
11504 11515
11505 11506
11505 11507
11505 11508
11505 11509
11505 11510
11505 11511
11505 11512
11505 11513
11505 11514
11505 11515
11506 11507
11506 11508
11506 11509
11506 11510
11506 11511
11506 11512
11506 11513
11506 11514
11506 11515
11507 11508
11507 11509
11507 11510
11507 11511
11507 11512
11507 11513
11507 11514
11507 11515
11508 11509
11508 11510
11508 11511
11508 11512
11508 11513
11508 11514
11508 11515
11509 11510
11509 11511
11509 11512
11509 11513
11509 11514
11509 11515
11510 11511
11510 11512
11510 11513
11510 11514
11510 11515
11511 11512
11511 11513
11511 11514
11511 11515
11512 11513
11512 11514
11512 11515
11513 11514
11513 11515
11514 11515
11516 11517
11516 11518
11516 11519
11516 11520
11516 11521
11517 11518
11517 11519
11517 11520
11517 11521
11518 11519
11518 11520
11518 11521
11518 11522
11518 11523
11518 11524
11518 11525
11519 11520
11519 11521
11520 11521
11521 11522
11521 11523
11521 11524
11521 11525
11522 11523
11522 11524
11522 11525
11523 11524
11523 11525
11524 11525
11526 11527
11528 11529
11528 11530
11528 11531
11528 11532
11528 11533
11529 11530
11529 11601
11529 11602
11529 11603
11530 11604
11530 11533
11531 11532
11535 11536
11537 11538
11537 11539
11537 11540
11537 11541
11537 11542
11537 11543
11538 11539
11538 11540
11538 11541
11538 11542
11538 11543
11539 11540
11539 11541
11539 11542
11539 11543
11540 11541
11540 11542
11540 11543
11541 11542
11541 11543
11542 11543
11545 11546
11550 11551
11553 11554
11555 11556
11558 11559
11558 11560
11558 11561
11558 11562
11558 11563
11559 11560
11559 11563
11560 11563
11561 11562
11565 11566
11565 11567
11565 11568
11565 11569
11565 11570
11565 11571
11565 11572
11565 11573
11565 11574
11566 11567
11566 11568
11566 11569
11566 11570
11566 11571
11566 11572
11566 11573
11566 11574
11567 11568
11567 11569
11567 11570
11567 11571
11567 11572
11567 11573
11568 11569
11568 11570
11568 11571
11568 11572
11568 11573
11568 11574
11569 11570
11569 11571
11569 11572
11569 11573
11570 11571
11570 11572
11570 11573
11570 11574
11571 11572
11571 11573
11571 11574
11572 11573
11572 11574
11573 11574
11577 11578
11577 11579
11577 11580
11577 11581
11578 11579
11580 11581
11582 11583
11582 11584
11582 11585
11582 11586
11583 11584
11583 11585
11583 11586
11583 11864
11584 11585
11584 11586
11584 11864
11585 11586
11585 11864
11586 11864
11587 11588
11587 11589
11587 11590
11588 11589
11588 11590
11589 11590
11591 11592
11591 11593
11592 11593
11594 11595
11594 11771
11594 11772
11594 11773
11594 11596
11595 11771
11595 11772
11595 11773
11595 11596
11597 11691
11597 11692
11598 11599
11602 11603
11606 11607
11607 11608
11607 11609
11608 11609
11609 11883
11611 11612
11612 11880
11613 11614
11613 11615
11613 11616
11614 11615
11614 11616
11615 11616
11617 11618
11617 11619
11618 11619
11620 11621
11620 11622
11620 11623
11620 11624
11620 11625
11621 11622
11621 11623
11621 11624
11621 11625
11621 11674
11621 11675
11622 11623
11622 11624
11622 11625
11623 11624
11623 11625
11624 11625
11624 11674
11624 11675
11624 11708
11626 11627
11626 11628
11626 11629
11626 11769
11626 11770
11627 11628
11627 11629
11628 11629
11628 11769
11628 11770
11630 11774
11630 11631
11630 11775
11630 11776
11630 11799
11631 11775
11631 11799
11632 11633
11634 11638
11635 11636
11640 11641
11640 11642
11640 11643
11640 11644
11641 11645
11641 11646
11642 11946
11642 11643
11642 11947
11642 11948
11642 11644
11643 11946
11643 11947
11643 11948
11643 11644
11645 11646
11647 11648
11647 11649
11647 11650
11647 11651
11647 11652
11647 11653
11648 11649
11648 11650
11648 11651
11648 11652
11648 11653
11649 11650
11649 11651
11649 11652
11649 11653
11650 11651
11650 11652
11650 11653
11650 11654
11651 11652
11651 11653
11652 11653
11655 11656
11657 11658
11659 11660
11659 11661
11660 11661
11663 11664
11667 11668
11667 11669
11667 11670
11668 11669
11668 11670
11669 11670
11672 11673
11674 11675
11676 11677
11676 11678
11676 11679
11677 11678
11677 11679
11677 11680
11678 11679
11679 11680
11681 11682
11681 11683
11681 11684
11681 11685
11681 11686
11682 11683
11682 11684
11682 11685
11682 11686
11683 11684
11683 11685
11683 11686
11684 11685
11684 11686
11685 11686
11687 11688
11687 11689
11687 11690
11688 11689
11688 11690
11689 11690
11691 11692
11694 11695
11694 11696
11694 11697
11694 11698
11694 11699
11695 11696
11695 11697
11695 11698
11695 11699
11696 11697
11696 11698
11696 11699
11697 11698
11697 11699
11698 11699
11700 11703
11701 11702
11710 11711
11710 11712
11710 11713
11710 11714
11710 11715
11710 11716
11710 11717
11710 11718
11710 11719
11710 11720
11711 11712
11711 11713
11711 11714
11711 11715
11711 11716
11711 11717
11711 11718
11711 11719
11711 11720
11712 11713
11712 11714
11712 11720
11713 11714
11713 11715
11713 11716
11713 11717
11713 11718
11713 11719
11713 11720
11714 11720
11715 11716
11715 11717
11715 11718
11715 11719
11716 11717
11716 11718
11716 11719
11717 11718
11717 11719
11718 11719
11721 11722
11721 11724
11721 11726
11722 11724
11722 11726
11723 11725
11724 11726
11727 11728
11727 11729
11727 11730
11728 11729
11728 11730
11729 11730
11729 11731
11729 11732
11729 11733
11729 11734
11729 11735
11729 11736
11729 11737
11730 11731
11730 11735
11730 11737
11731 11735
11731 11737
11732 11733
11732 11734
11732 11735
11732 11736
11733 11734
11733 11735
11733 11736
11734 11735
11734 11736
11735 11815
11735 11854
11735 11855
11735 11856
11735 11736
11735 11737
11736 11865
11736 11866
11739 11745
11739 11749
11741 11742
11741 11743
11741 11744
11742 11743
11742 11744
11743 11744
11745 11749
11746 11747
11750 11751
11750 11752
11750 11753
11750 11754
11750 11755
11750 11756
11750 11757
11750 11758
11750 11759
11751 11752
11751 11753
11751 11754
11751 11755
11751 11756
11751 11757
11751 11758
11751 11759
11752 11753
11752 11754
11752 11755
11752 11756
11752 11757
11752 11758
11752 11759
11753 11754
11753 11755
11753 11756
11753 11757
11753 11758
11753 11759
11754 11755
11754 11756
11754 11757
11754 11758
11754 11759
11755 11756
11755 11757
11755 11758
11755 11759
11756 11757
11756 11758
11756 11759
11757 11758
11757 11759
11758 11759
11760 11761
11762 11763
11762 11764
11762 11765
11763 11764
11763 11765
11764 11765
11766 11767
11766 11768
11766 11777
11766 11778
11766 11779
11766 11780
11767 11768
11767 11777
11768 11777
11768 11778
11768 11779
11768 11780
11769 11770
11771 11772
11771 11773
11772 11773
11774 11775
11774 11776
11775 11776
11775 11799
11777 11778
11777 11779
11777 11780
11778 11779
11778 11780
11779 11780
11781 11782
11781 11783
11781 11784
11782 11783
11782 11784
11783 11784
11785 11786
11787 11788
11789 11790
11789 11791
11789 11792
11789 11793
11789 11794
11789 11795
11789 11796
11789 11797
11790 11791
11790 11792
11790 11796
11791 11792
11791 11796
11792 11796
11793 11811
11793 11812
11793 11794
11793 11795
11793 11813
11793 11797
11793 11814
11794 11811
11794 11812
11794 11795
11794 11813
11794 11797
11794 11814
11795 11811
11795 11812
11795 11813
11795 11797
11795 11814
11801 11802
11803 11804
11803 11805
11803 11806
11804 11805
11804 11806
11805 11806
11807 11808
11807 11809
11807 11810
11808 11809
11808 11810
11809 11810
11811 11812
11811 11813
11811 11814
11812 11813
11816 11817
11816 11818
11817 11818
11817 11819
11817 11820
11818 11819
11818 11820
11819 11820
11821 11822
11821 11823
11822 11823
11825 11826
11825 11827
11825 11828
11825 11829
11825 11830
11826 11827
11826 11828
11826 11829
11826 11830
11828 11829
11828 11830
11829 11830
11832 11833
11836 11837
11839 11840
11841 11842
11843 11844
11845 11846
11846 11847
11846 11848
11847 11848
11849 11850
11851 11852
11851 11853
11852 11853
11854 11855
11854 11856
11855 11856
11857 11858
11857 11859
11858 11859
11860 11861
11860 11862
11860 11863
11861 11862
11861 11863
11862 11863
11862 11954
11865 11866
11868 11869
11868 11870
11868 11871
11869 11870
11869 11871
11870 11871
11872 11873
11872 11874
11873 11874
11875 11876
11875 11877
11875 11878
11875 11879
11876 11877
11876 11878
11876 11879
11877 11878
11877 11879
11878 11879
11881 11882
11885 11886
11885 11887
11885 11888
11885 11889
11886 11887
11886 11889
11887 11889
11890 11891
11890 11892
11890 11893
11891 11892
11891 11894
11891 11895
11891 11893
11891 11896
11892 11893
11893 11894
11893 11895
11893 11896
11894 11895
11894 11896
11895 11896
11896 11926
11896 11927
11896 11928
11896 11929
11897 11898
11899 11900
11901 11902
11901 11903
11901 11904
11901 11905
11902 11903
11902 11904
11902 11905
11903 11904
11903 11905
11904 11905
11906 11907
11906 11908
11906 11909
11907 11908
11907 11909
11908 11909
11910 11911
11910 11912
11910 11913
11911 11912
11911 11913
11912 11913
11914 11915
11914 11916
11914 11917
11914 11918
11914 11919
11915 11916
11915 11917
11915 11918
11915 11919
11916 11917
11916 11918
11916 11919
11917 11918
11917 11919
11918 11919
11920 11921
11920 11922
11921 11922
11923 11924
11923 11925
11924 11925
11926 11927
11926 11928
11926 11929
11927 11928
11927 11929
11928 11929
11930 11931
11930 11932
11930 11933
11931 11932
11931 11933
11932 11933
11934 11935
11934 11936
11934 11937
11934 11938
11934 11939
11934 11940
11934 11941
11935 11936
11935 11937
11935 11938
11935 11939
11935 11940
11935 11941
11935 11942
11935 11943
11936 11937
11936 11938
11936 11939
11936 11940
11936 11941
11936 11942
11936 11943
11937 11938
11937 11939
11937 11940
11937 11941
11937 11942
11937 11943
11938 11939
11938 11940
11938 11941
11938 11942
11938 11943
11939 11940
11939 11941
11939 11942
11939 11943
11940 11941
11940 11942
11940 11943
11941 11942
11941 11943
11942 11943
11946 11947
11946 11948
11947 11948
11950 11951
11950 11952
11950 11953
11951 11952
11951 11953
11955 11956
11955 11957
11956 11957
11958 11959
11958 11960
11959 11960
11964 11965
11964 11966
11965 11966
11967 11968
11967 11969
11967 11970
11967 11971
11967 11972
11968 11969
11968 11970
11968 11971
11968 11972
11969 11970
11969 11971
11969 11972
11970 11971
11970 11972
11971 11972
11973 11974
11973 11975
11974 11975
11977 11978
11977 11979
11978 11979
11980 11981
11983 11984
11983 11985
11983 11986
11983 11987
11983 11988
11983 11989
11984 11985
11984 11986
11984 11987
11984 11988
11984 11989
11985 11986
11985 11987
11985 11988
11985 11989
11986 11987
11986 11988
11986 11989
11987 11988
11987 11989
11988 11989
11990 11991
11992 11993
11992 11994
11992 11995
11992 11996
11993 11994
11993 11995
11993 11996
11994 11995
11994 11996
11995 11996
11997 11998
