0 97
0 140
0 222
0 717
0 1688
0 1939
0 2382
0 2522
0 2640
0 2687
0 2718
0 2936
0 3544
0 3871
0 4173
0 4201
0 4300
0 4630
0 4890
0 4912
0 4970
1 105
1 635
1 847
1 1200
1 2087
1 2125
1 2344
1 2423
1 2685
1 3135
1 3170
1 3673
1 4165
1 4232
1 4408
1 4441
1 4480
1 4910
2 31
2 190
2 484
2 533
2 535
2 550
2 560
2 792
2 1155
2 1205
2 1438
2 1456
2 1781
2 2170
2 2249
2 2370
2 2559
2 2702
2 3113
2 3173
2 3405
2 3509
2 3570
2 3798
2 4138
2 4331
2 4460
2 4823
3 78
3 82
3 85
3 337
3 462
3 465
3 624
3 866
3 1189
3 1492
3 1656
3 2133
3 2304
3 2650
3 3718
3 4434
3 4504
3 4726
3 4737
3 4820
4 31
4 86
4 229
4 293
4 361
4 531
4 535
4 550
4 1326
4 1400
4 1489
4 1570
4 1658
4 1783
4 1910
4 2292
4 2564
4 2588
4 2720
4 2746
4 3073
4 3077
4 3173
4 3264
4 3509
4 3568
4 3589
4 4229
4 4252
4 4429
4 4653
4 4793
5 36
5 97
5 222
5 717
5 1939
5 2382
5 2522
5 2687
5 2718
5 2936
5 3036
5 3140
5 3260
5 3330
5 3871
5 4173
5 4630
5 4912
6 10
6 472
6 582
6 907
6 921
6 1070
6 1644
6 2021
6 2068
6 2101
6 2158
6 2315
6 2492
6 2528
6 2548
6 2676
6 2767
6 2804
6 3522
6 3992
6 4152
6 4614
6 4624
6 4640
7 196
7 720
7 986
7 1102
7 1513
7 1995
7 2305
7 2391
7 2827
7 3120
7 3536
7 3670
7 3677
7 3814
7 3854
7 4174
7 4327
7 4341
7 4457
7 4572
7 4575
8 275
8 344
8 359
8 376
8 387
8 390
8 771
8 824
8 1143
8 1703
8 2459
8 3442
8 3561
8 3739
8 4106
9 259
9 760
9 897
9 1580
9 2766
9 2864
9 3026
9 3633
9 4110
9 4385
9 4411
9 4415
9 4433
9 4446
10 408
10 490
10 693
10 907
10 918
10 921
10 993
10 1097
10 1453
10 1484
10 1535
10 1644
10 1972
10 2113
10 2137
10 2315
10 2649
10 3152
10 3617
10 3649
10 3689
10 4123
10 4484
10 4502
10 4680
10 4875
11 54
11 259
11 476
11 525
11 648
11 760
11 897
11 903
11 1213
11 1572
11 2262
11 2455
11 2766
11 2864
11 3315
11 3640
11 3873
11 4072
11 4411
11 4415
11 4433
12 106
12 169
12 212
12 279
12 294
12 369
12 459
12 579
12 625
12 745
12 850
12 938
12 1415
12 1695
12 2155
12 2426
12 2436
12 2477
12 2486
12 2497
12 2593
12 2949
12 2983
12 3047
12 3363
12 3391
12 3447
12 3464
12 3744
12 4100
12 4242
12 4307
12 4401
12 4736
12 4928
13 58
13 85
13 200
13 638
13 691
13 922
13 1063
13 1152
13 1615
13 1626
13 1636
13 2675
13 2677
13 2830
13 3407
13 3426
13 3721
13 3793
13 3953
13 4150
13 4292
13 4674
13 4675
13 4694
14 177
14 569
14 596
14 851
14 912
14 945
14 949
14 1855
14 2242
14 2306
14 2484
14 2547
14 2620
14 2815
14 2968
14 2988
14 3142
14 3615
14 4114
14 4141
14 4239
14 4584
14 4649
15 831
15 1292
15 1489
15 1802
15 1918
15 2007
15 2012
15 2184
15 2202
15 2265
15 2868
15 2882
15 2946
15 2962
15 3149
15 3179
15 3771
15 3818
15 3896
15 4281
15 4716
15 4826
15 4993
16 82
16 337
16 866
16 1168
16 1662
16 2179
16 2660
16 2668
16 3402
16 4469
16 4504
16 4736
16 4955
17 24
17 485
17 518
17 621
17 719
17 837
17 960
17 1061
17 1530
17 1577
17 1631
17 1660
17 2030
17 2372
17 2406
17 2451
17 2957
17 3087
17 3128
17 3948
17 4551
17 4947
18 434
18 455
18 540
18 655
18 888
18 1180
18 1672
18 1728
18 1911
18 1926
18 1934
18 2083
18 2157
18 2640
18 2842
18 3427
18 3743
18 3869
18 4235
18 4347
18 4390
18 4825
19 117
19 120
19 195
19 260
19 369
19 380
19 435
19 479
19 551
19 565
19 662
19 763
19 786
19 842
19 876
19 971
19 1011
19 1016
19 1098
19 1268
19 1323
19 1544
19 1632
19 1867
19 1915
19 1920
19 2048
19 2053
19 2058
19 2084
19 2491
19 2523
19 2525
19 2653
19 2786
19 2788
19 2790
19 2823
19 2930
19 3210
19 3338
19 3376
19 3401
19 3468
19 3475
19 3565
19 3590
19 3820
19 4296
19 4308
19 4533
19 4603
19 4731
19 4881
19 4908
19 4976
20 70
20 303
20 386
20 481
20 543
20 726
20 729
20 842
20 939
20 1077
20 1113
20 1368
20 1845
20 1882
20 2177
20 2309
20 2342
20 2599
20 2697
20 2749
20 2771
20 2777
20 2912
20 2918
20 3054
20 3693
20 3802
20 3876
20 3882
20 4058
20 4147
20 4245
20 4515
20 4605
20 4664
20 4819
20 4883
20 4898
20 4909
20 4973
21 501
21 517
21 1856
21 2051
21 2059
21 2498
21 2610
21 2650
21 2712
21 2775
21 2933
21 3112
21 3139
21 3498
21 3532
21 3546
21 3560
21 3594
21 3604
21 3696
21 3855
21 4336
21 4622
21 4693
22 41
22 417
22 589
22 1122
22 1192
22 1291
22 1448
22 1716
22 1734
22 1812
22 2152
22 2609
22 2734
22 2970
22 2992
22 3868
22 3893
22 3999
22 4103
22 4314
22 4431
22 4516
22 4669
22 4834
22 4868
22 4912
22 4950
23 172
23 191
23 307
23 453
23 507
23 727
23 747
23 832
23 1026
23 1203
23 1281
23 1470
23 1575
23 1604
23 2197
23 2329
23 2754
23 2764
23 2948
23 3005
23 3145
23 3258
23 3277
23 3760
23 3813
23 4053
23 4240
23 4271
23 4290
23 4305
23 4436
24 202
24 334
24 383
24 420
24 427
24 437
24 450
24 463
24 486
24 544
24 837
24 859
24 1533
24 1577
24 1631
24 1730
24 1880
24 2030
24 2231
24 2291
24 2372
24 2377
24 2397
24 2406
24 2451
24 2708
24 2928
24 3064
24 3198
24 3450
24 3932
24 3935
24 3948
24 3985
24 4143
24 4427
24 4450
24 4945
25 524
25 583
25 1062
25 1358
25 1556
25 2075
25 2080
25 2180
25 2238
25 2272
25 2427
25 2551
25 2822
25 2865
25 3297
25 3341
25 4099
25 4200
25 4253
25 4364
25 4729
25 4838
25 4839
26 649
26 1581
26 1687
26 1699
26 1930
26 1933
26 1957
26 2669
26 2678
26 2741
26 2784
26 2831
26 2839
26 2878
26 2942
26 3193
26 3194
26 3256
26 3279
26 3514
26 3558
26 3997
26 4455
26 4715
27 28
27 349
27 782
27 1084
27 1738
27 2118
27 2536
27 2783
27 3033
27 3331
27 3333
27 3601
27 3656
27 4343
27 4366
27 4583
28 45
28 349
28 391
28 782
28 1008
28 1084
28 1320
28 1551
28 2325
28 2331
28 2363
28 2590
28 2632
28 3033
28 3331
28 3333
28 3542
28 4606
28 4647
28 4896
29 48
29 496
29 623
29 1303
29 1329
29 1588
29 1875
29 1922
29 2527
29 3747
29 3803
29 3983
29 4383
29 4645
29 4667
29 4905
30 842
30 853
30 990
30 1320
30 1364
30 1820
30 1859
30 1897
30 2006
30 2024
30 2039
30 2079
30 2122
30 2164
30 2323
30 2367
30 2389
30 2905
30 2914
30 2987
30 3002
30 3032
30 3103
30 3119
30 3124
30 3133
30 3487
30 3949
30 4096
30 4137
30 4165
30 4323
30 4357
30 4828
30 4851
30 4859
31 296
31 484
31 514
31 912
31 1242
31 1326
31 1370
31 1558
31 1628
31 1755
31 1781
31 2073
31 2140
31 2243
31 2284
31 2358
31 3608
31 3723
31 4280
31 4285
31 4341
31 4444
31 4524
31 4576
31 4617
31 4885
32 177
32 949
32 1012
32 1015
32 1068
32 1120
32 1850
32 2129
32 2560
32 2608
32 3594
32 4134
32 4239
32 4283
32 4363
32 4584
32 4631
32 4649
33 67
33 304
33 724
33 1076
33 1082
33 1176
33 1185
33 1869
33 2086
33 2198
33 2310
33 2365
33 2940
33 2962
33 3103
33 3166
33 4019
33 4071
33 4183
33 4254
33 4382
33 4625
33 4861
33 4987
34 389
34 929
34 1027
34 1287
34 1440
34 1459
34 1579
34 1586
34 1594
34 1602
34 1935
34 2308
34 2563
34 2611
34 2694
34 2845
34 2861
34 3099
34 3240
34 3353
34 3474
34 3535
34 3611
34 3797
34 4133
34 4499
34 4916
35 38
35 48
35 496
35 623
35 806
35 1588
35 1649
35 1875
35 2144
35 2272
35 2401
35 2417
35 2612
35 3508
35 3747
35 4146
35 4172
35 4397
35 4399
35 4505
35 4645
35 4667
36 97
36 121
36 1161
36 1939
36 2171
36 2382
36 2404
36 2640
36 2687
36 2718
36 2936
36 3544
36 3667
36 3871
36 4173
36 4201
36 4890
37 102
37 112
37 203
37 216
37 267
37 554
37 785
37 854
37 1194
37 1647
37 1662
37 1885
37 2135
37 2439
37 2669
37 2762
37 2768
37 3136
37 3364
37 4009
37 4135
37 4168
37 4414
37 4456
37 4728
37 4733
38 48
38 286
38 496
38 623
38 806
38 840
38 1082
38 1329
38 1588
38 1875
38 1953
38 2052
38 2222
38 2417
38 2527
38 2612
38 2665
38 2955
38 3427
38 3726
38 3747
38 3983
38 4202
38 4383
38 4397
38 4505
38 4645
38 4749
38 4905
38 4923
39 47
39 323
39 364
39 873
39 1354
39 1360
39 1480
39 1610
39 1639
39 2148
39 2616
39 2875
39 3263
39 3298
39 3652
39 3785
39 4017
39 4449
39 4547
39 4657
39 4686
39 4732
39 4759
40 335
40 342
40 347
40 354
40 418
40 602
40 613
40 650
40 842
40 1086
40 1328
40 1335
40 1371
40 1408
40 1538
40 1909
40 2180
40 2392
40 2508
40 2542
40 2664
40 2791
40 3012
40 3091
40 3115
40 3290
40 3432
40 3461
40 3510
40 3573
40 3582
40 3627
40 3659
40 3789
40 3998
40 4111
40 4112
40 4187
40 4230
40 4437
40 4495
40 4503
40 4550
40 4735
40 4747
41 42
41 211
41 417
41 870
41 1122
41 1291
41 1448
41 1534
41 1716
41 1812
41 2152
41 2229
41 3286
41 3319
41 3571
41 3868
41 3893
41 3999
41 4115
41 4153
41 4188
41 4339
41 4516
41 4552
41 4574
41 4669
41 4799
41 4834
41 4850
41 4950
42 246
42 416
42 417
42 430
42 589
42 1122
42 1291
42 1521
42 1534
42 1716
42 1734
42 1777
42 1812
42 1852
42 1939
42 2152
42 2229
42 2609
42 2832
42 2992
42 3319
42 3356
42 3489
42 3571
42 3665
42 3839
42 3863
42 3893
42 3999
42 4029
42 4077
42 4153
42 4193
42 4337
42 4339
42 4431
42 4516
42 4552
42 4574
42 4650
42 4799
42 4834
42 4841
42 4868
42 4950
43 76
43 370
43 601
43 829
43 1584
43 1585
43 2087
43 2125
43 2471
43 2685
43 2705
43 3170
43 4223
43 4474
43 4668
43 4691
43 4761
43 4797
43 4910
44 62
44 552
44 714
44 1101
44 1280
44 1525
44 1836
44 2991
44 3060
44 3066
44 3186
44 3255
44 3398
44 3413
44 3586
44 3613
44 3810
44 3823
44 3860
44 4025
44 4467
44 4722
44 4815
44 4826
44 4914
44 4985
44 4988
45 546
45 1008
45 1297
45 2325
45 2331
45 2536
45 2590
45 3033
45 3333
45 3950
45 4366
45 4896
46 50
46 652
46 919
46 1019
46 1056
46 1442
46 1485
46 1683
46 1852
46 2059
46 2610
46 3112
46 3555
46 3604
46 3713
46 4045
46 4218
46 4482
46 4622
47 68
47 112
47 203
47 216
47 267
47 321
47 614
47 1194
47 1218
47 1241
47 1248
47 1647
47 1810
47 1917
47 2096
47 2636
47 2768
47 3467
47 4135
47 4414
47 4733
47 4748
47 4790
48 623
48 806
48 1649
48 2144
48 2612
48 2955
48 3427
48 3651
48 3747
48 4397
48 4399
48 4505
48 4688
48 4749
49 55
49 394
49 455
49 460
49 537
49 542
49 673
49 890
49 1569
49 1570
49 1877
49 1938
49 2081
49 2139
49 2149
49 2165
49 2221
49 2661
49 2715
49 3137
49 3622
49 3657
49 3658
49 4211
49 4213
49 4476
49 4544
49 4555
49 4766
49 4887
49 4929
50 283
50 513
50 517
50 584
50 810
50 1056
50 1143
50 1220
50 1245
50 1619
50 1852
50 2004
50 2092
50 2458
50 2580
50 3541
50 3560
50 3604
50 4242
50 4362
51 457
51 667
51 671
51 1207
51 1565
51 1828
51 2330
51 3543
51 3804
51 4131
51 4276
51 4628
51 4631
52 191
52 307
52 406
52 443
52 507
52 1281
52 1313
52 1604
52 1609
52 2272
52 2329
52 2545
52 2764
52 2948
52 3277
52 3760
52 3976
52 4240
52 4242
52 4271
52 4278
52 4290
52 4305
52 4318
53 370
53 1200
53 1362
53 1391
53 1585
53 1591
53 2087
53 2125
53 2237
53 2344
53 2471
53 3135
53 3168
53 3170
53 3451
53 3673
53 3722
53 4223
53 4474
53 4480
53 4746
53 4785
53 4910
54 259
54 476
54 648
54 724
54 804
54 897
54 1572
54 2455
54 3210
54 3276
54 3633
54 3873
54 4072
54 4385
54 4411
54 4433
54 4956
55 307
55 537
55 673
55 756
55 1569
55 2081
55 2312
55 2599
55 2661
55 3134
55 3137
55 3622
55 3657
55 4128
55 4544
56 177
56 233
56 461
56 569
56 1371
56 2129
56 2223
56 2242
56 2821
56 3148
56 3594
56 4125
56 4239
56 4363
56 4454
56 4760
56 4927
57 774
57 1216
57 1235
57 1256
57 1269
57 1359
57 1503
57 1864
57 1899
57 2276
57 2596
57 3270
57 3325
57 3454
57 3602
57 3939
57 4108
57 4528
58 85
58 128
58 237
58 368
58 576
58 581
58 638
58 1068
58 1615
58 1626
58 1636
58 1671
58 2044
58 2104
58 2164
58 3140
58 3426
58 3519
58 3721
58 4694
58 4780
58 4794
59 286
59 351
59 811
59 1044
59 1158
59 1186
59 1717
59 1815
59 2052
59 2428
59 2556
59 2593
59 2706
59 3081
59 3421
59 3753
59 4416
59 4509
59 4543
59 4734
59 4927
60 68
60 122
60 139
60 252
60 510
60 618
60 812
60 1528
60 1653
60 1788
60 1870
60 1914
60 2201
60 2371
60 2419
60 2631
60 2641
60 2651
60 2657
60 2692
60 3030
60 3188
60 3392
60 3562
60 3694
60 3739
60 3849
60 4227
60 4717
60 4727
60 4778
60 4792
60 4800
60 4888
61 224
61 453
61 516
61 727
61 1313
61 1575
61 1604
61 2087
61 2533
61 2726
61 2948
61 3005
61 3258
61 3314
61 3760
61 4186
61 4240
61 4242
61 4271
61 4290
61 4397
62 403
62 571
62 577
62 808
62 873
62 1172
62 1229
62 1267
62 1492
62 1618
62 1745
62 1807
62 2438
62 2453
62 2863
62 3034
62 3169
62 4078
62 4521
62 4639
62 4672
62 4817
62 4996
63 173
63 250
63 263
63 573
63 574
63 1429
63 2276
63 2284
63 2591
63 3191
63 3585
63 3727
63 3765
63 4361
63 4589
64 66
64 560
64 1048
64 1260
64 1427
64 1630
64 1779
64 2128
64 2379
64 2505
64 2969
64 3301
64 3516
64 4249
64 4289
64 4324
64 4459
64 4853
64 4937
64 4964
65 67
65 848
65 879
65 1195
65 1262
65 1324
65 1375
65 1438
65 1605
65 1650
65 2311
65 2365
65 2558
65 2927
65 3155
65 3232
65 3431
65 3638
65 3698
65 3844
65 3850
65 3866
65 4039
65 4933
66 884
66 1630
66 1779
66 2108
66 2415
66 2505
66 2969
66 3087
66 3239
66 3397
66 3516
66 4249
66 4289
66 4415
66 4853
66 4937
66 4964
67 161
67 163
67 698
67 910
67 1292
67 1770
67 1832
67 1896
67 2198
67 2274
67 2645
67 2828
67 3172
67 3902
67 4071
67 4254
67 4380
67 4844
67 4938
67 4949
68 122
68 139
68 409
68 1528
68 1870
68 2115
68 2133
68 2148
68 2201
68 2214
68 2371
68 2419
68 2631
68 2910
68 3480
68 3562
68 3694
68 4727
68 4807
69 101
69 343
69 413
69 549
69 729
69 800
69 1257
69 1305
69 1801
69 1845
69 1878
69 2034
69 2102
69 2215
69 2422
69 2770
69 2799
69 2925
69 3876
69 3898
69 4286
69 4814
69 4818
69 4819
69 4894
69 4992
70 94
70 101
70 124
70 151
70 229
70 240
70 273
70 452
70 674
70 774
70 800
70 863
70 927
70 982
70 984
70 1072
70 1077
70 1134
70 1724
70 1759
70 1801
70 1807
70 1813
70 1819
70 1865
70 1878
70 1883
70 2005
70 2094
70 2147
70 2186
70 2749
70 2777
70 2872
70 2881
70 2884
70 2891
70 2897
70 2922
70 3234
70 3424
70 3821
70 3883
70 3898
70 4094
70 4097
70 4142
70 4147
70 4212
70 4244
70 4251
70 4381
70 4440
70 4488
70 4541
70 4588
70 4676
70 4814
70 4819
70 4883
70 4909
70 4941
70 4963
70 4973
71 305
71 809
71 861
71 1592
71 1640
71 1730
71 2025
71 2206
71 2360
71 2468
71 2496
71 2513
71 2600
71 3117
71 3997
71 4073
71 4117
71 4291
72 89
72 738
72 768
72 1163
72 1930
72 2031
72 2124
72 2752
72 2924
72 3160
72 3191
72 3214
72 3226
72 3351
72 3371
72 3496
72 3650
72 3654
72 3754
72 3773
72 3852
72 3903
72 4008
72 4714
72 4920
73 258
73 483
73 815
73 839
73 943
73 959
73 1033
73 1132
73 1173
73 1273
73 1278
73 1303
73 1306
73 1857
73 1897
73 1977
73 2024
73 2039
73 2062
73 2122
73 2355
73 2389
73 2475
73 2594
73 2972
73 2987
73 2998
73 3002
73 3044
73 3119
73 3133
73 3238
73 3622
73 3800
73 3818
73 3890
73 3982
73 4096
73 4207
73 4418
73 4448
73 4621
73 4830
74 187
74 301
74 412
74 429
74 438
74 640
74 743
74 1627
74 1835
74 2041
74 2295
74 2314
74 2932
74 4204
74 4451
74 4517
74 4698
74 4875
74 4966
75 118
75 299
75 545
75 586
75 1152
75 1192
75 1615
75 1671
75 2104
75 2114
75 2164
75 2243
75 2309
75 2327
75 2677
75 3519
75 3721
75 3968
75 4582
76 722
76 847
76 1200
76 1318
76 1362
76 1391
76 1584
76 1585
76 2087
76 2125
76 2237
76 2344
76 2423
76 2471
76 2791
76 3135
76 3168
76 3170
76 3225
76 3963
76 4148
76 4408
76 4474
76 4480
76 4668
76 4844
76 4864
76 4910
77 250
77 251
77 275
77 293
77 436
77 594
77 720
77 723
77 1155
77 1285
77 1456
77 1782
77 2077
77 2433
77 2655
77 2679
77 2720
77 2742
77 2965
77 3073
77 3089
77 3458
77 3676
77 3921
77 4182
77 4330
77 4413
77 4444
77 4575
77 4593
77 4936
77 4952
78 82
78 127
78 192
78 337
78 462
78 547
78 593
78 624
78 733
78 783
78 866
78 1159
78 1189
78 1418
78 1444
78 1492
78 1656
78 2136
78 2173
78 2179
78 2213
78 2482
78 2565
78 2660
78 2664
78 2668
78 2725
78 3402
78 3738
78 3914
78 4231
78 4329
78 4346
78 4434
78 4504
78 4737
78 4820
78 4871
78 4955
79 114
79 129
79 182
79 578
79 606
79 679
79 774
79 1523
79 1646
79 1767
79 3106
79 3132
79 3237
79 3305
79 3403
79 3490
79 4338
79 4685
79 4777
80 332
80 521
80 626
80 761
80 844
80 1139
80 1272
80 1383
80 2379
80 2418
80 2442
80 3433
80 4200
80 4220
80 4255
80 4270
80 4497
81 216
81 267
81 321
81 608
81 1218
81 1241
81 1306
81 1336
81 1689
81 1773
81 2135
81 2368
81 2439
81 2669
81 3167
81 3833
81 4135
81 4295
81 4456
81 4656
82 127
82 192
82 337
82 462
82 593
82 624
82 733
82 866
82 1444
82 1492
82 1656
82 1680
82 2136
82 2173
82 2179
82 2213
82 2304
82 2478
82 2565
82 2580
82 2650
82 2660
82 2668
82 2725
82 2958
82 3402
82 3480
82 4375
82 4434
82 4737
82 4820
83 423
83 630
83 732
83 828
83 987
83 1050
83 1072
83 1094
83 1381
83 1540
83 1608
83 1669
83 1714
83 1737
83 1978
83 2656
83 2841
83 2879
83 3015
83 3256
83 3373
83 3567
83 3754
83 3811
83 3997
83 4000
83 4416
83 4695
83 4720
83 4953
83 4961
84 156
84 181
84 281
84 1185
84 1489
84 1714
84 1784
84 1790
84 1839
84 1916
84 1918
84 2015
84 2265
84 2274
84 2808
84 2946
84 3001
84 4473
84 4850
85 368
85 576
85 638
85 670
85 922
85 1152
85 1626
85 1636
85 1671
85 1929
85 2164
85 2185
85 2327
85 3340
85 3651
85 4167
85 4794
86 351
86 492
86 514
86 663
86 758
86 1498
86 1503
86 1574
86 1692
86 1712
86 1747
86 1754
86 1818
86 1955
86 2142
86 2194
86 2361
86 2409
86 2430
86 2444
86 2519
86 2720
86 2758
86 3129
86 3359
86 3487
86 3509
86 3646
86 3714
86 3817
86 4033
86 4092
86 4163
86 4174
86 4280
86 4330
86 4413
86 4420
86 4429
86 4460
86 4532
86 4736
86 4767
86 4783
86 4805
86 4893
87 132
87 135
87 556
87 1069
87 1132
87 1306
87 1868
87 2098
87 2787
87 2833
87 2919
87 2972
87 2987
87 3361
87 3372
87 3858
87 3860
87 3971
87 3982
87 4069
87 4357
88 92
88 501
88 513
88 517
88 584
88 587
88 1042
88 1483
88 2218
88 2580
88 2610
88 2644
88 2712
88 3532
88 3604
88 3631
88 3713
88 4494
88 4611
89 269
89 630
89 1050
89 1192
89 1327
89 1488
89 1896
89 2285
89 2841
89 2900
89 3190
89 3393
89 3513
89 3597
89 3654
89 3662
89 3675
89 3915
89 4695
89 4813
89 4911
89 4982
90 250
90 1242
90 1271
90 1613
90 1774
90 1781
90 1823
90 2255
90 2256
90 2290
90 2846
90 3196
90 3269
90 3378
90 3503
90 3509
90 3565
90 4038
90 4146
90 4310
90 4736
90 4763
91 452
91 853
91 856
91 874
91 924
91 990
91 1166
91 1364
91 1502
91 2230
91 2323
91 2340
91 2346
91 2475
91 2826
91 2837
91 3103
91 3361
91 3653
91 3800
91 3859
91 3938
91 4006
91 4085
91 4712
91 4832
91 4925
91 4954
92 517
92 584
92 587
92 1485
92 1634
92 2019
92 2610
92 2644
92 3532
92 3560
92 4045
92 4218
92 4566
92 4611
93 505
93 521
93 1383
93 2285
93 2379
93 2418
93 2440
93 2779
93 2789
93 3208
93 3433
93 3825
93 4222
93 4255
93 4486
93 4977
94 223
94 797
94 982
94 1127
94 1508
94 1726
94 1751
94 1973
94 2091
94 2094
94 2102
94 2228
94 2444
94 3944
94 4119
94 4142
94 4147
94 4199
94 4244
94 4819
95 170
95 552
95 605
95 783
95 819
95 1146
95 1149
95 1160
95 1369
95 1462
95 1775
95 2101
95 2623
95 3163
95 3389
95 3477
95 3516
95 3697
95 3842
95 3870
95 4557
95 4652
95 4670
95 4762
95 4782
95 4795
95 4892
96 707
96 1146
96 1345
96 1600
96 1749
96 2663
96 2680
96 2697
96 2819
96 2918
96 2991
96 3105
96 3255
96 3344
96 3367
96 3437
96 3726
96 3774
96 3987
96 4020
96 4230
96 4768
96 4907
97 121
97 140
97 222
97 717
97 846
97 850
97 1405
97 1890
97 1939
97 2171
97 2382
97 2407
97 2522
97 2640
97 2687
97 2718
97 3036
97 3544
97 3667
97 3871
97 4173
97 4201
97 4584
97 4829
97 4890
97 4912
97 4970
98 284
98 579
98 585
98 838
98 1130
98 1201
98 1349
98 2150
98 2199
98 2252
98 2319
98 3434
98 3707
98 3775
98 3874
98 3885
98 4224
98 4345
98 4372
98 4701
98 4723
98 4724
98 4779
99 192
99 426
99 490
99 705
99 921
99 1070
99 1140
99 1466
99 1535
99 1644
99 2068
99 2151
99 2233
99 2315
99 2765
99 2823
99 4003
99 4123
99 4152
99 4190
99 4614
99 4871
100 242
100 403
100 489
100 1039
100 1146
100 1213
100 1315
100 1567
100 2178
100 2286
100 2494
100 2847
100 3006
100 4379
100 4384
100 4562
100 4615
100 4698
100 4860
101 117
101 600
101 799
101 901
101 1813
101 2091
101 2094
101 2215
101 2631
101 2777
101 2824
101 2854
101 2881
101 2891
101 2952
101 3074
101 3882
101 3905
101 4440
101 4814
101 4818
102 112
102 267
102 789
102 854
102 1241
102 1248
102 1810
102 3070
102 3149
102 3153
102 3467
102 3644
102 3833
102 3872
102 4168
102 4405
102 4656
102 4728
102 4748
102 4866
103 128
103 141
103 201
103 581
103 1152
103 1615
103 1626
103 1994
103 2235
103 2273
103 3357
103 3583
103 3651
103 3953
103 4150
103 4167
103 4674
103 4675
103 4694
104 397
104 559
104 660
104 993
104 1461
104 1478
104 1510
104 1521
104 1535
104 1953
104 2021
104 2068
104 2151
104 2315
104 2548
104 3109
104 3752
104 4123
104 4152
104 4201
104 4502
104 4614
104 4624
104 4776
105 370
105 982
105 1173
105 1351
105 2087
105 2344
105 2423
105 2471
105 2646
105 2705
105 3451
105 3673
105 4232
105 4408
105 4480
105 4957
106 169
106 212
106 254
106 356
106 448
106 600
106 745
106 1079
106 1415
106 1638
106 2436
106 2477
106 2943
106 3364
106 3391
106 3447
106 3744
106 4225
106 4492
106 4928
107 185
107 391
107 470
107 519
107 848
107 1121
107 1342
107 1723
107 2261
107 2279
107 2463
107 2892
107 2916
107 3141
107 3287
107 3288
107 3421
107 3698
107 3861
107 3957
107 4288
107 4612
107 4924
108 384
108 398
108 465
108 484
108 506
108 539
108 723
108 973
108 1429
108 1479
108 1739
108 1754
108 1755
108 2181
108 2193
108 2255
108 2275
108 2450
108 2514
108 2720
108 3264
108 3421
108 3503
108 3608
108 3723
108 3835
108 3914
108 4138
108 4192
108 4301
108 4310
108 4442
108 4548
108 4573
108 4763
108 4786
108 4998
109 161
109 278
109 304
109 342
109 576
109 698
109 753
109 1028
109 1732
109 1903
109 2184
109 2760
109 2902
109 2920
109 2940
109 3118
109 3290
109 3293
109 3945
109 4219
109 4254
109 4473
109 4791
110 470
110 879
110 961
110 1032
110 1081
110 1121
110 1253
110 1425
110 1469
110 1493
110 1554
110 1583
110 1589
110 1831
110 1937
110 2499
110 2558
110 2894
110 2978
110 3013
110 3126
110 3224
110 3374
110 3409
110 3928
110 3973
110 4044
110 4209
110 4410
110 4523
110 4612
110 4901
111 131
111 166
111 180
111 391
111 580
111 716
111 879
111 1059
111 1100
111 1138
111 1178
111 1195
111 1211
111 1356
111 1536
111 1545
111 1605
111 1611
111 1650
111 1705
111 1798
111 1814
111 1872
111 1933
111 1947
111 1971
111 2233
111 2256
111 2279
111 2472
111 2499
111 2545
111 2906
111 2927
111 2937
111 2993
111 3231
111 3280
111 3284
111 3335
111 3363
111 3374
111 3387
111 3422
111 3533
111 3588
111 3704
111 3778
111 3897
111 3916
111 3996
111 4011
111 4015
111 4035
111 4039
111 4282
111 4410
111 4586
111 4924
112 203
112 216
112 267
112 531
112 666
112 854
112 1218
112 1248
112 1336
112 1647
112 1901
112 1917
112 2096
112 2135
112 2182
112 2190
112 2403
112 2762
112 3136
112 3167
112 3194
112 3467
112 3530
112 3722
112 4168
112 4295
112 4601
113 125
113 177
113 596
113 1012
113 2223
113 2274
113 2518
113 2620
113 3515
113 3593
113 3594
113 4157
113 4239
113 4454
113 4665
114 129
114 153
114 173
114 209
114 218
114 293
114 358
114 461
114 679
114 687
114 717
114 774
114 825
114 1153
114 1161
114 1590
114 1767
114 1888
114 2239
114 2240
114 2413
114 2464
114 2688
114 2759
114 2802
114 3439
114 4169
114 4338
114 4375
114 4430
114 4472
114 4690
114 4716
114 4742
114 4780
114 4958
115 282
115 1105
115 1165
115 1219
115 1302
115 2159
115 2266
115 2267
115 2271
115 2364
115 2449
115 2599
115 2909
115 2955
115 3007
115 3020
115 3023
115 3472
115 4006
115 4032
115 4154
115 4353
115 4403
115 4457
116 119
116 161
116 242
116 278
116 735
116 997
116 1082
116 1116
116 1169
116 1185
116 1802
116 1869
116 2485
116 2755
116 2836
116 2868
116 3051
116 3818
116 3891
116 4155
116 4562
116 4824
116 4850
116 4862
116 4949
116 4993
117 704
117 867
117 1127
117 1801
117 1994
117 2107
117 2755
117 2918
117 3856
117 3968
117 4119
117 4148
117 4251
117 4352
118 325
118 368
118 581
118 586
118 638
118 662
118 751
118 1234
118 1626
118 1636
118 1685
118 1701
118 1929
118 2164
118 2550
118 3687
118 3721
118 4582
118 4675
119 698
119 1246
119 1709
119 1990
119 2076
119 2100
119 2670
119 2828
119 2836
119 2882
119 2940
119 2999
119 3290
119 3415
119 3783
119 3818
119 3907
119 4254
119 4527
120 479
120 503
120 565
120 842
120 876
120 967
120 971
120 1011
120 1016
120 1145
120 1323
120 1632
120 1915
120 1920
120 2048
120 2053
120 2058
120 2320
120 2491
120 2523
120 2525
120 2790
120 2823
120 2825
120 2946
120 3401
120 3565
120 4165
120 4296
120 4731
120 4976
121 140
121 222
121 1688
121 1939
121 2407
121 2640
121 2687
121 2693
121 2718
121 3544
121 4072
122 139
122 360
122 374
122 510
122 618
122 672
122 1528
122 1653
122 1857
122 1870
122 2148
122 2214
122 2371
122 2419
122 2631
122 2641
122 2651
122 2657
122 3007
122 3188
122 3392
122 3694
122 3867
122 3965
122 4727
122 4778
122 4792
123 198
123 269
123 338
123 574
123 781
123 826
123 1051
123 1058
123 1141
123 1193
123 1581
123 1665
123 1923
123 2116
123 2252
123 2743
123 2841
123 3056
123 3184
123 3195
123 3214
123 3326
123 3491
123 3502
123 3654
123 3795
123 3869
123 3915
123 3962
123 4712
124 171
124 223
124 273
124 735
124 1077
124 1305
124 1778
124 1928
124 1940
124 2824
124 2952
124 3790
124 3958
124 4251
124 4381
124 4559
125 1035
125 1090
125 1243
125 1339
125 1440
125 2223
125 2484
125 2528
125 2573
125 3594
125 3621
125 4021
125 4239
125 4279
125 4306
125 4797
125 4894
126 331
126 1059
126 1314
126 1397
126 1553
126 1705
126 1711
126 1799
126 1969
126 2499
126 2681
126 3345
126 3431
126 3715
126 3778
126 3824
126 3866
126 3928
126 4282
126 4288
126 4377
126 4991
127 192
127 315
127 337
127 593
127 624
127 733
127 866
127 1189
127 1444
127 1492
127 2056
127 2179
127 2478
127 2565
127 2660
127 2668
127 2958
127 3186
127 3402
127 3572
127 3811
127 4231
127 4434
127 4469
127 4737
128 175
128 200
128 368
128 576
128 638
128 670
128 1240
128 1615
128 1626
128 1671
128 2104
128 2164
128 2185
128 2243
128 2327
128 2550
128 2876
128 3140
128 3375
128 3426
128 3813
128 4150
128 4244
128 4405
128 4537
128 4675
128 4705
128 4799
129 153
129 209
129 218
129 358
129 578
129 617
129 701
129 774
129 825
129 902
129 1182
129 1322
129 1340
129 1607
129 1646
129 1723
129 1734
129 1888
129 1912
129 2183
129 2283
129 2495
129 2642
129 2759
129 2802
129 2852
129 3223
129 3305
129 3332
129 3403
129 3439
129 3490
129 3767
129 3912
129 4169
129 4196
129 4241
129 4273
129 4375
129 4398
129 4602
129 4628
129 4710
129 4921
130 352
130 702
130 1062
130 1416
130 1720
130 1821
130 1990
130 2198
130 2546
130 2836
130 2896
130 2940
130 2986
130 3149
130 3751
130 3841
130 3899
130 3902
130 3907
130 4050
130 4132
130 4254
130 4862
130 4922
131 519
131 580
131 821
131 1211
131 1438
131 1464
131 1589
131 1635
131 1705
131 1853
131 1872
131 1923
131 2463
131 2968
131 3166
131 3486
131 3642
131 3730
131 3824
131 3854
131 4066
131 4209
131 4321
131 4975
132 231
132 551
132 1033
132 2038
132 2156
132 2320
132 2713
132 2830
132 3016
132 3044
132 3068
132 3133
132 3361
132 3372
132 4103
132 4816
133 174
133 262
133 309
133 659
133 891
133 898
133 1379
133 1441
133 1515
133 2162
133 2189
133 2396
133 2506
133 2950
133 2994
133 3313
133 3346
133 4243
133 4294
133 4326
133 4538
133 4979
134 620
134 709
134 773
134 791
134 794
134 1193
134 1370
134 2124
134 2149
134 2724
134 2879
134 3246
134 3346
134 3507
134 3630
134 3654
134 3915
134 3925
134 4850
134 4982
135 333
135 348
135 371
135 447
135 659
135 874
135 943
135 959
135 980
135 1079
135 1109
135 1502
135 1827
135 2987
135 3119
135 3124
135 3832
135 3890
135 3949
135 4208
135 4831
135 4857
136 1105
136 1184
136 1405
136 1735
136 1964
136 2109
136 2167
136 2271
136 2278
136 2448
136 3020
136 3247
136 3472
136 3694
136 4032
136 4206
136 4633
137 203
137 267
137 557
137 785
137 948
137 1050
137 1194
137 1218
137 1248
137 1261
137 1773
137 1810
137 2096
137 2135
137 2190
137 2768
137 3167
137 3644
137 3833
137 4036
137 4135
137 4456
138 167
138 214
138 350
138 553
138 599
138 1040
138 1062
138 1124
138 1284
138 1841
138 2069
138 2110
138 2298
138 2427
138 2551
138 2597
138 2865
138 3126
138 3690
138 4175
138 4200
138 4253
138 4258
138 4565
138 4972
139 217
139 360
139 396
139 409
139 2115
139 2148
139 2419
139 2651
139 3188
139 3562
139 3694
139 3810
139 3934
139 4151
139 4727
140 222
140 427
140 717
140 850
140 1268
140 1688
140 1939
140 2382
140 2522
140 2687
140 2936
140 4829
140 4890
140 4912
140 4970
141 142
141 299
141 341
141 368
141 576
141 581
141 586
141 751
141 922
141 1240
141 1615
141 1626
141 1633
141 2164
141 2273
141 2332
141 2445
141 2550
141 2709
141 3340
141 3426
141 3583
141 3793
141 4150
141 4167
141 4230
141 4389
141 4397
141 4626
141 4674
141 4675
141 4705
141 4975
142 305
142 581
142 638
142 1615
142 1636
142 1929
142 2164
142 2675
142 3651
142 3659
142 3953
142 4582
142 4674
143 148
143 217
143 519
143 615
143 676
143 1020
143 1406
143 2063
143 2210
143 2506
143 2950
143 3212
143 3233
143 3313
143 3469
143 4113
143 4984
143 4990
143 4995
144 404
144 434
144 711
144 856
144 990
144 1069
144 1944
144 2062
144 2980
144 3372
144 3705
144 3711
144 4096
144 4103
144 4944
145 208
145 264
145 339
145 404
145 415
145 815
145 1306
145 1857
145 1868
145 2006
145 2300
145 2389
145 2857
145 2866
145 2987
145 3059
145 3230
145 3843
145 3879
145 3936
145 4096
145 4208
145 4259
145 4478
145 4501
145 4828
146 162
146 176
146 178
146 250
146 298
146 579
146 658
146 838
146 1118
146 1267
146 1349
146 1692
146 2161
146 2202
146 2227
146 2317
146 2319
146 2368
146 2376
146 2470
146 2543
146 2696
146 2782
146 2911
146 3306
146 3347
146 3434
146 3687
146 3775
146 3874
146 3885
146 4177
146 4198
146 4238
146 4297
146 4345
146 4432
146 4724
146 4779
146 4932
146 4970
147 271
147 483
147 489
147 536
147 867
147 870
147 930
147 959
147 1132
147 1271
147 1273
147 1306
147 1897
147 2078
147 2098
147 2320
147 3119
147 3227
147 3653
147 3658
147 3840
147 3859
147 3971
147 4096
147 4103
147 4105
147 4637
147 4944
148 217
148 227
148 326
148 381
148 957
148 983
148 1136
148 1331
148 1379
148 1476
148 1524
148 1676
148 1983
148 2835
148 2947
148 2994
148 3204
148 3260
148 3272
148 3313
148 3455
148 3908
148 3991
148 4003
148 4102
148 4250
148 4438
148 4491
148 4712
148 4990
149 185
149 268
149 356
149 519
149 647
149 848
149 961
149 1047
149 1089
149 1142
149 1195
149 1217
149 1396
149 1438
149 1464
149 1513
149 1617
149 1635
149 1657
149 1699
149 1710
149 1798
149 1858
149 1881
149 1941
149 1942
149 1943
149 2463
149 2499
149 2698
149 2993
149 2999
149 3071
149 3078
149 3100
149 3171
149 3202
149 3224
149 3387
149 3533
149 3588
149 3663
149 3698
149 3734
149 3758
149 3839
149 3922
149 3965
149 3988
149 4015
149 4044
149 4299
149 4328
149 4644
149 4678
149 4682
149 4991
150 536
150 678
150 942
150 2109
150 2278
150 2311
150 2326
150 2412
150 2909
150 3040
150 3208
150 3653
150 3724
150 3933
150 4170
150 4353
150 4633
150 4709
151 213
151 223
151 386
151 433
151 899
151 1724
151 1733
151 1759
151 1813
151 1940
151 1973
151 2107
151 2177
151 2686
151 2799
151 2951
151 3054
151 3234
151 3898
151 3905
151 3935
151 4011
151 4087
151 4094
151 4266
151 4340
151 4520
151 4814
152 213
152 442
152 560
152 780
152 1085
152 1406
152 1452
152 1747
152 1811
152 1910
152 1913
152 2170
152 2305
152 2321
152 2409
152 2432
152 2607
152 2758
152 2964
152 3129
152 3233
152 3421
152 3688
152 3822
152 3970
152 4138
152 4216
152 4243
152 4280
152 4330
152 4376
152 4493
152 4569
152 4575
152 4617
152 4875
153 188
153 617
153 687
153 748
153 774
153 1340
153 1590
153 2183
153 2240
153 2250
153 2283
153 2683
153 2759
153 3223
153 3341
153 3463
153 3625
153 4375
153 4602
153 4690
153 4716
153 4738
153 4777
153 4782
153 4921
154 466
154 619
154 725
154 819
154 958
154 1065
154 1244
154 1289
154 1745
154 1872
154 1900
154 1974
154 2188
154 2396
154 2410
154 2652
154 2882
154 2954
154 3070
154 3169
154 3228
154 3313
154 3398
154 3526
154 3557
154 3632
154 3668
154 3739
154 3785
154 3927
154 3958
154 4129
154 4485
154 4539
154 4547
154 4610
154 4696
154 4915
154 4996
155 689
155 811
155 921
155 1044
155 1158
155 1186
155 1690
155 1717
155 1815
155 2428
155 2600
155 3081
155 3753
155 4445
155 4543
155 4726
156 242
156 281
156 318
156 512
156 685
156 1028
156 1076
156 1382
156 2023
156 2184
156 2198
156 2310
156 2755
156 2798
156 2868
156 2929
156 3766
156 3818
156 4132
156 4380
156 4409
157 162
157 178
157 236
157 579
157 636
157 854
157 1130
157 1264
157 1727
157 2150
157 2199
157 2258
157 2289
157 2322
157 2722
157 2862
157 3101
157 3481
157 3671
157 3885
157 4177
157 4238
157 4345
157 4417
157 4724
158 517
158 587
158 919
158 1485
158 1486
158 2050
158 2103
158 2498
158 2547
158 2587
158 2644
158 2671
158 2729
158 2775
158 2933
158 3554
158 3560
158 4166
158 4479
158 4542
158 4611
158 4622
159 280
159 310
159 426
159 838
159 1087
159 1459
159 1841
159 2150
159 2161
159 2317
159 2695
159 3361
159 3874
159 4238
159 4723
160 373
160 658
160 831
160 1038
160 1130
160 1264
160 2106
160 2150
160 2199
160 2258
160 2322
160 2708
160 3306
160 3347
160 3434
160 4177
160 4198
160 4257
160 4323
160 4345
160 4417
160 4432
160 4468
160 4723
160 4744
161 276
161 278
161 532
161 823
161 831
161 997
161 1003
161 1116
161 1292
161 1296
161 1720
161 1770
161 1802
161 1869
161 1893
161 2042
161 2086
161 2198
161 2206
161 2333
161 2335
161 2466
161 2485
161 2500
161 2582
161 2727
161 2750
161 2836
161 2920
161 3001
161 3084
161 3219
161 3251
161 3318
161 3783
161 3818
161 4071
161 4088
161 4570
162 178
162 236
162 269
162 482
162 579
162 585
162 673
162 1038
162 1087
162 1118
162 1201
162 1442
162 2319
162 3306
162 3481
162 3736
162 4297
162 4357
162 4701
162 4724
163 329
163 352
163 706
163 753
163 1489
163 1802
163 1840
163 1903
163 1907
163 1918
163 2184
163 2800
163 2814
163 2836
163 2962
163 3043
163 3172
163 3318
163 3415
163 3581
163 3947
163 4844
164 174
164 179
164 265
164 315
164 419
164 909
164 1676
164 1950
164 2143
164 2352
164 2629
164 2959
164 2963
164 3008
164 3047
164 3213
164 3848
164 3937
164 4466
164 4594
165 740
165 1038
165 1409
165 1619
165 1822
165 1908
165 1961
165 2005
165 2028
165 2089
165 2094
165 2177
165 2777
165 2912
165 3211
165 3255
165 3282
165 3634
165 3857
165 3905
165 4199
165 4352
165 4440
165 4605
165 4751
165 4818
165 4819
166 1262
166 1545
166 1650
166 1722
166 1850
166 2916
166 3078
166 3151
166 3224
166 3435
166 3458
166 3486
166 3533
166 3730
166 3839
166 3844
166 3928
166 4015
166 4328
166 4371
166 4511
166 4531
166 4933
166 4977
167 226
167 591
167 612
167 868
167 1062
167 1358
167 1388
167 1510
167 1556
167 1748
167 1777
167 2080
167 2097
167 2180
167 2272
167 2298
167 2589
167 3088
167 3155
167 3614
167 3647
167 3680
167 4144
167 4200
167 4253
167 4694
167 4702
167 4838
167 4839
167 4972
168 231
168 286
168 291
168 301
168 412
168 438
168 468
168 520
168 684
168 743
168 769
168 831
168 917
168 1170
168 1228
168 1395
168 1684
168 1735
168 1830
168 1835
168 2041
168 2163
168 2169
168 2264
168 2295
168 2314
168 2731
168 2935
168 3249
168 3268
168 3394
168 3543
168 3699
168 3894
168 3942
168 4217
168 4468
168 4512
168 4517
168 4793
168 4875
168 4957
169 792
169 938
169 1413
169 1542
169 2105
169 2458
169 2477
169 2593
169 2829
169 2983
169 3235
169 3967
169 4225
169 4281
169 4928
170 628
170 703
170 805
170 1154
170 1426
170 1518
170 1531
170 1550
170 1597
170 1648
170 1704
170 1787
170 2579
170 2621
170 2701
170 2885
170 3046
170 3147
170 3412
170 3448
170 3776
170 3842
170 4081
170 4634
170 4689
170 4795
170 4808
170 4870
170 4947
171 208
171 303
171 543
171 602
171 704
171 726
171 1072
171 1231
171 1619
171 2147
171 2186
171 2736
171 3640
171 4142
171 4168
171 4818
172 233
172 307
172 727
172 1313
172 1575
172 1604
172 2038
172 2075
172 2197
172 2329
172 2726
172 3473
172 3760
172 4240
172 4271
173 188
173 205
173 261
173 630
173 679
173 728
173 1340
173 1590
173 1607
173 1993
173 2225
173 2495
173 2688
173 4169
173 4186
173 4241
173 4398
173 4777
174 361
174 611
174 978
174 994
174 1064
174 1087
174 1677
174 1905
174 1936
174 1983
174 2036
174 2162
174 2189
174 2476
174 2548
174 2627
174 2963
174 3272
174 3788
174 4243
174 4581
174 4967
174 4979
174 4994
175 250
175 351
175 639
175 889
175 1571
175 1693
175 1781
175 1803
175 1818
175 2120
175 2410
175 2450
175 2519
175 2579
175 2720
175 2827
175 2970
175 3073
175 3095
175 3264
175 3410
175 4327
175 4400
175 4429
175 4477
175 4569
175 4575
175 4744
176 178
176 579
176 658
176 1087
176 1254
176 1349
176 1838
176 1899
176 2543
176 2696
176 3199
176 3885
176 4034
176 4184
176 4238
176 4421
177 297
177 346
177 457
177 569
177 596
177 632
177 699
177 949
177 1012
177 1068
177 1192
177 1451
177 1498
177 1503
177 1795
177 2129
177 2242
177 2479
177 2509
177 2518
177 2608
177 2620
177 2658
177 2732
177 2815
177 2821
177 3142
177 3225
177 3505
177 3515
177 3593
177 3594
177 3719
177 4059
177 4124
177 4128
177 4239
177 4283
177 4306
177 4363
177 4454
177 4468
177 4584
177 4600
177 4649
177 4665
177 4760
177 4858
177 4956
178 208
178 236
178 579
178 1069
178 1087
178 1186
178 1692
178 1838
178 2150
178 2161
178 2199
178 2289
178 2319
178 2368
178 2376
178 2470
178 2696
178 2708
178 2722
178 3199
178 3205
178 3347
178 3687
178 3775
178 3867
178 3885
178 4257
178 4297
178 4345
178 4701
178 4875
178 4932
179 228
179 487
179 659
179 994
179 1123
179 1171
179 1357
179 1519
179 1564
179 1983
179 2057
179 2238
179 2282
179 2572
179 2595
179 2625
179 2756
179 2963
179 3008
179 3047
179 3204
179 3212
179 3372
179 3455
179 3527
179 3581
179 3730
179 3950
179 3990
179 4026
179 4033
179 4082
179 4113
179 4215
179 4294
179 4319
179 4326
179 4401
179 4805
179 4995
180 222
180 228
180 519
180 707
180 1047
180 1195
180 1536
180 1650
180 1678
180 1827
180 2261
180 2311
180 2489
180 2499
180 2531
180 3013
180 3250
180 3370
180 3374
180 3416
180 3617
180 3698
180 4067
180 4164
180 4282
180 4586
181 329
181 803
181 823
181 1292
181 1613
181 1786
181 1869
181 1903
181 2265
181 2310
181 2318
181 2353
181 3172
181 3251
181 3290
181 3770
181 4442
181 4570
181 4791
181 4824
181 4850
182 205
182 358
182 774
182 902
182 1117
182 1607
182 1888
182 2882
182 3018
182 3332
182 4186
182 4196
182 4375
182 4472
182 4690
182 4716
182 4798
183 187
183 231
183 244
183 412
183 1228
183 1274
183 1395
183 1577
183 1652
183 1830
183 2164
183 2698
183 2703
183 2731
183 2849
183 3123
183 3646
183 3782
183 3894
183 3942
183 4204
183 4269
183 4451
183 4876
184 579
184 893
184 1130
184 1201
184 1538
184 1899
184 2161
184 2199
184 2708
184 3687
184 3874
184 4177
184 4224
184 4238
184 4297
184 4345
184 4701
184 4724
184 4779
185 311
185 331
185 492
185 920
185 961
185 1047
185 1199
185 1209
185 1262
185 1375
185 1421
185 1722
185 2491
185 2894
185 3031
185 3057
185 3257
185 3335
185 3345
185 3435
185 3651
185 3715
185 3989
185 4288
185 4313
185 4410
185 4585
186 244
186 247
186 366
186 412
186 438
186 741
186 1086
186 1228
186 1435
186 1499
186 1713
186 1835
186 2940
186 3123
186 3394
186 3782
186 4512
186 4848
186 4985
187 219
187 301
187 323
187 438
187 1395
187 1499
187 1652
187 1898
187 2431
187 2722
187 4178
187 4287
187 4451
187 4569
187 4633
187 4793
187 4875
188 592
188 617
188 687
188 825
188 834
188 902
188 1153
188 1182
188 1590
188 1659
188 1888
188 2080
188 2183
188 2225
188 2287
188 2413
188 3223
188 3332
188 3463
188 3490
188 3767
188 3791
188 4241
188 4338
188 4398
188 4406
188 4490
188 4685
188 4777
188 4863
189 191
189 224
189 507
189 727
189 1604
189 1609
189 2038
189 2467
189 2533
189 2948
189 3277
189 3473
189 3536
189 4053
189 4242
189 4305
189 4998
190 213
190 215
190 250
190 293
190 367
190 473
190 480
190 494
190 533
190 680
190 694
190 780
190 1017
190 1102
190 1107
190 1155
190 1187
190 1207
190 1251
190 1374
190 1384
190 1400
190 1455
190 1571
190 1628
190 1637
190 1658
190 1783
190 1792
190 2016
190 2088
190 2120
190 2138
190 2154
190 2252
190 2433
190 2571
190 2671
190 2742
190 2964
190 2970
190 3073
190 3094
190 3173
190 3259
190 3262
190 3300
190 3535
190 3536
190 3568
190 3570
190 3605
190 3635
190 3645
190 3723
190 3764
190 3974
190 3984
190 4033
190 4101
190 4138
190 4216
190 4292
190 4330
190 4331
190 4429
190 4469
190 4483
190 4489
190 4548
190 4699
190 4710
190 4772
190 4784
190 4805
190 4839
190 4893
190 4913
190 4935
190 4948
191 307
191 351
191 446
191 507
191 727
191 1203
191 1470
191 1575
191 1604
191 2038
191 2197
191 2329
191 2346
191 2726
191 2948
191 3229
191 3277
191 3511
191 3697
191 3837
191 4053
191 4238
191 4240
191 4242
191 4271
191 4290
191 4305
191 4436
191 4590
192 337
192 462
192 593
192 624
192 866
192 1418
192 1444
192 1642
192 2136
192 2478
192 2482
192 2565
192 2660
192 4469
192 4504
192 4737
192 4883
193 356
193 430
193 1032
193 1211
193 1230
193 1397
193 1617
193 1811
193 1872
193 2022
193 2438
193 2877
193 2880
193 2906
193 2916
193 2981
193 3141
193 3201
193 3232
193 3409
193 3431
193 3509
193 3928
193 4066
193 4179
193 4288
193 4553
193 4933
194 223
194 405
194 1127
194 1882
194 2186
194 2215
194 2333
194 2807
194 2854
194 2881
194 3083
194 3575
194 3857
194 3882
194 4001
194 4002
194 4085
194 4119
194 4199
194 4818
194 4986
195 260
195 380
195 479
195 565
195 842
195 971
195 1119
195 1323
195 1385
195 1389
195 1632
195 1915
195 2084
195 2451
195 2525
195 2825
195 3338
195 3376
195 3401
195 3524
195 3565
195 4296
195 4731
196 275
196 407
196 499
196 535
196 680
196 720
196 1150
196 1491
196 1782
196 1811
196 1955
196 1986
196 2046
196 2391
196 2433
196 2516
196 2557
196 2634
196 2720
196 2728
196 2979
196 3030
196 3048
196 3072
196 3549
196 3637
196 3700
196 4089
196 4214
196 4498
196 4509
196 4699
196 4725
196 4869
197 627
197 871
197 911
197 1249
197 1393
197 1419
197 1836
197 2077
197 2520
197 2667
197 2838
197 3011
197 3046
197 3053
197 3145
197 3163
197 3804
197 4061
197 4233
197 4598
197 4634
197 4852
197 4988
198 1163
198 1202
198 1300
198 1581
198 1846
198 2116
198 2834
198 2867
198 2921
198 3096
198 3110
198 3124
198 3214
198 3446
198 3514
198 3746
198 3773
198 3870
198 3892
198 4064
198 4179
198 4680
198 4699
198 4856
198 4895
199 416
199 781
199 1122
199 1917
199 2570
199 2734
199 3606
199 3732
199 3863
199 3868
199 3953
199 3999
199 4115
199 4153
199 4314
199 4337
199 4433
199 4516
199 4552
199 4574
199 4669
199 4834
200 224
200 576
200 581
200 670
200 922
200 1615
200 1626
200 2830
200 3008
200 3651
200 3979
200 4674
200 4961
201 638
201 1626
201 1633
201 2252
201 2405
201 2424
201 3691
201 3793
201 4268
201 4582
201 4780
201 4963
202 383
202 544
202 621
202 837
202 960
202 1014
202 1869
202 2127
202 2377
202 3087
202 3198
202 4143
202 4771
202 4945
203 216
203 267
203 557
203 614
203 1218
203 1241
203 1261
203 1298
203 1810
203 1856
203 1901
203 2093
203 2096
203 2135
203 2325
203 2479
203 2573
203 2736
203 2762
203 3073
203 3153
203 3467
203 3728
203 4168
203 4456
203 4656
203 4728
203 4733
203 4748
204 356
204 535
204 639
204 984
204 1147
204 1205
204 1501
204 1754
204 1781
204 1811
204 2138
204 2305
204 2444
204 2655
204 2765
204 3094
204 3120
204 3178
204 3513
204 4101
204 4214
204 4285
205 209
205 358
205 825
205 1153
205 1479
205 1941
205 2196
205 2240
205 2802
205 3223
205 3305
205 3332
205 4304
205 4472
205 4490
205 4685
205 4690
206 290
206 713
206 730
206 1039
206 1111
206 1546
206 4292
206 4379
206 4562
206 4615
206 4681
206 4811
207 285
207 395
207 471
207 1275
207 1549
207 1614
207 2061
207 2085
207 2276
207 2301
207 2324
207 2373
207 2539
207 2606
207 2635
207 3154
207 3302
207 3327
207 3444
207 3454
207 3520
207 4262
207 4530
207 4649
207 4688
207 4707
207 4944
208 241
208 867
208 992
208 1305
208 1619
208 1778
208 1925
208 2228
208 2807
208 2824
208 3093
208 3424
208 4001
208 4097
208 4119
208 4212
208 4593
208 4876
209 365
209 578
209 589
209 617
209 728
209 1659
209 1888
209 2495
209 2931
209 3334
209 3594
209 4169
209 4375
209 4406
209 4430
209 4685
210 800
210 1003
210 1037
210 1489
210 1765
210 1903
210 1990
210 2012
210 2076
210 2202
210 2310
210 2500
210 2580
210 3039
210 3118
210 3251
210 3766
210 3908
210 4544
210 4625
210 4862
211 416
211 417
211 589
211 1448
211 1812
211 2112
211 2152
211 2229
211 2992
211 3319
211 3631
211 3868
211 4524
211 4650
211 4662
211 4841
212 248
212 369
212 459
212 1123
212 1415
212 1445
212 1542
212 1638
212 1695
212 1736
212 1872
212 2105
212 2155
212 2313
212 2426
212 2436
212 2477
212 2518
212 2569
212 2593
212 2943
212 2949
212 2956
212 3391
212 3447
212 3908
212 4100
212 4307
213 275
213 444
213 788
213 909
213 1374
213 1400
213 2077
213 2555
213 2564
213 2582
213 2628
213 2742
213 2758
213 3037
213 3637
213 3755
213 4105
213 4156
213 4214
213 4736
213 4744
213 4763
213 4936
214 337
214 524
214 599
214 698
214 986
214 1388
214 1421
214 1548
214 1556
214 1841
214 2272
214 2551
214 2589
214 2979
214 3647
214 3966
214 4200
214 4258
214 4839
214 4972
215 278
215 382
215 407
215 494
215 1007
215 1279
215 1326
215 1558
215 1754
215 2077
215 2639
215 2818
215 2840
215 3137
215 3178
215 3222
215 3568
215 4052
215 4139
215 4160
215 4229
215 4293
215 4301
215 4330
215 4354
215 4572
215 4619
215 4805
216 267
216 557
216 666
216 785
216 911
216 1261
216 1295
216 1336
216 1647
216 1810
216 1901
216 2191
216 2732
216 2764
216 3153
216 3194
216 3292
216 3364
216 3467
216 3622
216 3644
216 3722
216 4135
216 4168
216 4295
216 4510
216 4728
216 4748
217 238
217 326
217 445
217 487
217 563
217 676
217 978
217 983
217 1092
217 1155
217 1379
217 1950
217 2000
217 2167
217 2302
217 2334
217 2336
217 2443
217 2959
217 2994
217 3346
217 4197
217 4243
217 4250
217 4269
217 4452
217 4594
217 4959
217 4974
218 365
218 825
218 1117
218 1590
218 1659
218 2225
218 2240
218 2408
218 2464
218 2624
218 2681
218 3332
218 3767
218 3921
218 4273
218 4338
218 4375
218 4398
218 4472
218 4490
218 4685
218 4704
218 4716
218 4798
219 244
219 288
219 301
219 414
219 769
219 1170
219 1186
219 1274
219 1684
219 1898
219 2288
219 2314
219 2431
219 3268
219 3391
219 4204
219 4451
219 4793
219 4875
220 270
220 377
220 497
220 677
220 975
220 1183
220 1235
220 1392
220 1439
220 1505
220 2204
220 2257
220 2359
220 2367
220 2393
220 2446
220 2497
220 2635
220 3154
220 3444
220 3520
220 4108
220 4464
220 4511
220 4688
221 246
221 417
221 1027
221 1379
221 1716
221 2096
221 2229
221 2946
221 3489
221 3893
221 3999
221 4115
221 4431
222 850
222 999
222 1688
222 2382
222 2640
222 2718
222 3036
222 3544
222 3664
222 3666
222 3667
222 4173
222 4855
222 4890
222 4912
223 240
223 241
223 357
223 726
223 972
223 1106
223 1113
223 1224
223 1908
223 1925
223 2091
223 2094
223 2107
223 2205
223 2215
223 2295
223 2635
223 2753
223 2770
223 2807
223 2881
223 2884
223 2922
223 2960
223 2967
223 2997
223 3076
223 3252
223 3263
223 3764
223 3857
223 4199
223 4212
223 4541
223 4632
223 4992
224 406
224 453
224 507
224 651
224 727
224 1604
224 2726
224 3258
224 4242
224 4305
224 4522
225 287
225 555
225 912
225 1141
225 1460
225 1754
225 1782
225 2170
225 2765
225 3077
225 3129
225 3487
225 3714
225 3807
225 4293
225 4400
225 4885
225 4935
226 524
226 599
226 1080
226 2095
226 2272
226 2865
226 3222
226 3341
226 3647
226 4839
227 315
227 419
227 676
227 1114
227 1373
227 1476
227 1891
227 2055
227 2118
227 2297
227 3632
227 4319
227 4325
227 4538
228 234
228 238
228 315
228 381
228 419
228 487
228 556
228 563
228 615
228 676
228 936
228 957
228 970
228 1171
228 1357
228 1420
228 1564
228 1891
228 1936
228 1976
228 1983
228 1998
228 2055
228 2066
228 2072
228 2081
228 2097
228 2168
228 2302
228 2342
228 2439
228 2476
228 2506
228 2572
228 2595
228 2629
228 2947
228 2950
228 3204
228 3212
228 3342
228 3941
228 3950
228 3960
228 4026
228 4120
228 4121
228 4250
228 4401
228 4466
228 4491
228 4712
228 4967
229 452
229 456
229 674
229 982
229 1925
229 2001
229 2071
229 2094
229 2147
229 2224
229 2891
229 2904
229 2952
229 3074
229 3323
229 3599
229 3821
229 3834
229 3969
229 4002
229 4062
229 4147
229 4245
229 4286
229 4440
229 4992
230 821
230 1121
230 1411
230 1469
230 1589
230 1596
230 1617
230 1858
230 1872
230 1932
230 1937
230 2699
230 3013
230 3100
230 3141
230 3485
230 3784
230 3861
230 3928
230 4035
230 4044
230 4508
230 4529
230 4615
230 4942
231 235
231 517
231 917
231 1652
231 2698
231 3123
231 3249
231 3294
231 3367
231 4269
231 4848
231 4875
232 696
232 1108
232 1212
232 1219
232 2167
232 2216
232 2278
232 3472
232 3572
232 4032
232 4170
232 4312
232 4353
232 4527
232 4633
232 4786
233 569
233 596
233 1068
233 1120
233 1243
233 2481
233 3594
233 4021
233 4054
233 4114
233 4125
233 4239
233 4649
233 4797
234 262
234 315
234 429
234 1963
234 2300
234 2334
234 2476
234 2756
234 2947
234 2950
234 2963
234 3269
234 3313
234 4197
234 4294
234 4319
234 4326
234 4388
235 247
235 669
235 743
235 1005
235 1170
235 1342
235 1641
235 1652
235 1684
235 1898
235 2169
235 2288
235 2420
235 2538
235 2698
235 2935
235 3123
235 3265
235 3394
235 4208
235 4217
235 4451
235 4496
235 4848
235 4875
235 4966
236 1118
236 1349
236 1715
236 2289
236 2400
236 2695
236 2708
236 3142
236 3874
236 4224
236 4238
236 4257
236 4345
236 4386
236 4724
236 4779
236 4932
237 321
237 539
237 560
237 851
237 1007
237 2208
237 2234
237 2450
237 3073
237 3173
237 3214
237 3291
237 3300
237 3378
237 3676
237 3807
237 4330
237 4744
237 4801
237 4869
237 4936
238 615
238 891
238 920
238 1000
238 1092
238 1136
238 1524
238 1936
238 1981
238 2066
238 2097
238 2210
238 2297
238 2354
238 2395
238 2572
238 2601
238 2893
238 3212
238 3272
238 3313
238 3342
238 3384
238 3782
238 4003
238 4197
238 4325
238 4326
238 4438
238 4466
238 4491
238 4594
238 4903
238 4995
239 240
239 452
239 1106
239 1198
239 2102
239 2147
239 2177
239 2814
239 2881
239 2952
239 3211
239 3944
239 4119
239 4142
239 4199
239 4440
240 722
240 1127
240 1402
240 1508
240 1558
240 1619
240 1973
240 2094
240 2807
240 2824
240 2854
240 2904
240 2951
240 3263
240 3343
240 3599
240 3634
240 3816
240 3969
240 4094
240 4520
240 4632
240 4965
241 303
241 870
241 899
241 1072
241 1211
241 1231
241 1724
241 1743
241 1791
241 1845
241 1925
241 2089
241 2091
241 2149
241 2493
241 2777
241 2922
241 2951
241 2960
241 3769
241 3801
241 3821
241 3882
241 4001
241 4062
241 4488
241 4515
241 4520
241 4909
241 4992
242 735
242 803
242 996
242 1347
242 1353
242 1720
242 1766
242 1770
242 1990
242 2184
242 2507
242 2911
242 2940
242 2946
242 2974
242 3039
242 3415
242 3770
242 3891
242 4281
242 4526
242 4850
243 816
243 932
243 1561
243 1566
243 1595
243 1761
243 1905
243 2153
243 2296
243 2931
243 2945
243 2973
243 3049
243 4191
243 4889
244 301
244 323
244 412
244 429
244 438
244 640
244 743
244 769
244 1170
244 1435
244 1534
244 1652
244 1675
244 1686
244 2169
244 2314
244 2347
244 2431
244 2698
244 3123
244 3265
244 3268
244 3727
244 4348
244 4451
245 532
245 706
245 1076
245 1108
245 1657
245 1786
245 1918
245 2076
245 2086
245 2778
245 2940
245 2974
245 3084
245 3149
245 4219
245 4659
245 4861
246 378
246 417
246 457
246 998
246 1122
246 1291
246 1812
246 3213
246 3868
246 3999
246 4115
246 4339
246 4552
246 4976
247 366
247 741
247 1170
247 1435
247 1499
247 1713
247 2314
247 3123
247 3394
247 3699
247 3794
247 3894
247 4348
247 4451
247 4793
247 4875
248 1144
248 1210
248 1413
248 1415
248 1445
248 1542
248 1638
248 1736
248 2105
248 2155
248 2477
248 2593
248 2670
248 2717
248 2943
248 3447
248 4225
248 4611
248 4744
248 4928
249 713
249 715
249 807
249 963
249 989
249 1039
249 1315
249 1567
249 1804
249 1888
249 2039
249 2106
249 2178
249 2343
249 2603
249 2630
249 2847
249 3006
249 3060
249 3299
249 3339
249 3362
249 3365
249 3553
249 3848
249 4136
249 4379
249 4562
249 4673
249 4698
249 4760
249 4811
250 293
250 324
250 407
250 492
250 550
250 594
250 663
250 688
250 788
250 812
250 1309
250 1541
250 1559
250 1571
250 1781
250 1782
250 1785
250 1796
250 2071
250 2077
250 2096
250 2208
250 2255
250 2263
250 2305
250 2383
250 2450
250 2519
250 2566
250 2655
250 2689
250 2693
250 2742
250 3037
250 3245
250 3377
250 3508
250 3725
250 3748
250 3779
250 3916
250 3923
250 4148
250 4159
250 4182
250 4272
250 4304
250 4310
250 4354
250 4444
250 4573
250 4710
250 4783
251 436
251 683
251 758
251 1541
251 1558
251 1637
251 1772
251 1981
251 2120
251 2156
251 2208
251 2444
251 2742
251 2862
251 3069
251 3129
251 3421
251 3460
251 3702
251 3835
251 3967
251 4033
251 4139
251 4146
251 4719
251 4913
252 270
252 419
252 601
252 677
252 802
252 841
252 1310
252 1439
252 2221
252 2276
252 2349
252 2359
252 2373
252 2380
252 2446
252 2519
252 2792
252 3154
252 3236
252 3302
252 3325
252 3444
252 3968
252 4108
252 4333
252 4370
252 4528
252 4530
252 4608
253 954
253 958
253 964
253 1267
253 1774
253 1867
253 2633
253 2662
253 2835
253 3174
253 3324
253 3358
253 4005
253 4016
253 4116
253 4443
253 4587
253 4616
254 279
254 369
254 409
254 625
254 875
254 1322
254 1415
254 1542
254 2105
254 2426
254 2477
254 2486
254 2493
254 2943
254 2949
254 3764
254 4496
255 402
255 655
255 657
255 777
255 1139
255 1180
255 1672
255 1728
255 1911
255 1926
255 2083
255 2157
255 2264
255 2299
255 2458
255 2459
255 3295
255 3743
255 3869
255 3978
255 4109
255 4235
255 4344
255 4347
255 4606
256 471
256 570
256 629
256 710
256 841
256 1269
256 2276
256 2292
256 2301
256 2446
256 2836
256 3236
256 4267
256 4377
256 4678
257 1438
257 1596
257 1635
257 1701
257 1808
257 1831
257 1941
257 2499
257 2961
257 2968
257 3202
257 3335
257 3370
257 3387
257 3419
257 3428
257 3629
257 4164
257 4553
257 4612
257 4946
258 483
258 767
258 943
258 1132
258 1744
258 1859
258 2156
258 2374
258 2908
258 2996
258 3090
258 3119
258 3124
258 3569
258 4009
259 509
259 525
259 1436
259 2455
259 2648
259 2766
259 2864
259 3210
259 3276
259 3381
259 3615
259 3633
259 3640
259 3873
259 4072
259 4336
259 4344
259 4385
259 4411
259 4415
259 4889
259 4956
260 380
260 551
260 565
260 763
260 786
260 842
260 900
260 971
260 1011
260 1016
260 1098
260 1632
260 1805
260 1915
260 2053
260 2084
260 2523
260 2784
260 2788
260 2790
260 2823
260 2825
260 2861
260 2930
260 3338
260 3376
260 3401
260 3468
260 3565
260 3820
260 3904
260 4296
260 4308
260 4533
260 4686
260 4731
260 4881
260 4976
261 365
261 755
261 774
261 1888
261 2183
261 2240
261 2744
261 2802
261 3305
261 3332
261 3363
261 3463
261 4273
261 4304
261 4375
261 4921
262 265
262 635
262 659
262 936
262 970
262 978
262 994
262 1009
262 2118
262 2629
262 3022
262 3213
262 3776
262 4102
262 4121
262 4326
262 4438
263 312
263 566
263 573
263 574
263 1429
263 2284
263 2591
263 2795
263 3191
263 3354
263 3706
263 3727
263 3765
263 4008
263 4300
263 4323
263 4361
263 4487
263 4549
264 516
264 856
264 874
264 907
264 943
264 1033
264 1069
264 1306
264 1849
264 2039
264 2323
264 2996
264 3119
264 3133
264 3858
264 3981
264 4103
264 4302
264 4357
264 4418
265 326
265 335
265 381
265 419
265 676
265 847
265 920
265 957
265 989
265 1008
265 1009
265 1064
265 1123
265 1308
265 1379
265 1476
265 1983
265 1985
265 2057
265 2066
265 2072
265 2143
265 2238
265 2302
265 2352
265 2572
265 2629
265 2756
265 2810
265 2947
265 3204
265 3212
265 3233
265 3272
265 3313
265 3384
265 3950
265 3971
265 4026
265 4027
265 4068
265 4082
265 4102
265 4221
265 4358
265 4401
265 4990
265 4994
266 474
266 571
266 610
266 1083
266 1215
266 1238
266 1417
266 1704
266 2018
266 2515
266 2659
266 2667
266 2944
266 3254
266 3316
266 3412
266 3613
266 3697
266 3718
267 313
267 321
267 608
267 614
267 785
267 789
267 918
267 1126
267 1162
267 1194
267 1241
267 1248
267 1261
267 1298
267 1447
267 1647
267 1689
267 1773
267 1885
267 1901
267 1917
267 2093
267 2096
267 2135
267 2190
267 2253
267 2439
267 2636
267 2647
267 2669
267 2736
267 2768
267 2888
267 2930
267 3153
267 3292
267 3467
267 3496
267 3644
267 3833
267 4135
267 4295
267 4414
267 4656
267 4728
267 4733
268 1095
268 1096
268 1253
268 1277
268 1605
268 1710
268 1730
268 1881
268 2279
268 2836
268 2930
268 2968
268 3013
268 3370
268 3435
268 3449
268 3642
268 3851
268 4044
268 4313
268 4321
268 4350
268 4777
269 338
269 383
269 653
269 709
269 759
269 794
269 892
269 896
269 913
269 1133
269 1286
269 1444
269 1562
269 1587
269 1651
269 1702
269 1804
269 2056
269 2116
269 2181
269 2247
269 2354
269 2673
269 2684
269 2752
269 2797
269 2867
269 3219
269 3246
269 3348
269 3407
269 3514
269 3772
269 3954
269 4064
269 4093
269 4332
269 4695
269 4750
269 4810
269 4813
269 4895
269 4982
270 395
270 467
270 471
270 570
270 802
270 872
270 1002
270 1216
270 1232
270 1269
270 1275
270 1282
270 1312
270 1410
270 1439
270 1520
270 1598
270 1614
270 1673
270 1718
270 2324
270 2359
270 2369
270 2446
270 3123
270 3154
270 3312
270 3369
270 3454
270 3623
270 3939
270 4108
270 4247
270 4262
270 4356
270 4464
271 371
271 924
271 1160
271 1708
271 1806
271 1844
271 1866
271 1977
271 2098
271 2122
271 2300
271 2355
271 2367
271 2832
271 3090
271 3119
271 3361
271 3372
271 4043
271 4096
271 4208
271 4448
271 4919
272 499
272 504
272 792
272 1017
272 1187
272 1913
272 2604
272 2702
272 2720
272 2856
272 2890
272 3073
272 3378
272 3534
272 4138
272 4156
272 4412
272 4575
272 4710
272 4736
272 4812
272 4925
273 1224
273 1234
273 1759
273 2089
273 2205
273 2884
273 2891
273 2904
273 4004
273 4034
273 4119
273 4814
274 430
274 823
274 981
274 1047
274 1075
274 1089
274 1217
274 1545
274 1932
274 2185
274 2618
274 2699
274 2873
274 2916
274 3034
274 3257
274 3370
274 3387
274 3428
274 3533
274 3649
274 3824
274 3928
275 296
275 474
275 531
275 984
275 1279
275 1571
275 1637
275 1697
275 1764
275 2305
275 2337
275 2444
275 2639
275 2690
275 3094
275 3223
275 3281
275 3421
275 3459
275 3485
275 3487
275 3568
275 3605
275 3807
275 3984
275 4029
275 4146
275 4160
275 4174
275 4272
275 4293
275 4608
275 4710
275 4736
275 4812
276 306
276 532
276 706
276 1063
276 1082
276 1489
276 1765
276 1843
276 1893
276 2655
276 2808
276 2836
276 2986
276 3251
276 3289
276 3415
276 3554
276 3908
276 4526
276 4824
276 4861
276 4884
276 4926
276 4987
277 788
277 1107
277 1207
277 1637
277 1869
277 2170
277 2219
277 2293
277 2691
277 2840
277 3030
277 3038
277 3127
277 3128
277 3568
277 3635
277 3748
277 3764
277 3975
277 4138
277 4159
277 4160
277 4354
277 4412
277 4617
278 306
278 669
278 735
278 831
278 1768
278 1770
278 1784
278 1788
278 1938
278 2088
278 2310
278 2401
278 2778
278 2836
278 2940
278 3251
278 3290
278 3415
278 3972
278 4263
278 4264
278 4382
278 4527
278 4850
278 4861
278 4884
279 938
279 1638
279 2155
279 2477
279 2493
279 2717
279 2943
279 3369
279 3447
279 4492
279 4740
280 298
280 579
280 968
280 1087
280 1118
280 1201
280 1618
280 1746
280 2199
280 2319
280 2722
280 2782
280 3041
280 3385
280 4198
280 4238
280 4257
280 4779
280 4932
281 442
281 685
281 690
281 711
281 753
281 803
281 869
281 997
281 1082
281 1116
281 1188
281 1292
281 1611
281 1714
281 1719
281 1765
281 1766
281 1784
281 1790
281 1816
281 1832
281 1840
281 1879
281 1946
281 1990
281 2012
281 2047
281 2184
281 2202
281 2212
281 2274
281 2318
281 2335
281 2401
281 2507
281 2546
281 2625
281 2760
281 2800
281 2814
281 2920
281 2974
281 3003
281 3043
281 3179
281 3289
281 3542
281 3696
281 3751
281 3777
281 3841
281 3891
281 3896
281 3959
281 3972
281 3975
281 4006
281 4019
281 4055
281 4071
281 4148
281 4155
281 4219
281 4382
281 4473
281 4507
281 4526
281 4570
281 4647
281 4659
281 4861
281 4862
281 4884
281 4918
281 4926
282 411
282 664
282 1036
282 2008
282 2109
282 2130
282 2216
282 2840
282 3150
282 3208
282 4040
282 4090
282 4189
282 4315
282 4827
283 413
283 513
283 517
283 584
283 587
283 1056
283 1485
283 1683
283 2051
283 2580
283 2712
283 2729
283 2933
283 3543
283 3713
283 4069
283 4556
283 4629
283 4666
284 298
284 579
284 658
284 1201
284 1838
284 2258
284 2368
284 2376
284 2465
284 3145
284 4345
284 4701
284 4724
284 4779
284 4864
284 4932
285 395
285 629
285 1079
285 1235
285 1360
285 1439
285 1487
285 2065
285 2204
285 2221
285 2276
285 2359
285 2605
285 2606
285 3236
285 3400
285 3520
285 4292
285 4303
285 4528
285 4678
286 323
286 366
286 412
286 669
286 1170
286 1830
286 1902
286 2553
286 2703
286 2872
286 3812
286 3894
286 3942
286 4340
286 4451
286 4848
286 4957
287 318
287 685
287 753
287 803
287 1116
287 1784
287 1888
287 1918
287 2047
287 2086
287 2555
287 2808
287 2814
287 2836
287 2882
287 2895
287 2946
287 3318
287 3329
287 3415
287 4351
287 4473
287 4507
287 4993
288 412
288 1274
288 1652
288 1675
288 2060
288 2431
288 2703
288 4204
288 4680
288 4793
288 4848
288 4875
288 4948
288 4966
289 668
289 820
289 1311
289 1637
289 2207
289 2300
289 2345
289 3080
289 3252
289 3429
289 3471
289 3591
289 4369
289 4372
289 4514
289 4873
290 1039
290 1111
290 1250
290 1288
290 1315
290 2106
290 2847
290 3024
290 3299
290 3339
290 3365
290 3838
290 3848
290 4512
290 4560
290 4615
290 4769
290 4811
290 4954
290 4997
291 515
291 736
291 871
291 1249
291 1426
291 1511
291 1671
291 1824
291 2386
291 2574
291 2615
291 2680
291 2838
291 3271
291 3453
291 3469
291 3696
291 3951
291 4008
291 4418
291 4567
292 412
292 438
292 741
292 769
292 1713
292 1714
292 1835
292 1898
292 3123
292 3265
292 3699
292 3708
292 3812
292 4069
292 4204
292 4269
292 4287
292 4680
292 4875
292 4957
293 296
293 434
293 488
293 1333
293 1755
293 1803
293 1811
293 1927
293 1986
293 2321
293 2639
293 3127
293 3359
293 3416
293 3570
293 3723
293 3750
293 4342
293 4404
293 4407
293 4477
293 4823
293 4971
294 319
294 706
294 875
294 938
294 1296
294 1415
294 1433
294 1445
294 1566
294 2105
294 2426
294 2436
294 2493
294 2569
294 2943
294 2956
294 4307
294 4740
295 497
295 499
295 531
295 639
295 695
295 909
295 1155
295 1376
295 1400
295 1501
295 1513
295 1818
295 1861
295 2559
295 2564
295 2689
295 2827
295 2846
295 3077
295 3132
295 3245
295 3281
295 3359
295 3446
295 3538
295 3631
295 3635
295 3637
295 3748
295 3755
295 3914
295 4036
295 4341
295 4400
295 4404
295 4569
295 4576
296 436
296 694
296 792
296 912
296 984
296 1102
296 1107
296 1115
296 1169
296 1205
296 1207
296 1456
296 1534
296 1541
296 1559
296 1627
296 1634
296 1698
296 1792
296 1811
296 1847
296 1927
296 2053
296 2057
296 2140
296 2146
296 2255
296 2256
296 2280
296 2305
296 2346
296 2374
296 2450
296 2476
296 2504
296 2559
296 2679
296 2742
296 2859
296 2862
296 2903
296 3094
296 3185
296 3196
296 3206
296 3416
296 3421
296 3460
296 3536
296 3549
296 3568
296 3570
296 3635
296 3748
296 3822
296 3835
296 3984
296 4047
296 4089
296 4334
296 4391
296 4469
296 4532
296 4618
296 4691
296 4692
296 4763
296 4801
296 4805
296 4806
296 4847
296 4931
296 4998
297 406
297 457
297 569
297 2223
297 2620
297 2786
297 3148
297 3313
297 3594
297 3621
297 3760
297 4114
297 4157
297 4279
297 4306
297 4409
297 4649
298 585
298 636
298 838
298 1087
298 1163
298 2150
298 2161
298 2319
298 2368
298 2535
298 2695
298 2722
298 3027
298 3199
298 3205
298 3347
298 3775
298 3874
298 4177
298 4238
298 4345
298 4663
299 350
299 581
299 856
299 922
299 1240
299 1626
299 1671
299 1805
299 2114
299 2243
299 2550
299 2828
299 3964
299 4150
299 4382
300 633
300 1094
300 1163
300 1286
300 1370
300 1560
300 1687
300 1923
300 2155
300 2176
300 2656
300 2684
300 2741
300 2831
300 3029
300 3062
300 3160
300 3193
300 3200
300 3491
300 3803
300 4054
300 4810
300 4891
300 4982
301 429
301 435
301 438
301 640
301 669
301 684
301 769
301 917
301 979
301 1003
301 1160
301 1547
301 1652
301 1797
301 1835
301 1898
301 2169
301 2200
301 2314
301 2347
301 2431
301 2538
301 4015
301 4236
301 4287
301 4331
301 4451
301 4512
301 4793
301 4875
301 4987
302 528
302 546
302 547
302 588
302 1394
302 1576
302 1864
302 2461
302 2723
302 2907
302 3886
302 3901
302 3956
302 4037
302 4140
302 4658
302 4899
303 939
303 1726
303 1778
303 1951
303 2228
303 2342
303 2856
303 2881
303 3234
303 3255
303 3560
303 3599
303 3670
303 3898
303 3944
303 3958
303 4002
303 4142
303 4355
304 1003
304 1082
304 1709
304 1869
304 1907
304 2015
304 2042
304 2100
304 2184
304 2335
304 2507
304 2836
304 2902
304 2940
304 3040
304 3084
304 3149
304 3908
304 4183
304 4264
304 4473
304 4505
305 340
305 477
305 1640
305 2468
305 2600
305 3117
305 3279
305 3609
305 4117
305 4428
306 433
306 997
306 1028
306 1037
306 1709
306 1965
306 1988
306 2098
306 2310
306 2318
306 2401
306 2750
306 2902
306 2962
306 2971
306 2974
306 3118
306 3172
306 3179
306 3845
306 3959
306 4091
306 4535
306 4570
306 4625
306 4659
306 4844
306 4861
306 4878
306 4918
307 443
307 727
307 747
307 901
307 1203
307 1281
307 1313
307 1470
307 1575
307 1604
307 1615
307 2197
307 2467
307 2653
307 2726
307 3005
307 3258
307 3277
307 3314
307 3473
307 3511
307 3837
307 4240
307 4242
307 4278
307 4290
307 4305
307 4436
307 4774
307 4840
308 586
308 638
308 670
308 751
308 803
308 1152
308 1615
308 1664
308 1671
308 2114
308 2550
308 2677
308 2830
308 3685
308 3793
308 4028
308 4674
308 4794
309 419
309 898
309 1092
309 1123
309 1136
309 1524
309 1936
309 1952
309 2072
309 2116
309 2251
309 3233
309 3937
309 4016
309 4102
309 4120
309 4121
309 4322
309 4816
309 4959
310 579
310 658
310 838
310 968
310 2319
310 2322
310 2324
310 2708
310 2901
310 3707
310 3885
310 4345
310 4701
310 4724
310 4779
310 4932
311 335
311 367
311 440
311 548
311 602
311 650
311 977
311 1131
311 1209
311 1408
311 1537
311 1585
311 1624
311 2177
311 2392
311 2435
311 2508
311 2643
311 2953
311 3461
311 3491
311 4112
311 4416
311 4470
312 1429
312 2033
312 2516
312 2591
312 2795
312 3354
312 3585
312 3765
312 4291
312 4300
312 4361
312 4487
312 4549
312 4589
313 320
313 495
313 602
313 817
313 843
313 1361
313 1537
313 1538
313 1551
313 1909
313 2122
313 2175
313 2429
313 2435
313 3091
313 3280
313 3329
313 3382
313 3582
313 3998
313 4013
313 4111
313 4230
313 4416
313 4419
313 4421
313 4424
313 4426
313 4439
313 4654
313 4989
314 368
314 581
314 638
314 670
314 1152
314 1262
314 1615
314 1626
314 1636
314 1929
314 2044
314 2675
314 2830
314 3512
314 4694
315 487
315 605
315 615
315 659
315 891
315 898
315 920
315 978
315 983
315 1171
315 1229
315 1379
315 1476
315 1490
315 1564
315 1895
315 1936
315 1952
315 1968
315 1983
315 1998
315 2066
315 2097
315 2118
315 2162
315 2396
315 2595
315 2601
315 2627
315 2947
315 2994
315 3165
315 3213
315 3233
315 3269
315 3346
315 3788
315 3937
315 3950
315 3990
315 4027
315 4068
315 4113
315 4197
315 4294
315 4319
315 4325
315 4326
315 4438
315 4491
315 4538
315 4581
315 4785
315 4959
315 4967
316 348
316 463
316 932
316 1561
316 1566
316 1595
316 1905
316 1923
316 2153
316 2521
316 2931
316 2945
316 2973
316 3049
316 3547
316 3787
317 395
317 471
317 601
317 802
317 975
317 1183
317 1216
317 1235
317 1614
317 2061
317 2204
317 2276
317 2359
317 2369
317 3062
317 3369
317 3454
317 3520
317 3623
317 4108
317 4292
317 4377
317 4518
317 4528
317 4635
317 4857
317 4947
318 336
318 463
318 698
318 724
318 1099
318 1169
318 1372
318 1709
318 1821
318 1907
318 2100
318 2318
318 2836
318 2868
318 2946
318 2974
318 3118
318 3293
318 3329
318 3677
318 3771
318 3777
318 3818
318 4050
318 4071
318 4090
318 4091
318 4380
318 4824
319 804
319 808
319 873
319 882
319 999
319 1344
319 1446
319 1733
319 1762
319 1794
319 1867
319 1962
319 2384
319 2385
319 2434
319 2530
319 2674
319 2806
319 3080
319 3169
319 3559
319 3878
319 4055
319 4497
319 4521
319 4604
319 4968
320 342
320 354
320 495
320 534
320 545
320 1209
320 1361
320 1403
320 1538
320 1668
320 3353
320 3843
320 4098
320 4142
320 4416
320 4424
320 4437
321 458
321 463
321 557
321 854
321 1126
321 1241
321 1261
321 1336
321 1885
321 1898
321 1917
321 2093
321 2736
321 3153
321 3492
321 4196
322 975
322 1093
322 1183
322 1221
322 1392
322 1487
322 2204
322 2259
322 2260
322 2276
322 2369
322 2446
322 3636
322 4108
322 4464
323 417
323 438
323 520
323 640
323 917
323 1614
323 1675
323 1830
323 2295
323 2314
323 2698
323 4204
323 4269
323 4451
323 4875
324 565
324 672
324 1085
324 1452
324 1752
324 2346
324 2519
324 2691
324 2794
324 3173
324 3337
324 3725
324 4163
324 4550
324 4576
324 4653
324 4699
324 4885
324 4893
324 4913
325 1290
325 1626
325 1671
325 1685
325 2164
325 2332
325 2675
325 3015
325 3140
325 3721
325 4705
326 676
326 1020
326 1114
326 1136
326 1379
326 1891
326 1983
326 2162
326 2339
326 3269
326 3272
326 3895
326 3950
326 3952
326 3960
326 4107
326 4984
327 414
327 451
327 923
327 1624
327 2429
327 2568
327 2684
327 2739
327 3012
327 3379
327 3417
327 3441
327 3904
327 4098
327 4101
327 4111
327 4416
327 4620
328 335
328 414
328 440
328 495
328 534
328 602
328 608
328 650
328 843
328 846
328 966
328 977
328 1371
328 1408
328 1536
328 1537
328 1733
328 1909
328 2116
328 2141
328 2175
328 2211
328 2400
328 2421
328 2435
328 2503
328 2643
328 2664
328 2851
328 3091
328 3379
328 3388
328 3390
328 3432
328 3573
328 3604
328 3627
328 4098
328 4111
328 4112
328 4149
328 4226
328 4424
328 4503
328 4638
328 4747
329 336
329 910
329 1099
329 1353
329 1489
329 1709
329 1788
329 1903
329 1938
329 2007
329 2047
329 2100
329 2273
329 2308
329 2318
329 2485
329 2507
329 2773
329 2781
329 2974
329 3818
329 4507
329 4861
329 4863
330 587
330 619
330 962
330 1026
330 1420
330 1629
330 1745
330 2456
330 2504
330 2816
330 3080
330 3336
330 3566
330 3693
330 3792
330 4311
330 4393
330 4429
330 4539
330 4915
331 900
331 1438
331 1474
331 1514
331 1589
331 1617
331 1722
331 1757
331 1858
331 1937
331 1942
331 2246
331 2499
331 2699
331 2710
331 2921
331 3231
331 3232
331 3266
331 3717
331 4091
331 4586
331 4897
332 505
332 521
332 584
332 761
332 1990
332 2418
332 2440
332 3521
332 3825
332 4222
332 4255
332 4486
332 4942
332 4977
333 404
333 767
333 1839
333 1859
333 1944
333 2051
333 2062
333 2162
333 3102
333 3124
333 4208
333 4478
333 4866
333 4903
334 383
334 463
334 485
334 621
334 859
334 982
334 1002
334 1086
334 1631
334 1644
334 2070
334 2291
334 2451
334 3087
334 3948
334 4427
334 4507
334 4945
335 602
335 843
335 923
335 966
335 1013
335 1209
335 1267
335 1328
335 1433
335 1537
335 1624
335 1909
335 2141
335 2175
335 2211
335 2226
335 2502
335 2953
335 3109
335 3432
335 3441
335 3904
335 4098
335 4111
335 4226
335 4230
335 4424
335 4503
335 4620
335 4638
335 4654
335 4735
336 1188
336 1292
336 1478
336 1832
336 1869
336 1903
336 1946
336 1996
336 2198
336 2750
336 2800
336 2940
336 2962
336 3051
336 3149
336 3494
336 3751
336 3766
336 3771
336 4006
336 4329
336 4824
336 4836
337 593
337 624
337 733
337 963
337 1418
337 2074
337 2136
337 2173
337 2179
337 2213
337 2290
337 2478
337 2650
337 2660
337 2725
337 3130
337 3402
337 3738
337 4231
337 4469
337 4737
337 4820
337 4955
337 4978
338 612
338 896
338 903
338 1233
338 1817
338 3012
338 3110
338 3160
338 3746
338 3757
338 4000
338 4295
338 4827
339 575
339 990
339 1132
339 1827
339 1849
339 1952
339 2122
339 2475
339 2857
339 2977
339 2996
339 3102
339 3250
339 3355
339 3366
339 3711
339 3819
339 3860
339 4009
339 4018
339 4178
339 4418
339 4562
339 4833
340 861
340 1592
340 2360
340 2468
340 2496
340 3330
340 3596
340 3871
340 3925
340 4117
340 4428
341 576
341 591
341 751
341 1626
341 1664
341 1929
341 2106
341 2164
341 2677
341 3426
341 3583
341 3793
341 3813
341 3953
341 4150
341 4700
342 347
342 534
342 602
342 817
342 843
342 1131
342 1328
342 1361
342 1433
342 1538
342 1552
342 1624
342 1971
342 2119
342 2141
342 2351
342 2392
342 2953
342 3379
342 3615
342 3904
342 4149
342 4185
342 4226
342 4421
342 4424
342 4437
342 4465
342 4503
343 354
343 363
343 548
343 598
343 628
343 1131
343 1335
343 1430
343 1552
343 1909
343 2175
343 2502
343 2503
343 2508
343 2568
343 2889
343 3012
343 3083
343 3115
343 3167
343 3379
343 3441
343 3998
343 4111
343 4149
343 4185
343 4419
343 4495
343 4620
344 376
344 387
344 390
344 771
344 824
344 1001
344 1578
344 2142
344 2206
344 2232
344 2459
344 3442
344 4463
344 4821
345 408
345 426
345 660
345 705
345 921
345 1154
345 1326
345 1507
345 1644
345 2170
345 2315
345 2423
345 2492
345 2591
345 3152
345 4152
345 4580
345 4624
345 4875
346 632
346 1090
346 2242
346 2707
346 3022
346 3055
346 3594
346 4157
346 4239
346 4279
346 4283
346 4649
347 393
347 414
347 598
347 602
347 613
347 912
347 1373
347 1433
347 1538
347 1616
347 2119
347 2175
347 2435
347 2712
347 3091
347 3115
347 3168
347 3388
347 3390
347 3395
347 3510
347 3659
347 4111
347 4416
347 4638
347 4906
348 767
348 1820
348 1827
348 1993
348 2355
348 2817
348 2837
348 2857
348 2889
348 3124
348 3227
348 3372
348 3981
349 1008
349 1084
349 1320
349 1699
349 2325
349 2536
349 3033
349 3333
349 3601
349 3629
349 4171
349 4583
349 4647
349 4771
349 4896
350 368
350 564
350 670
350 1152
350 1615
350 1626
350 2164
350 2550
350 2830
350 3243
350 3695
350 4694
350 4775
351 407
351 436
351 535
351 758
351 1783
351 2234
351 2370
351 2519
351 2714
351 3835
351 4285
351 4391
351 4493
351 4608
351 4725
351 4806
351 4885
352 685
352 2088
352 2183
352 2198
352 2310
352 2940
352 2962
352 2974
352 3008
352 3289
352 3415
352 3751
352 3817
352 4380
352 4861
352 4987
353 361
353 453
353 688
353 909
353 1571
353 1784
353 2146
353 2375
353 2519
353 2559
353 2607
353 2728
353 3748
353 3817
353 4163
353 4174
353 4293
353 4736
353 4998
354 843
354 1538
354 1552
354 1974
354 2057
354 3091
354 3379
354 3395
354 3461
354 3582
354 4071
354 4187
354 4416
354 4437
354 4638
354 4796
355 392
355 554
355 1119
355 1316
355 2307
355 2611
355 2758
355 3082
355 3756
355 4104
355 4378
355 4662
355 4788
356 580
356 1059
356 1375
356 1397
356 1655
356 1705
356 1730
356 1739
356 2365
356 2910
356 3232
356 3600
356 3663
356 3880
356 4010
356 4399
356 4946
357 388
357 529
357 800
357 1801
357 1819
357 1845
357 1882
357 1943
357 2071
357 2387
357 2824
357 2891
357 3234
357 3263
357 3790
357 3882
357 3898
357 4200
357 4818
357 4968
357 4992
358 617
358 679
358 748
358 755
358 778
358 825
358 902
358 1117
358 1153
358 1161
358 1457
358 1590
358 1646
358 1716
358 1723
358 2283
358 2383
358 2413
358 2464
358 2802
358 2889
358 3223
358 3305
358 3332
358 3403
358 3439
358 3462
358 3463
358 3525
358 3767
358 4316
358 4375
358 4490
358 4685
358 4690
358 4742
358 4921
359 387
359 390
359 824
359 1001
359 1578
359 1760
359 1859
359 2459
359 3442
359 4106
359 4821
360 396
360 1402
360 1545
360 2115
360 2201
360 2419
360 2917
360 3096
360 3188
360 3480
360 3849
360 4727
360 4778
361 889
361 1155
361 1456
361 1754
361 1765
361 2971
361 3129
361 3246
361 3421
361 4150
361 4301
361 4327
361 4330
361 4524
361 4540
361 4806
362 1029
362 1032
362 1059
362 1356
362 1375
362 1545
362 1554
362 1583
362 1611
362 1710
362 1992
362 2204
362 2531
362 3063
362 3486
362 3717
362 3854
362 3940
362 4046
362 4066
362 4188
362 4586
362 4906
363 1494
363 2249
363 2356
363 2582
363 3104
363 3536
363 3616
363 3702
363 3945
363 4139
363 4158
363 4159
363 4174
363 4214
363 4293
363 4457
363 4520
363 4608
363 4736
364 475
364 656
364 685
364 1190
364 1198
364 1401
364 1422
364 1610
364 1814
364 1916
364 2278
364 2399
364 2553
364 2630
364 2754
364 3048
364 3414
364 3664
364 3683
364 3703
364 3805
364 3919
364 4095
364 4164
364 4759
364 4965
364 4996
365 461
365 737
365 755
365 822
365 1105
365 1117
365 1544
365 1590
365 1659
365 1888
365 2495
365 2681
365 2938
365 3242
365 3332
365 3463
365 3650
365 4169
365 4186
365 4234
365 4375
365 4398
365 4602
366 438
366 674
366 741
366 979
366 1206
366 1214
366 1395
366 1435
366 1454
366 1547
366 1652
366 1713
366 1898
366 2420
366 3177
366 3184
366 3268
366 4236
366 4340
366 4875
366 4957
367 495
367 1538
367 2175
367 2211
367 3012
367 3355
367 3395
367 3904
367 3998
367 4111
367 4424
367 4495
368 581
368 670
368 691
368 951
368 1152
368 1615
368 1664
368 1671
368 2164
368 2243
368 2273
368 2316
368 2327
368 2550
368 2675
368 2777
368 2830
368 3243
368 3492
368 3793
368 3813
368 4150
368 4167
368 4261
368 4389
368 4582
369 745
369 1144
369 1413
369 1542
369 2105
369 2477
369 2486
369 2593
369 2943
369 2949
369 2956
369 3447
369 3978
369 4225
369 4330
369 4928
370 829
370 847
370 1318
370 1689
370 2087
370 2362
370 2566
370 2705
370 2982
370 3168
370 3171
371 483
371 1306
371 1364
371 1745
371 1809
371 1868
371 2996
371 2998
371 3653
371 3879
371 4096
371 4178
371 4563
371 4857
372 685
372 702
372 735
372 831
372 852
372 894
372 1489
372 1719
372 1720
372 2007
372 2814
372 3028
372 3084
372 3179
372 3318
372 3783
372 4029
373 585
373 636
373 1347
373 1746
373 1899
373 2322
373 2326
373 3671
373 3707
373 3736
373 4177
373 4238
373 4345
373 4408
373 4701
373 4779
373 4932
374 1561
374 1914
374 2115
374 2201
374 2419
374 2631
374 2651
374 2657
374 2745
374 2937
374 3009
374 3227
374 3480
374 3667
374 3844
374 3849
374 4608
374 4778
375 410
375 558
375 940
375 1108
375 1212
375 1302
375 1405
375 2121
375 2167
375 2243
375 2271
375 3018
375 3131
375 3417
375 3445
375 3472
375 4170
375 4786
376 387
376 771
376 824
376 1001
376 1578
376 1760
376 2527
376 2953
376 3442
376 4640
376 4959
377 424
377 471
377 507
377 975
377 1093
377 1310
377 1439
377 1505
377 1543
377 1598
377 2061
377 2276
377 2301
377 2349
377 2359
377 2497
377 2541
377 2605
377 2737
377 3236
377 3369
377 3444
377 3520
377 3749
377 4303
377 4377
377 4688
378 417
378 452
378 1122
378 1610
378 2209
378 2569
378 2992
378 3319
378 3571
378 3863
378 4552
378 4650
378 4669
378 4799
378 4868
379 1682
379 1825
379 2404
379 2529
379 2630
379 2645
379 2652
379 2763
379 2820
379 3324
379 3438
379 3626
379 3772
379 4031
379 4057
379 4447
379 4592
379 4616
379 4644
380 551
380 842
380 960
380 1725
380 1915
380 1920
380 2048
380 2053
380 2491
380 3111
380 3401
380 3590
381 611
381 676
381 997
381 1406
381 1564
381 1983
381 2036
381 2189
381 2994
381 3022
381 3212
381 3213
381 3233
381 3758
381 3952
381 4082
381 4107
381 4127
381 4358
381 4387
381 4459
381 4538
381 4712
381 4933
381 4967
382 456
382 1106
382 1112
382 1503
382 1751
382 1758
382 1845
382 1878
382 2177
382 2777
382 2807
382 2925
382 2951
382 3083
382 3599
382 3857
382 3882
382 4051
382 4199
382 4440
382 4515
382 4818
382 4894
382 4898
383 420
383 427
383 463
383 485
383 486
383 500
383 518
383 544
383 597
383 621
383 719
383 774
383 893
383 960
383 1014
383 1061
383 1086
383 1368
383 1516
383 1530
383 1533
383 1631
383 1834
383 1880
383 2030
383 2070
383 2082
383 2285
383 2291
383 2377
383 2397
383 2451
383 2501
383 2532
383 2702
383 2725
383 2928
383 2957
383 3064
383 3079
383 3087
383 3128
383 3450
383 3517
383 3806
383 3932
383 3935
383 3948
383 3985
383 4143
383 4200
383 4427
383 4450
383 4551
383 4945
383 4979
384 441
384 689
384 811
384 1158
384 1186
384 1690
384 1860
384 1918
384 2052
384 2428
384 2556
384 2665
384 2706
384 3081
384 3753
384 4543
384 4726
385 1378
385 1569
385 1877
385 2312
385 2661
385 3137
385 3346
385 3434
385 4118
385 4240
385 4544
385 4887
386 927
386 1134
386 1731
386 1813
386 2005
386 2778
386 3093
386 3424
386 3599
386 3821
386 4212
386 4874
387 390
387 771
387 824
387 1143
387 1703
387 1760
387 1893
387 2142
387 2232
387 2419
387 2564
387 3442
387 3478
387 4106
387 4821
388 750
388 867
388 1231
388 1791
388 1813
388 1956
388 2089
388 2094
388 2147
388 2342
388 2771
388 2777
388 3856
388 3882
388 4087
388 4119
388 4245
388 4541
389 572
389 929
389 1027
389 1287
389 1341
389 1440
389 1459
389 1579
389 1602
389 1935
389 2308
389 2563
389 2845
389 3353
389 3611
389 4133
389 4499
389 4916
390 771
390 1578
390 1703
390 1760
390 2142
390 2145
390 3012
390 3962
390 4106
390 4821
391 849
391 1089
391 1135
391 1225
391 1319
391 1325
391 1589
391 1596
391 1686
391 1970
391 2028
391 2699
391 2848
391 2937
391 3232
391 3387
391 3533
391 3600
391 3642
391 3734
391 3797
391 4349
391 4616
391 4644
391 4975
392 554
392 1119
392 1316
392 1317
392 1416
392 1506
392 1967
392 2123
392 2241
392 2307
392 2331
392 2524
392 3756
392 4104
392 4317
392 4677
392 4788
392 4843
392 4866
393 843
393 846
393 1122
393 1537
393 1552
393 1789
393 2141
393 2618
393 3388
393 3441
393 4098
393 4111
393 4226
393 4580
394 460
394 537
394 1039
394 1877
394 2081
394 3096
394 4118
394 4211
394 4227
394 4544
394 4626
394 4929
394 4978
395 421
395 497
395 570
395 601
395 607
395 975
395 1161
395 1221
395 1275
395 1282
395 1310
395 1487
395 1520
395 1543
395 1614
395 1857
395 2204
395 2239
395 2359
395 2390
395 2446
395 2497
395 2569
395 2592
395 2605
395 2737
395 3236
395 3270
395 3312
395 3444
395 3454
395 3520
395 3551
395 3672
395 4108
395 4262
395 4320
395 4333
395 4453
395 4530
395 4676
396 510
396 618
396 730
396 773
396 849
396 1110
396 1653
396 1870
396 1914
396 2098
396 2134
396 2148
396 2371
396 2381
396 2419
396 2641
396 2722
396 2910
396 2917
396 3188
396 3483
396 3484
396 3849
396 4135
396 4151
396 4633
396 4709
396 4778
396 4792
396 4888
397 501
397 517
397 593
397 828
397 1042
397 1099
397 1442
397 2050
397 2576
397 2580
397 2775
397 3112
397 3560
397 3963
397 3981
397 4629
397 4666
397 4958
398 407
398 523
398 812
398 912
398 1277
398 1400
398 1460
398 1558
398 1596
398 1628
398 2293
398 2465
398 2714
398 2742
398 2840
398 3129
398 3204
398 3459
398 3485
398 3487
398 3534
398 3538
398 3677
398 3702
398 3719
398 3755
398 3822
398 3958
398 3967
398 4033
398 4138
398 4192
398 4301
398 4330
398 4532
398 4593
398 4619
398 4691
398 4801
399 471
399 618
399 1914
399 2134
399 2371
399 2641
399 2651
399 2917
399 3392
399 3483
399 4778
399 4906
400 567
400 814
400 1507
400 2137
400 2151
400 2315
400 2440
400 2810
400 3612
400 4152
400 4360
400 4614
401 865
401 1024
401 1031
401 1041
401 1067
401 1078
401 1196
401 1244
401 1428
401 1568
401 1734
401 1900
401 2396
401 2607
401 2617
401 2806
401 2887
401 2941
401 2963
401 3174
401 3504
401 3927
401 4396
401 4547
401 4585
401 4789
402 655
402 657
402 748
402 888
402 1672
402 1728
402 2083
402 2157
402 2458
402 2748
402 2842
402 3121
402 3344
402 3380
402 3514
402 3743
402 3869
402 3978
402 4109
402 4347
402 4390
402 4606
403 880
403 916
403 1045
403 1267
403 1344
403 1399
403 1482
403 1618
403 1972
403 2396
403 2544
403 2806
403 2965
403 2979
403 3000
403 3080
403 3466
403 3495
403 3504
403 3526
403 4005
403 4436
403 4804
404 653
404 853
404 955
404 990
404 1033
404 1114
404 1306
404 1820
404 2117
404 2977
404 2998
404 3068
404 3102
404 3227
404 4041
404 4096
404 4103
404 4178
404 4208
404 4357
404 4627
404 4708
405 873
405 931
405 941
405 999
405 1031
405 1063
405 1138
405 1179
405 1321
405 1450
405 1618
405 1682
405 1745
405 2414
405 2453
405 2460
405 2487
405 2575
405 2602
405 2803
405 3122
405 3156
405 3169
405 3174
405 3227
405 3228
405 3414
405 3494
405 3606
405 3632
405 3692
405 3889
405 4116
405 4481
405 4547
405 4599
405 4610
405 4752
406 446
406 645
406 727
406 747
406 750
406 841
406 1470
406 1604
406 1609
406 2197
406 2476
406 2948
406 3277
406 3314
406 3473
406 3533
406 3760
406 4242
406 4278
406 4305
406 4318
406 4522
407 436
407 523
407 765
407 788
407 999
407 1394
407 1752
407 1792
407 2090
407 2138
407 2249
407 2409
407 2465
407 2481
407 2566
407 2689
407 2702
407 2720
407 2856
407 3095
407 3178
407 3262
407 3377
407 3487
407 3708
407 3853
407 4138
407 4146
407 4341
407 4412
407 4413
407 4444
407 4608
407 4718
408 410
408 426
408 472
408 559
408 1070
408 1140
408 1644
408 2649
408 2668
408 3109
408 3522
408 4194
408 4642
409 618
409 1528
409 1663
409 2134
409 2148
409 2371
409 2419
409 2657
409 2917
409 3392
409 3483
409 3849
409 4227
409 4865
410 488
410 543
410 642
410 944
410 1057
410 1175
410 2130
410 2159
410 2160
410 2231
410 2278
410 2412
410 3018
410 3040
410 3131
410 3182
410 3417
410 3496
410 3574
410 3625
410 4006
410 4041
410 4080
410 4130
410 4335
410 4709
410 4774
410 4849
411 558
411 678
411 1036
411 2032
411 2160
411 3023
411 3072
411 3317
411 3344
411 3574
411 3724
411 3933
411 4353
411 4403
411 4532
412 684
412 743
412 894
412 917
412 945
412 1274
412 1566
412 1641
412 1675
412 1753
412 1830
412 2041
412 2216
412 2243
412 2288
412 2314
412 2698
412 3096
412 3492
412 3813
412 3894
412 3942
412 4204
412 4217
412 4340
412 4348
412 4793
412 4848
412 4875
412 4957
413 517
413 1042
413 1471
413 1483
413 1485
413 2498
413 2580
413 2610
413 2655
413 2729
413 3713
413 4274
413 4525
413 4611
414 534
414 1013
414 1131
414 1408
414 1433
414 1909
414 2119
414 2352
414 2394
414 2429
414 2452
414 2508
414 3012
414 3115
414 3395
414 3627
414 4098
414 4111
414 4216
414 4439
414 4550
415 1166
415 2006
415 2837
415 3124
415 3799
415 4085
415 4103
415 4208
415 4357
415 4746
415 4958
416 417
416 1122
416 1291
416 1337
416 1716
416 1759
416 1812
416 2112
416 2152
416 2477
416 2609
416 2832
416 3518
416 3639
416 3868
416 3999
416 4029
416 4153
416 4552
416 4868
417 589
417 888
417 998
417 1122
417 1291
417 1448
417 1716
417 1734
417 1812
417 1814
417 2112
417 2152
417 2229
417 2609
417 2622
417 2663
417 2734
417 2739
417 2832
417 2992
417 3014
417 3319
417 3356
417 3489
417 3552
417 3571
417 3684
417 3863
417 3868
417 3893
417 4029
417 4050
417 4115
417 4128
417 4153
417 4314
417 4337
417 4516
417 4552
417 4574
417 4650
417 4669
417 4834
417 4868
417 4950
418 843
418 956
418 966
418 1537
418 1538
418 1624
418 1708
418 2141
418 2664
418 3057
418 3115
418 3432
418 4230
418 4416
419 1379
419 1528
419 2055
419 2172
419 2251
419 2631
419 3212
419 3272
419 3313
419 3527
419 4107
419 4121
419 4358
419 4452
419 4984
419 4995
420 500
420 859
420 893
420 1086
420 1125
420 1526
420 1631
420 2070
420 2501
420 2619
420 2957
420 3064
420 3128
420 3450
420 3806
420 3935
420 4132
420 4166
420 4268
420 4427
420 4551
420 4771
420 4945
421 608
421 975
421 1216
421 1221
421 1520
421 1598
421 2276
421 2301
421 2398
421 3327
421 3369
421 3623
421 4016
421 4292
421 4356
421 4370
421 4453
421 4464
421 4926
422 490
422 693
422 814
422 908
422 934
422 992
422 1025
422 1070
422 1140
422 1167
422 1412
422 1484
422 1510
422 1521
422 2068
422 2078
422 2158
422 2315
422 2474
422 3522
422 4076
422 4365
422 4776
422 4871
422 4894
423 892
423 930
423 1193
423 1339
423 1409
423 1889
423 2116
423 2124
423 2149
423 2252
423 2684
423 2874
423 2984
423 3155
423 3348
423 3393
423 3502
423 4071
423 4750
424 449
424 668
424 697
424 739
424 820
424 1066
424 1311
424 1843
424 2207
424 2345
424 2557
424 3429
424 3482
424 3591
424 3740
424 4369
424 4372
424 4514
424 4646
424 4754
424 4873
425 548
425 598
425 1403
425 1537
425 1786
425 2119
425 2175
425 2182
425 2188
425 2429
425 2502
425 2953
425 3432
425 3441
425 3789
425 4111
425 4185
425 4424
425 4638
426 490
426 526
426 559
426 921
426 1032
426 1097
426 1239
426 1521
426 1535
426 1585
426 2101
426 2441
426 2483
426 3152
426 3438
426 3617
426 4145
426 4152
426 4194
426 4360
426 4558
426 4580
427 612
427 719
427 951
427 960
427 1526
427 1631
427 2372
427 2587
427 3198
427 3935
427 4475
427 4501
427 4945
428 975
428 1269
428 1275
428 1360
428 1487
428 1520
428 2276
428 2292
428 2328
428 2361
428 2497
428 2592
428 2605
428 3327
428 3520
428 4278
429 438
429 1005
429 1132
429 1547
429 1684
429 2314
429 2347
429 2698
429 2703
429 2731
429 3177
429 4379
429 4451
429 4724
429 4793
429 4966
430 519
430 981
430 1032
430 1314
430 1477
430 1493
430 1545
430 1789
430 2322
430 3013
430 3160
430 3171
430 3266
430 3345
430 3370
430 3533
430 3778
430 3784
430 3794
430 3928
430 4015
430 4943
431 526
431 567
431 814
431 1176
431 1507
431 1509
431 1535
431 1644
431 2113
431 2469
431 3109
431 4190
431 4580
431 4614
431 4640
432 552
432 571
432 703
432 783
432 1208
432 1215
432 1308
432 1643
432 1824
432 1829
432 1884
432 1982
432 2029
432 2588
432 2623
432 2692
432 2809
432 2994
432 3011
432 3261
432 3271
432 3311
432 3367
432 3501
432 3512
432 3578
432 3932
432 3986
432 4553
432 4557
432 4670
432 4684
432 4721
432 4815
432 4855
432 4882
432 4892
432 4900
432 4906
432 4980
432 4988
433 723
433 740
433 752
433 1224
433 1494
433 1743
433 1759
433 1947
433 1956
433 1994
433 2089
433 2094
433 2309
433 2951
433 2952
433 3074
433 3856
433 3958
433 4148
433 4355
433 4898
434 655
434 777
434 1139
434 1409
434 2083
434 2157
434 2299
434 2458
434 3380
434 3743
434 3978
434 4063
434 4235
434 4347
434 4390
434 4534
435 479
435 503
435 842
435 876
435 900
435 1016
435 1098
435 1920
435 2048
435 2525
435 3345
435 3565
435 3840
435 4296
435 4308
435 4881
435 4976
436 780
436 1017
436 1107
436 1251
436 1397
436 1456
436 1754
436 1755
436 1772
436 1774
436 1910
436 2293
436 2742
436 2819
436 3095
436 3405
436 3421
436 3700
436 3807
436 4216
436 4310
436 4400
436 4806
437 485
437 486
437 719
437 960
437 1061
437 1660
437 1795
437 2082
437 2397
437 2451
437 2501
437 2654
437 2759
437 2873
437 2957
437 3087
437 4475
437 4501
437 4551
437 4945
438 640
438 741
438 874
438 917
438 1170
438 1228
438 1274
438 1454
438 1499
438 1547
438 1652
438 1684
438 1713
438 1753
438 1797
438 2041
438 2200
438 2264
438 2295
438 2323
438 2347
438 2420
438 2431
438 2538
438 2703
438 2872
438 3123
438 3171
438 3249
438 3265
438 3294
438 3708
438 3782
438 3894
438 4204
438 4217
438 4269
438 4451
438 4468
438 4512
438 4660
438 4680
438 4793
438 4957
439 498
439 801
439 882
439 1067
439 1179
439 1247
439 1423
439 1449
439 1458
439 1745
439 1906
439 1940
439 2438
439 2453
439 2460
439 2480
439 2602
439 3021
439 3074
439 3235
439 3445
439 3477
439 3580
439 3603
439 3626
439 4423
439 4443
439 4596
439 4657
439 4752
439 4756
439 4939
440 451
440 495
440 873
440 966
440 1013
440 1209
440 1495
440 2312
440 2568
440 2643
440 2705
440 3115
440 3789
440 4149
440 4354
440 4374
440 4426
440 4638
441 689
441 1044
441 1158
441 1186
441 1690
441 1780
441 1860
441 1863
441 2052
441 2556
441 3057
441 4445
441 4726
441 4734
441 4905
442 532
442 590
442 685
442 1169
442 1185
442 1802
442 2086
442 2212
442 2318
442 2940
442 2962
442 3084
442 3415
442 3796
442 4155
442 4263
442 4570
442 4933
443 505
443 727
443 1604
443 2254
443 2406
443 2533
443 2545
443 2793
443 2834
443 2948
443 3258
443 4240
443 4242
443 4305
443 4522
443 4590
444 609
444 918
444 921
444 1070
444 1140
444 2158
444 2407
444 2613
444 3627
444 3689
444 3949
444 4123
444 4237
444 4360
444 4510
444 4513
444 4624
444 4871
445 1092
445 1519
445 1950
445 2049
445 2162
445 2189
445 2627
445 2947
445 2994
445 3213
445 3272
445 3455
445 3823
445 4068
445 4102
445 4107
445 4358
445 4712
446 727
446 1470
446 1604
446 1987
446 2038
446 2197
446 3005
446 3277
446 3760
446 4053
446 4240
446 4271
446 4305
446 4318
446 4590
447 483
447 943
447 1079
447 1173
447 2300
447 2444
447 2817
447 2850
447 2938
447 3206
447 3372
447 3910
447 3938
447 4043
447 4621
447 4762
448 938
448 1144
448 1413
448 1638
448 1979
448 2486
448 2644
448 2868
448 2983
448 4100
448 4225
449 1644
449 2345
449 2449
449 2557
449 2801
449 3252
449 3471
449 3591
449 3740
449 4372
449 4514
449 4711
449 4873
450 814
450 1025
450 1097
450 1174
450 1467
450 1478
450 1507
450 1644
450 1953
450 2021
450 2113
450 2315
450 2492
450 2790
450 3522
450 4190
450 4315
450 4510
450 4871
451 613
451 650
451 843
451 846
451 923
451 946
451 1074
451 1361
451 1371
451 1403
451 1616
451 1909
451 2141
451 2390
451 2400
451 2435
451 2502
451 2534
451 2575
451 2739
451 3055
451 3390
451 3395
451 4112
451 4149
451 4226
451 4374
451 4426
451 4437
451 4500
452 740
452 901
452 1112
452 1113
452 1508
452 1747
452 1778
452 1791
452 1904
452 2107
452 2147
452 2686
452 2749
452 2770
452 2854
452 2881
452 2960
452 3882
452 3913
452 4051
452 4147
452 4818
452 4883
453 507
453 727
453 832
453 1203
453 1281
453 1604
453 2329
453 2764
453 3005
453 3021
453 3341
453 3935
453 4278
453 4305
454 482
454 538
454 835
454 858
454 1043
454 1088
454 1216
454 1346
454 1378
454 1389
454 1522
454 2065
454 2111
454 2166
454 2886
454 3408
454 3425
454 3690
454 3945
454 4169
454 4708
455 460
455 673
455 1153
455 1569
455 1877
455 2081
455 2165
455 2312
455 3134
455 3622
455 3631
455 4004
455 4211
455 4213
455 4626
455 4704
455 4887
456 726
456 911
456 1112
456 1224
456 1619
456 1724
456 1758
456 1769
456 1878
456 1914
456 2205
456 2881
456 3424
456 4199
456 4355
456 4559
456 4818
456 4941
457 1015
457 1243
457 3594
457 3719
457 4021
457 4114
457 4239
457 4684
458 789
458 1218
458 1248
458 1647
458 1689
458 1885
458 2439
458 2636
458 2669
458 3167
458 3467
458 3644
458 3722
458 3728
458 4015
458 4168
458 4265
458 4414
458 4656
458 4869
459 1381
459 1542
459 2155
459 2493
459 2569
459 2593
459 2943
459 3391
459 3662
459 4100
459 4225
460 537
460 542
460 1631
460 1877
460 2074
460 2081
460 2165
460 3657
460 4544
460 4555
460 4887
460 4929
461 1182
461 1590
461 1723
461 1888
461 2303
461 2413
461 2681
461 2683
461 2744
461 3403
461 3439
461 3463
461 3484
461 3490
461 3817
461 4169
461 4196
461 4241
461 4273
461 4490
461 4690
461 4798
461 4914
462 593
462 624
462 1159
462 1492
462 1656
462 2179
462 2213
462 2304
462 2430
462 2650
462 3868
462 4469
462 4737
462 4820
462 4955
463 486
463 544
463 597
463 621
463 837
463 939
463 960
463 1002
463 1014
463 1061
463 1516
463 1530
463 2082
463 2291
463 2377
463 2406
463 2654
463 2957
463 3087
463 3128
463 3985
463 4475
463 4501
464 571
464 631
464 1295
464 1419
464 1645
464 1787
464 1796
464 2520
464 2793
464 3404
464 3437
464 3586
464 3669
464 3887
464 4595
464 4636
464 4826
464 4886
464 4904
465 523
465 912
465 974
465 986
465 1038
465 1107
465 1155
465 1242
465 1266
465 1491
465 1605
465 2006
465 2140
465 2147
465 2293
465 2337
465 2383
465 2444
465 2607
465 2655
465 2702
465 2720
465 3030
465 3120
465 3262
465 3405
465 3459
465 3589
465 3608
465 3853
465 4014
465 4192
465 4214
465 4327
465 4331
465 4407
465 4691
465 4812
465 4899
466 941
466 946
466 1065
466 1172
466 1299
466 1490
466 2410
466 2453
466 2490
466 2530
466 2572
466 2652
466 2965
466 3070
466 3161
466 3595
466 3606
466 3656
466 4601
466 4686
467 1183
467 1312
467 2257
467 2260
467 2328
467 2361
467 2446
467 2735
467 3070
467 3327
467 3368
467 3369
467 3551
467 4449
467 4688
467 4703
468 470
468 647
468 879
468 965
468 1152
468 1253
468 1437
468 1474
468 1529
468 1655
468 1707
468 1710
468 1937
468 2261
468 2311
468 3100
468 3284
468 3362
468 3363
468 3758
468 3844
468 4083
468 4924
468 4933
468 4975
469 619
469 882
469 931
469 1490
469 1574
469 1618
469 1828
469 2473
469 2645
469 3080
469 3107
469 3158
469 3221
469 3668
469 3731
469 3739
469 3785
469 3792
469 3847
469 4016
469 4443
469 4521
469 4592
469 4996
470 519
470 580
470 952
470 966
470 1032
470 1135
470 1253
470 1397
470 1469
470 1477
470 1536
470 1618
470 1710
470 1711
470 1814
470 1831
470 2365
470 2531
470 2968
470 3063
470 3071
470 3171
470 3232
470 3431
470 3649
470 3717
470 3851
470 3928
470 3989
470 4070
470 4909
470 4930
471 1256
471 1312
471 2221
471 2260
471 2276
471 2605
471 2653
471 3155
471 3236
471 3270
471 3444
471 3672
471 4330
471 4528
472 567
472 734
472 814
472 862
472 921
472 946
472 1000
472 1025
472 1070
472 1090
472 1097
472 1468
472 1478
472 1644
472 1666
472 2113
472 2315
472 2548
472 2802
472 4508
472 4580
472 4613
472 4614
472 4624
472 4640
472 4871
473 663
473 1781
473 1927
473 2188
473 2219
473 2728
473 2827
473 2882
473 2972
473 3030
473 3216
473 3421
473 3508
473 3521
473 3678
473 3735
473 3745
473 3748
473 3914
473 4020
473 4229
473 4301
473 4330
473 4362
473 4391
473 4444
473 4537
473 4691
473 4784
474 736
474 819
474 1035
474 1070
474 1191
474 1213
474 1236
474 1308
474 1432
474 1480
474 1704
474 1787
474 1824
474 2461
474 2667
474 2694
474 2811
474 2850
474 2914
474 3147
474 3399
474 3569
474 3918
474 4284
474 4764
474 4840
474 4886
474 4907
474 4980
475 718
475 1073
475 1338
475 1354
475 1610
475 1966
475 2584
475 3019
475 3324
475 3341
475 3349
475 3530
475 3557
475 3559
475 3933
475 3964
475 4706
476 648
476 1436
476 1906
476 2262
476 2864
476 3026
476 3276
476 3633
476 3873
476 3878
476 4072
476 4385
476 4415
476 4956
477 1331
477 1536
477 1592
477 1640
477 2206
477 2360
477 2468
477 2513
477 2600
477 3102
477 3313
477 3330
477 4073
477 4117
478 664
478 942
478 963
478 1117
478 2364
478 2412
478 2693
478 3144
478 3192
478 3572
478 3834
478 4033
478 4080
478 4130
478 4353
478 4368
478 4709
478 4786
479 503
479 565
479 763
479 876
479 1011
479 2048
479 2689
479 2790
479 2823
479 2825
479 2930
479 3051
479 3401
479 3524
479 3565
479 4237
479 4296
479 4308
479 4603
479 4881
479 4908
479 4976
480 723
480 1070
480 1115
480 1177
480 1271
480 1278
480 1333
480 1458
480 2411
480 2432
480 2450
480 2851
480 2964
480 3077
480 3185
480 3432
480 3568
480 3700
480 3822
480 4342
480 4483
480 4692
480 4744
480 4763
480 4784
480 4812
480 4935
481 995
481 1362
481 2107
481 2215
481 2749
481 2854
481 2897
481 2960
481 3584
481 3599
481 3784
481 3882
481 4119
481 4215
481 4541
481 4818
481 4909
481 4941
482 538
482 772
482 835
482 1088
482 1260
482 1346
482 1356
482 1522
482 1924
482 2111
482 2311
482 3287
482 3425
482 3690
482 4006
482 4708
483 736
483 943
483 1069
483 1079
483 1306
483 1827
483 2562
483 3133
483 3227
483 3372
483 3395
483 3938
483 4096
483 4208
483 4925
484 494
484 652
484 661
484 788
484 938
484 991
484 1147
484 1455
484 1698
484 1927
484 1963
484 2164
484 2249
484 2358
484 2433
484 2450
484 2559
484 2566
484 2582
484 2607
484 2671
484 3116
484 3264
484 3534
484 3558
484 4159
484 4301
484 4376
484 4412
484 4442
484 4537
484 4591
484 4619
484 4691
484 4784
484 4877
485 621
485 1002
485 1061
485 1248
485 1880
485 2406
485 3064
485 3079
485 3806
485 3935
485 4143
485 4771
486 960
486 1368
486 2397
486 2832
486 3128
486 3935
487 643
487 676
487 841
487 1136
487 1276
487 2066
487 2143
487 3008
487 3047
487 3195
487 3233
487 3272
487 3346
487 4088
487 4113
487 4240
487 4959
487 4990
488 1302
488 1435
488 2271
488 2412
488 2549
488 3072
488 3131
488 3611
488 3625
488 4189
488 4336
488 4359
489 506
489 713
489 963
489 1039
489 1111
489 1213
489 1288
489 1565
489 1582
489 2008
489 2040
489 2178
489 2253
489 2494
489 2552
489 2603
489 3024
489 3299
489 3713
489 3838
489 3848
489 4373
489 4379
489 4597
489 4828
490 582
490 609
490 719
490 799
490 908
490 914
490 918
490 1070
490 1246
490 1249
490 1507
490 2113
490 2474
490 2492
490 2548
490 2804
490 3109
490 3522
490 3696
490 4190
490 4237
490 4247
490 4484
490 4513
491 625
491 672
491 694
491 780
491 1322
491 1744
491 1764
491 1781
491 1905
491 2174
491 2249
491 2383
491 2409
491 2862
491 3300
491 3549
491 3637
491 3647
491 4033
491 4092
491 4101
491 4158
491 4285
491 4327
491 4362
491 4619
491 4869
491 4893
492 663
492 694
492 720
492 2077
492 2138
492 2219
492 2321
492 2519
492 2746
492 3170
492 3284
492 3300
492 3421
492 4007
492 4345
492 4477
492 4569
492 4744
492 4869
493 524
493 574
493 1055
493 1104
493 1212
493 1888
493 2060
493 2154
493 2167
493 2245
493 2266
493 2271
493 3131
493 3208
493 4006
493 4080
493 4322
493 4359
493 4737
494 720
494 912
494 986
494 1215
494 1279
494 1494
494 1693
494 2208
494 2321
494 2519
494 2691
494 2846
494 3037
494 3300
494 3487
494 3534
494 3645
494 4489
494 4593
494 4744
495 1538
495 1552
495 2175
495 2643
495 2953
495 3735
495 3789
495 3904
495 4111
495 4503
496 806
496 840
496 1649
496 2074
496 2144
496 2184
496 2222
496 2417
496 2457
496 2527
496 2612
496 3747
496 4172
496 4179
496 4329
496 4397
496 4399
496 4505
496 4645
496 4749
496 4923
496 4990
497 975
497 1216
497 1343
497 1598
497 2244
497 2276
497 2328
497 2349
497 2359
497 2446
497 2772
497 3520
498 958
498 1010
498 1458
498 1621
498 1900
498 2237
498 2438
498 2480
498 2561
498 2806
498 2812
498 2863
498 3164
498 3169
498 3398
498 3438
498 3559
498 3664
498 4017
498 4585
498 4639
498 4690
498 4915
499 531
499 1205
499 1599
499 1706
499 1847
499 1949
499 2077
499 2140
499 2607
499 2659
499 2679
499 2794
499 2862
499 3271
499 3405
499 3508
499 3568
499 3702
499 3725
499 4156
499 4158
499 4210
499 4354
499 4362
499 4413
499 4699
500 544
500 1626
500 2070
500 2082
500 2406
500 2900
500 3064
500 3935
500 4143
500 4268
500 4501
501 517
501 587
501 731
501 1042
501 1056
501 1442
501 1471
501 1483
501 2004
501 2218
501 2498
501 2596
501 2610
501 2683
501 2775
501 3532
501 3560
501 3713
501 3963
501 4164
501 4218
501 4666
502 592
502 631
502 712
502 1215
502 2013
502 2062
502 2402
502 2534
502 2585
502 2615
502 2849
502 2858
502 3085
502 3163
502 3226
502 3701
502 4567
502 4577
502 4684
502 4689
502 4886
503 565
503 876
503 971
503 1323
503 1920
503 2351
503 2806
503 2875
503 3590
503 4296
503 4881
504 1107
504 1571
504 1851
504 2290
504 2293
504 2374
504 2555
504 3077
504 3421
504 3577
504 4216
504 4412
504 4524
504 4540
505 521
505 800
505 1383
505 2379
505 2418
505 2440
505 2779
505 3433
505 3825
505 4255
505 4347
506 807
506 963
506 2099
506 2106
506 2847
506 3299
506 4048
506 4195
506 4225
506 4373
506 4562
506 4811
507 594
507 832
507 2329
507 2467
507 2785
507 3473
507 4240
507 4242
507 4271
507 4278
507 4290
507 4805
508 696
508 933
508 1036
508 2008
508 2131
508 2245
508 3020
508 3067
508 3144
508 3192
508 3247
508 3472
508 4006
508 4080
508 4154
508 4353
508 4568
508 4633
508 4709
508 4993
509 525
509 562
509 581
509 1572
509 1580
509 2455
509 2864
509 3026
509 3381
509 3615
509 3873
509 4072
509 4110
509 4385
509 4415
509 4433
510 1653
510 1870
510 1914
510 2134
510 2419
510 2917
510 3849
510 4727
510 4975
511 565
511 842
511 971
511 1098
511 1915
511 1920
511 2053
511 2786
511 3401
511 4296
511 4308
511 4533
511 4603
511 4881
511 4908
512 1353
512 1433
512 1720
512 1893
512 2198
512 2778
512 2808
512 2882
512 2939
512 2940
512 3043
512 3118
512 3415
512 3751
512 3783
512 3845
512 3947
512 4019
512 4050
512 4132
512 4248
512 4380
512 4777
512 4862
512 4987
513 517
513 587
513 731
513 1177
513 1470
513 1486
513 1604
513 1856
513 2050
513 2059
513 2092
513 2576
513 2587
513 2729
513 2740
513 2775
513 2933
513 3532
513 4161
513 4187
513 4218
513 4336
513 4542
513 4611
514 535
514 555
514 590
514 912
514 1242
514 1400
514 1613
514 1688
514 1752
514 1874
514 2081
514 2146
514 2280
514 2541
514 2564
514 2970
514 3127
514 3178
514 3919
514 3974
514 4498
514 4569
515 776
515 851
515 1259
515 1345
515 1517
515 1531
515 1563
515 1749
515 2022
515 2064
515 2663
515 2697
515 2813
515 2838
515 3020
515 3218
515 3367
515 3469
515 3655
515 3761
515 3776
515 3987
515 4467
515 4557
515 4683
515 4848
515 4907
515 4980
516 815
516 827
516 856
516 1048
516 1069
516 1263
516 1363
516 1820
516 1844
516 1868
516 1930
516 2033
516 2340
516 2817
516 2866
516 3044
516 3227
516 3230
516 3843
516 3890
516 4137
516 4207
516 4831
517 541
517 584
517 587
517 729
517 744
517 885
517 906
517 919
517 1019
517 1042
517 1056
517 1177
517 1442
517 1471
517 1483
517 1485
517 1486
517 1683
517 1852
517 1856
517 2004
517 2011
517 2050
517 2051
517 2059
517 2092
517 2103
517 2207
517 2218
517 2360
517 2498
517 2576
517 2580
517 2584
517 2587
517 2644
517 2712
517 2729
517 2740
517 2775
517 2933
517 3112
517 3175
517 3498
517 3532
517 3541
517 3554
517 3555
517 3560
517 3604
517 3713
517 3885
517 4045
517 4161
517 4166
517 4218
517 4336
517 4439
517 4479
517 4482
517 4494
517 4525
517 4542
517 4556
517 4622
517 4629
517 4666
517 4693
518 544
518 837
518 1093
518 1368
518 1516
518 1526
518 1660
518 2127
518 2372
518 2377
518 2378
518 2406
518 2957
518 3079
518 4143
518 4191
518 4563
518 4945
519 862
519 1032
519 1469
519 1611
519 1635
519 1710
519 1971
519 2561
519 2699
519 2892
519 3063
519 3100
519 3151
519 3189
519 3239
519 3435
519 3670
519 3758
519 3844
519 3851
519 3957
519 4015
519 4056
519 4282
519 4410
519 4791
520 640
520 678
520 769
520 1491
520 1652
520 1753
520 1830
520 1898
520 2041
520 2163
520 2169
520 2200
520 2314
520 2872
520 3249
520 3265
520 3470
520 4217
520 4236
520 4348
520 4451
520 4793
520 4848
520 4875
521 844
521 1272
521 2285
521 2379
521 2403
521 2418
521 2440
521 2779
521 2789
521 2918
521 3433
521 4222
521 4270
521 4486
521 4776
522 568
522 682
522 686
522 810
522 1138
522 1222
522 1449
522 1610
522 2457
522 2567
522 2674
522 2843
522 3045
522 3221
522 3398
522 3414
522 3445
522 3619
522 4471
522 4547
522 4565
523 539
523 663
523 672
523 683
523 974
523 984
523 1078
523 1147
523 1187
523 1255
523 1384
523 1744
523 1754
523 1774
523 1811
523 1913
523 2090
523 2097
523 2453
523 2504
523 2564
523 2655
523 2794
523 2855
523 2862
523 2964
523 3108
523 3416
523 3506
523 3608
523 3637
523 3780
523 3974
523 4014
523 4036
523 4158
523 4163
523 4330
523 4400
523 4413
523 4435
523 4548
523 4608
523 4618
523 4642
523 4666
523 4692
523 4772
523 4784
523 4952
524 553
524 622
524 841
524 1040
524 1124
524 1197
524 1284
524 1431
524 1556
524 1748
524 1783
524 1959
524 2298
524 2865
524 3058
524 3088
524 3162
524 3647
524 4200
524 4253
524 4671
524 4702
524 4729
524 4962
524 4972
525 562
525 648
525 897
525 924
525 1436
525 1572
525 1580
525 2031
525 2262
525 2455
525 2648
525 2864
525 2967
525 3026
525 3276
525 3315
525 3381
525 3640
525 3873
525 3906
525 4034
525 4344
525 4385
525 4956
526 582
526 814
526 914
526 918
526 993
526 1097
526 1239
526 1246
526 1262
526 1412
526 1453
526 1461
526 1478
526 1507
526 1521
526 1644
526 2068
526 2137
526 2151
526 2315
526 2441
526 2492
526 2512
526 3571
526 3681
526 4028
526 4076
526 4162
526 4787
526 4871
527 548
527 845
527 1156
527 1197
527 1732
527 1777
527 2069
527 2272
527 2666
527 2822
527 3058
527 3088
527 3126
527 3341
527 3525
527 3647
527 3680
527 3927
527 4200
527 4838
527 4839
527 4962
528 904
528 1208
528 1215
528 1245
528 1249
528 1431
528 1547
528 1775
528 1836
528 2623
528 2667
528 2697
528 2715
528 2738
528 2838
528 3218
528 3404
528 3448
528 3476
528 3586
528 3776
528 3842
528 4025
528 4670
528 4872
529 729
529 1072
529 1231
529 1257
529 1801
529 1918
529 1973
529 2091
529 2094
529 2149
529 2749
529 2891
529 2951
529 3857
529 3883
529 4051
529 4251
529 4515
529 4520
529 4898
530 568
530 619
530 878
530 948
530 1164
530 1227
530 1373
530 1762
530 1989
530 2010
530 2303
530 2388
530 2581
530 2598
530 2653
530 3466
530 3535
530 3785
530 4601
530 4759
531 720
531 991
531 1107
531 1774
531 2246
531 2337
531 2519
531 2564
531 2582
531 2765
531 3077
531 3429
531 3589
531 3616
531 3735
531 3909
531 4160
531 4174
531 4210
532 589
532 685
532 690
532 711
532 770
532 831
532 894
532 1099
532 1116
532 1185
532 1188
532 1464
532 1709
532 1714
532 1720
532 1732
532 1754
532 1763
532 1766
532 1770
532 1848
532 1869
532 1938
532 1980
532 2007
532 2088
532 2184
532 2198
532 2310
532 2778
532 2808
532 2836
532 2868
532 2920
532 2962
532 2974
532 3001
532 3283
532 3293
532 3568
532 3891
532 4050
532 4088
532 4099
532 4132
532 4219
532 4263
532 4473
532 4526
532 4527
532 4836
532 4862
532 4863
532 4884
532 4902
532 4949
533 792
533 812
533 912
533 1246
533 1400
533 1634
533 1874
533 2033
533 2335
533 2582
533 3506
533 3534
533 3609
533 3648
533 4138
533 4156
533 4182
533 4229
533 4608
534 966
534 1361
534 1433
534 1495
534 2119
534 2435
534 3012
534 4111
534 4368
534 4421
534 4932
535 560
535 895
535 1004
535 1754
535 1995
535 2014
535 2077
535 2170
535 2174
535 2318
535 2465
535 2566
535 2679
535 2903
535 2970
535 3132
535 3509
535 3649
535 3665
535 3676
535 3678
535 3779
535 3831
535 3919
535 3974
535 4293
535 4301
535 4412
535 4699
535 4710
535 4913
536 943
536 990
536 1227
536 1273
536 1827
536 2079
536 2340
536 2475
536 2488
536 3238
536 3250
536 4357
536 4822
536 4958
537 673
537 890
537 1569
537 1570
537 1877
537 2074
537 2165
537 2312
537 2447
537 2661
537 3137
537 3304
537 3347
537 3622
537 3645
537 3657
537 3658
537 4118
537 4128
537 4213
537 4476
537 4544
537 4555
537 4626
537 4655
537 4887
537 4978
538 835
538 1260
538 1346
538 1522
538 1924
538 2065
538 2111
538 2534
538 2655
538 2802
538 3024
538 3425
538 3690
538 3945
538 4708
539 1187
539 1207
539 1251
539 1271
539 1326
539 1513
539 2280
539 2385
539 2516
539 2913
539 3178
539 3259
539 3280
539 3616
539 3835
539 4101
539 4131
539 4293
539 4301
539 4331
539 4394
539 4460
539 4477
539 4493
539 4498
539 4763
539 4784
540 655
540 888
540 1139
540 1793
540 2083
540 2299
540 2458
540 3228
540 3295
540 3305
540 3380
540 3743
540 3869
540 3978
540 4063
540 4109
540 4390
540 4534
540 4969
541 587
541 759
541 2051
541 2587
541 2644
541 2647
541 2685
541 2775
541 2933
541 3112
541 3113
541 3175
541 3560
541 4161
541 4274
541 4525
541 4611
541 4666
542 1274
542 1570
542 2067
542 2312
542 3137
542 3179
542 3622
542 4118
542 4128
542 4211
542 4213
542 4544
542 4626
542 4766
542 4887
542 4929
542 4978
543 722
543 867
543 1231
543 1257
543 1481
543 1813
543 1822
543 1908
543 2071
543 2089
543 2205
543 2342
543 2891
543 2897
543 3035
543 3211
543 3491
543 3599
543 3882
543 4001
543 4337
544 597
544 621
544 628
544 859
544 893
544 960
544 1014
544 1061
544 1086
544 1526
544 1660
544 1880
544 1889
544 2070
544 2082
544 2291
544 2372
544 2397
544 2501
544 2532
544 2607
544 2619
544 2654
544 2825
544 3079
544 3128
544 3198
544 3450
544 3517
544 3806
544 3935
544 3948
544 4430
544 4475
544 4501
545 576
545 670
545 1152
545 1290
545 1685
545 2111
545 2550
545 2830
545 3426
545 4286
545 4389
545 4403
545 4694
545 4705
545 4769
545 4794
546 547
546 1576
546 1864
546 2350
546 2486
546 2614
546 2628
546 2723
546 2907
546 3274
546 3956
546 4037
546 4320
546 4545
546 4899
547 1360
547 1576
547 1864
547 2540
547 2593
547 2614
547 2628
547 2907
547 2965
547 2995
547 3886
547 3901
547 4037
547 4140
548 598
548 611
548 817
548 923
548 977
548 1013
548 1131
548 1209
548 1328
548 1371
548 1408
548 1430
548 1537
548 1624
548 1668
548 1708
548 1909
548 2390
548 2394
548 2429
548 2508
548 2542
548 3012
548 3388
548 3432
548 3441
548 3461
548 3582
548 3627
548 3659
548 3953
548 4111
548 4149
548 4209
548 4230
548 4405
548 4421
548 4426
548 4437
548 4439
548 4465
548 4500
548 4550
548 4858
549 674
549 922
549 995
549 1127
549 1231
549 1257
549 1508
549 1731
549 1778
549 1791
549 1882
549 1908
549 1940
549 2089
549 2094
549 2177
549 2205
549 2342
549 2579
549 2777
549 2881
549 2922
549 2951
549 4298
549 4488
549 4515
549 4941
550 723
550 974
550 1513
550 2140
550 3181
550 3378
550 3568
550 3635
550 4158
550 4182
550 4192
550 4252
550 4310
550 4404
550 4572
550 4576
550 4608
550 4744
551 565
551 967
551 1016
551 1920
551 2048
551 2053
551 2058
551 2084
551 2325
551 2491
551 2525
551 2675
551 2786
551 2788
551 2825
551 2930
551 3338
551 3376
551 3401
551 3468
551 3784
551 4296
551 4908
551 4976
552 627
552 675
552 1168
552 1210
552 1294
552 1580
552 1854
552 1887
552 2849
552 3066
552 3322
552 3478
552 3729
552 3842
552 3872
552 4687
552 4764
552 4900
552 4907
553 599
553 1040
553 1388
553 1777
553 1841
553 2075
553 2110
553 2180
553 2226
553 2261
553 2272
553 2551
553 2568
553 2589
553 3126
553 3217
553 3341
553 3379
553 3647
553 3816
553 4200
553 4258
553 4862
554 1119
554 1316
554 1317
554 3465
554 3756
554 4104
554 4662
554 4677
554 4788
554 4866
554 4989
555 889
555 1134
555 1479
555 1637
555 1781
555 2073
555 2077
555 2255
555 2293
555 2555
555 2856
555 3116
555 4160
555 4763
556 676
556 1009
556 1064
556 1357
556 1379
556 2055
556 2625
556 2643
556 3272
556 3711
556 3937
556 4121
556 4319
556 4322
556 4325
556 4785
556 4967
557 614
557 666
557 684
557 785
557 1261
557 1298
557 1336
557 1447
557 1575
557 1715
557 1773
557 1885
557 2636
557 2736
557 3167
557 3194
557 3292
557 3467
557 3914
557 4651
557 4656
557 4728
557 4790
558 678
558 933
558 944
558 1025
558 1046
558 1175
558 1960
558 2131
558 2326
558 3208
558 3440
558 3693
558 3724
558 4080
558 4086
558 4122
558 4154
558 4189
558 4335
558 4403
558 4960
559 567
559 582
559 660
559 693
559 705
559 799
559 992
559 993
559 1025
559 1070
559 1071
559 1154
559 1167
559 1179
559 1239
559 1468
559 1484
559 1532
559 1644
559 1923
559 1953
559 2151
559 2233
559 2469
559 2528
559 2548
559 2613
559 2676
559 2789
559 2810
559 2899
559 2966
559 3004
559 3152
559 3212
559 3309
559 3358
559 3522
559 3617
559 3992
559 4028
559 4093
559 4162
559 4176
559 4190
559 4229
559 4237
559 4360
559 4451
559 4476
559 4513
559 4558
559 4580
559 4629
559 4776
559 4871
559 4877
560 672
560 688
560 1571
560 2555
560 2742
560 2765
560 2862
560 3281
560 3700
560 4101
560 4138
560 4285
560 4301
560 4342
560 4357
560 4400
560 4573
560 4718
560 4736
560 4743
560 4763
561 1156
561 1196
561 1399
561 1529
561 1662
561 1729
561 1990
561 2414
561 2488
561 2615
561 2883
561 3080
561 3107
561 3304
561 3438
561 3559
561 4422
561 4423
561 4616
562 686
562 760
562 1103
562 1580
562 2262
562 2751
562 2766
562 2864
562 3026
562 3044
562 3210
562 3276
562 3615
562 4072
562 4110
562 4385
562 4433
562 4446
562 4956
563 643
563 936
563 957
563 978
563 1009
563 1379
563 1515
563 1524
563 1660
563 1933
563 1976
563 2097
563 2143
563 2425
563 2572
563 2601
563 2959
563 3022
563 3212
563 3213
563 3272
563 3527
563 3937
563 3990
563 4127
563 4294
563 4357
563 4358
563 4388
563 4976
563 4979
564 641
564 661
564 794
564 804
564 830
564 916
564 931
564 1026
564 1041
564 1045
564 1172
564 1198
564 1321
564 1338
564 1344
564 1373
564 1423
564 1610
564 1987
564 2378
564 2384
564 2399
564 2414
564 2538
564 2594
564 2653
564 3034
564 3070
564 3080
564 3097
564 3098
564 3156
564 3336
564 3349
564 3495
564 3558
564 3656
564 3731
564 3792
564 3831
564 4012
564 4402
564 4521
564 4596
564 4616
564 4643
564 4650
564 4939
565 842
565 876
565 959
565 967
565 1531
565 1544
565 1920
565 2048
565 2053
565 2058
565 2084
565 2085
565 2096
565 2788
565 3338
565 3376
565 3468
565 3565
565 4260
565 4533
565 4881
566 574
566 1429
566 1485
566 2284
566 3354
566 3585
566 3727
566 3836
566 4111
566 4361
566 4487
566 4806
567 676
567 814
567 946
567 1070
567 1140
567 1154
567 1478
567 1532
567 1644
567 2078
567 2474
567 2492
567 3004
567 3109
567 3351
567 3681
567 4038
567 4055
567 4152
567 4176
567 4237
567 4365
567 4871
567 4877
568 764
568 941
568 1026
568 1045
568 1138
568 1164
568 1321
568 1344
568 2010
568 2399
568 2581
568 2674
568 2717
568 2801
568 2954
568 3010
568 3070
568 3248
568 3442
568 3443
568 3513
568 3732
568 3881
568 3964
568 4129
568 4246
568 4423
568 4599
569 596
569 632
569 778
569 1068
569 1090
569 2223
569 2242
569 2306
569 2479
569 2560
569 2608
569 2988
569 3091
569 3505
569 4021
569 4109
569 4114
569 4125
569 4239
569 4306
569 4454
569 4649
569 4760
569 4797
570 841
570 975
570 1312
570 1359
570 1645
570 2077
570 2244
570 2359
570 2480
570 2592
570 3444
570 4292
570 4464
570 4518
570 4678
570 4703
571 756
571 864
571 942
571 1393
571 2386
571 2697
571 2811
571 2829
571 2853
571 3217
571 3497
571 3561
571 4467
571 4870
571 4882
571 4906
572 812
572 991
572 1285
572 1599
572 3108
572 3178
572 3206
572 3300
572 3416
572 3506
572 3568
572 3698
572 3967
572 4084
572 4272
572 4280
572 4301
572 4763
572 4948
573 574
573 2284
573 2591
573 3354
573 3706
573 3727
573 3828
573 4300
573 4361
573 4589
573 4648
573 4812
574 1429
574 2284
574 2591
574 2795
574 3191
574 3354
574 3579
574 3585
574 3706
574 3727
574 3765
574 4291
574 4300
574 4361
574 4487
574 4549
574 4589
575 853
575 856
575 943
575 1069
575 1306
575 1502
575 2117
575 2987
575 3016
575 3119
575 3124
575 3133
575 3355
575 3495
575 3949
575 4105
575 4854
576 581
576 638
576 1152
576 1259
576 1615
576 1626
576 2164
576 2316
576 3426
576 3721
576 3953
576 4794
577 744
577 886
577 1041
577 1222
577 1629
577 2316
577 2480
577 2511
577 2975
577 3062
577 3114
577 3235
577 3336
577 4095
577 4129
577 4422
577 4554
577 4596
577 4759
578 687
578 715
578 774
578 825
578 834
578 836
578 1340
578 1590
578 1888
578 2642
578 2688
578 3305
578 3332
578 3462
578 3484
578 3489
578 3490
578 4186
578 4196
578 4375
578 4406
578 4748
579 585
579 636
579 651
579 658
579 1038
579 1087
579 1118
579 1305
579 1349
579 1741
579 1746
579 1838
579 2161
579 2227
579 2250
579 2258
579 2319
579 2322
579 2342
579 2376
579 2470
579 2543
579 2596
579 2695
579 2722
579 3041
579 3205
579 3306
579 3434
579 3646
579 3687
579 3874
579 3885
579 4184
579 4238
579 4257
579 4297
579 4386
579 4415
579 4432
579 4724
579 4730
579 4779
579 4864
580 879
580 965
580 1032
580 1238
580 1348
580 1375
580 1605
580 1655
580 1678
580 1685
580 1707
580 1858
580 1970
580 1971
580 2133
580 2886
580 2937
580 2981
580 3013
580 3078
580 3189
580 3257
580 3435
580 3588
580 3844
580 3880
580 4010
580 4015
580 4056
580 4288
581 638
581 670
581 751
581 922
581 1152
581 1234
581 1259
581 1463
581 1615
581 1626
581 1636
581 1671
581 2044
581 2235
581 2273
581 2316
581 2424
581 2445
581 2550
581 2830
581 3426
581 3721
581 4150
581 4389
581 4393
581 4674
581 4694
581 4700
581 4840
581 4889
582 705
582 1478
582 1532
582 2078
582 2474
582 2512
582 2551
582 2613
582 2649
582 3152
582 3253
582 4365
582 4558
582 4613
582 4640
582 4642
583 1156
583 1284
583 1750
583 1906
583 2075
583 2095
583 2272
583 2551
583 2589
583 2865
583 3088
583 3222
583 3341
583 3647
583 3648
583 3966
583 4099
583 4200
583 4702
583 4839
583 4991
584 587
584 731
584 919
584 1042
584 1056
584 1177
584 1283
584 1442
584 1471
584 1485
584 1486
584 1814
584 1852
584 2051
584 2059
584 2087
584 2103
584 2218
584 2498
584 2576
584 2587
584 2610
584 2712
584 2729
584 2852
584 2933
584 3077
584 3112
584 3175
584 3498
584 3532
584 3541
584 3554
584 3555
584 3560
584 3604
584 3703
584 3713
584 3963
584 4161
584 4336
584 4474
584 4482
584 4494
584 4542
584 4556
584 4622
584 4666
584 4748
585 636
585 838
585 1087
585 1899
585 1921
585 2150
585 2292
585 2376
585 2708
585 3205
585 3266
585 3481
585 3671
585 3885
585 4177
585 4184
585 4198
585 4345
585 4417
585 4432
585 4547
585 4592
585 4864
585 4932
586 638
586 670
586 1328
586 1615
586 1626
586 1636
586 1929
586 2550
586 3140
586 3214
586 3651
586 4056
586 4167
586 4694
586 4705
587 731
587 906
587 919
587 1019
587 1042
587 1056
587 1177
587 1220
587 1247
587 1442
587 1471
587 1483
587 1485
587 1856
587 2004
587 2050
587 2051
587 2059
587 2103
587 2498
587 2576
587 2580
587 2587
587 2712
587 2729
587 2740
587 2775
587 2839
587 2852
587 3112
587 3147
587 3157
587 3175
587 3498
587 3532
587 3541
587 3554
587 3555
587 3560
587 3604
587 3713
587 3963
587 4045
587 4161
587 4166
587 4183
587 4212
587 4218
587 4336
587 4374
587 4482
587 4494
587 4525
587 4542
587 4556
587 4611
587 4622
587 4666
587 4693
588 1285
588 1450
588 1787
588 1864
588 2071
588 2350
588 2461
588 2614
588 2723
588 2907
588 2995
588 3203
588 3886
588 3901
588 4037
588 4629
588 4658
588 4872
588 4899
589 1155
589 1716
589 1734
589 1812
589 2570
589 3863
589 3999
589 4077
589 4171
589 4650
590 780
590 1256
590 1279
590 1491
590 1613
590 1637
590 1754
590 1910
590 2044
590 2280
590 2375
590 2383
590 2720
590 2723
590 2899
590 3700
590 3822
590 4327
590 4341
590 4532
590 4593
590 4719
591 880
591 1040
591 1062
591 1124
591 1548
591 1750
591 2075
591 2110
591 2180
591 2427
591 2666
591 2961
591 3258
591 3614
591 3680
591 3781
591 4099
591 4144
591 4258
591 4671
591 4702
591 4839
592 805
592 860
592 1308
592 1788
592 1854
592 2087
592 2149
592 2667
592 2715
592 3046
592 3053
592 3217
592 3523
592 3552
592 3951
592 4387
592 4467
592 4870
592 4872
592 4999
593 624
593 733
593 866
593 1159
593 1189
593 1418
593 1697
593 1918
593 2136
593 2213
593 2478
593 2565
593 2650
593 2660
593 2668
593 2725
593 3317
593 3520
593 4231
593 4504
593 4820
593 4850
593 4954
593 4955
594 595
594 1292
594 1781
594 2519
594 2559
594 2693
594 2851
594 2865
594 2904
594 3807
594 4192
594 4214
594 4301
594 4489
594 4548
594 4744
594 4805
594 4913
595 655
595 1085
595 1571
595 1752
595 2073
595 2234
595 2249
595 2346
595 2383
595 2504
595 2691
595 2758
595 3132
595 3191
595 3270
595 3745
595 4301
595 4763
595 4767
595 4805
595 4885
596 945
596 1015
596 1068
596 1503
596 2481
596 2509
596 2560
596 2732
596 3381
596 3594
596 3740
596 4059
596 4124
596 4125
596 4141
596 4239
596 4279
596 4600
596 4649
596 4665
597 863
597 893
597 1061
597 1343
597 1577
597 1660
597 2291
597 2377
597 2406
597 2501
597 2532
597 2656
597 3064
597 3087
597 3128
597 3517
597 3932
597 3935
597 3985
597 4143
597 4268
597 4289
597 4427
597 4501
597 4771
598 602
598 846
598 1131
598 1538
598 1715
598 2542
598 2824
598 3115
598 3441
598 3461
598 3510
598 3573
598 3627
598 3659
598 4149
598 4187
598 4374
598 4419
598 4470
598 4503
598 4675
599 1358
599 1388
599 1748
599 1781
599 1841
599 2069
599 2272
599 2298
599 2551
599 2665
599 2865
599 3341
599 3647
599 4099
599 4200
599 4702
599 4838
599 4839
599 4862
599 4972
600 975
600 1093
600 1269
600 1360
600 1443
600 2276
600 2349
600 2937
600 3879
600 4464
600 4635
601 607
601 975
601 1216
601 1343
601 1439
601 1614
601 2276
601 2301
601 2393
601 2446
601 2605
601 4292
601 4370
601 4518
601 4550
602 846
602 1013
602 1035
602 1209
602 1433
602 1708
602 2088
602 2175
602 2429
602 2452
602 3012
602 3582
602 3623
602 3998
602 4111
602 4470
602 4620
602 4747
603 644
603 847
603 1127
603 1318
603 1377
603 1584
603 1585
603 2125
603 2278
603 2362
603 2416
603 3170
603 3673
603 4408
603 4565
604 1067
604 1073
604 1138
604 1523
604 2009
604 2208
604 2456
604 2575
604 2598
604 2670
604 2682
604 2891
604 3160
604 3235
604 3283
604 4017
604 4596
604 4753
604 4756
605 798
605 1249
605 1417
605 1426
605 1696
605 1824
605 1854
605 2013
605 2017
605 2554
605 2623
605 2860
605 2996
605 3011
605 3096
605 3123
605 3143
605 3412
605 3500
605 3809
605 3910
605 3918
605 4025
605 4081
605 4467
605 4787
605 4886
606 916
606 948
606 1196
606 1222
606 1338
606 1372
606 2453
606 2975
606 3336
606 3438
606 3557
606 3580
606 3632
606 3785
606 3924
606 3927
606 4443
606 4462
606 4644
606 4672
607 975
607 1232
607 1718
607 2244
607 2276
607 2540
607 2635
607 3302
607 3312
607 3949
607 4256
607 4303
608 785
608 789
608 1261
608 1298
608 1336
608 1689
608 1810
608 1885
608 1901
608 2099
608 2135
608 2190
608 2191
608 2636
608 2647
608 2669
608 2736
608 3167
608 3292
608 3722
608 4135
608 4168
608 4295
608 4438
608 4548
608 4728
608 4733
608 4748
609 690
609 1070
609 1510
609 2068
609 2101
609 2113
609 2315
609 2456
609 2474
609 2492
609 2548
609 2676
609 2748
609 2824
609 3617
609 4076
609 4194
609 4613
609 4776
609 4865
610 712
610 756
610 776
610 783
610 871
610 904
610 938
610 1049
610 1245
610 1465
610 2621
610 2944
610 3217
610 3413
610 3660
610 3804
610 4557
610 4598
610 4689
610 4782
610 4897
611 631
611 1020
611 1123
611 1519
611 2072
611 2097
611 2681
611 3135
611 3604
611 4121
611 4325
611 4990
612 759
612 826
612 896
612 926
612 1058
612 1094
612 1163
612 1263
612 1370
612 1475
612 1699
612 1923
612 1931
612 1933
612 1936
612 1991
612 2031
612 2045
612 2149
612 2252
612 2265
612 2716
612 2761
612 2893
612 2976
612 3062
612 3070
612 3096
612 3200
612 3229
612 3241
612 3328
612 3368
612 3456
612 3474
612 3514
612 3581
612 3596
612 3634
612 3674
612 3746
612 3788
612 3811
612 3815
612 3900
612 4203
612 4458
612 4720
612 4813
612 4846
612 4895
612 4969
613 817
613 2221
613 2568
613 2574
613 3091
613 3281
613 3432
613 4111
613 4416
613 4424
613 4500
613 4620
614 1126
614 1261
614 1336
614 1647
614 1901
614 1917
614 2159
614 2190
614 2636
614 2762
614 3153
614 3292
614 3318
614 3364
614 3467
614 3518
614 3711
614 3728
614 4135
614 4139
614 4168
614 4318
614 4733
614 4790
615 659
615 1012
615 1064
615 1114
615 1133
615 1276
615 1303
615 1332
615 1441
615 2072
615 2108
615 2123
615 2168
615 2339
615 2476
615 2601
615 2671
615 2867
615 2923
615 2994
615 3079
615 3212
615 3272
615 3313
615 3346
615 3384
615 3788
615 3990
615 4003
615 4026
615 4049
615 4197
615 4215
615 4294
615 4326
615 4388
615 4491
615 4581
615 4959
616 1062
616 1197
616 1284
616 1841
616 2080
616 2427
616 2520
616 2690
616 3088
616 3226
616 3647
616 3957
616 4144
616 4253
616 4364
616 4839
617 774
617 825
617 1161
617 1182
617 1186
617 1590
617 1607
617 1647
617 1659
617 1723
617 1888
617 2183
617 2240
617 2287
617 2681
617 3237
617 3332
617 3484
617 3767
617 3885
617 3921
617 4234
617 4241
617 4406
617 4472
617 4578
617 4685
617 4704
617 4798
618 1110
618 1402
618 1870
618 1914
618 2115
618 2134
618 2148
618 2371
618 2381
618 2419
618 2631
618 2657
618 2917
618 3124
618 3188
618 3483
618 3562
618 3849
618 4143
618 4227
618 4507
618 4717
618 4778
618 4792
618 4888
619 764
619 804
619 865
619 882
619 934
619 936
619 954
619 1010
619 1065
619 1222
619 1344
619 1422
619 1712
619 1861
619 1987
619 2015
619 2177
619 2404
619 2414
619 2421
619 2438
619 2462
619 2473
619 2598
619 2653
619 2703
619 2763
619 2772
619 2803
619 2835
619 2965
619 3019
619 3138
619 3248
619 3283
619 3340
619 3349
619 3383
619 3452
619 3479
619 3526
619 3619
619 3628
619 3703
619 3705
619 3864
619 3930
619 3979
619 3980
619 4078
619 4129
619 4169
619 4402
619 4423
619 4449
619 4481
619 4592
619 4639
619 4686
619 4710
619 4759
619 4871
619 4965
620 708
620 791
620 828
620 926
620 1060
620 1128
620 1133
620 1337
620 1475
620 1594
620 1673
620 1855
620 1978
620 2176
620 2354
620 2749
620 2751
620 3134
620 3160
620 3207
620 3209
620 3373
620 3884
620 3892
620 4519
620 4891
620 4920
621 859
621 960
621 1368
621 1631
621 2070
621 2406
621 2451
621 2866
621 2928
621 3078
621 3288
621 3935
621 4268
621 4427
621 4450
621 4771
622 656
622 954
622 1063
622 2366
622 2385
622 2453
622 2511
622 3398
622 3494
622 3606
622 3703
622 4116
622 4443
622 4817
622 4901
623 806
623 1329
623 1588
623 1649
623 2007
623 2037
623 2144
623 2222
623 2394
623 2417
623 2527
623 2612
623 2955
623 3060
623 3427
623 3972
623 3983
623 4172
623 4329
623 4383
623 4397
623 4399
623 4505
623 4645
623 4667
623 4747
623 4749
623 4905
623 4923
624 784
624 866
624 1159
624 1418
624 1444
624 1656
624 2173
624 2250
624 2304
624 2482
624 2565
624 2668
624 2725
624 2854
624 3402
624 4434
624 4469
625 745
625 1413
625 1542
625 1638
625 1736
625 2252
625 2426
625 2477
625 2593
625 2717
625 2956
625 3045
625 3391
626 761
626 844
626 2285
626 2379
626 2418
626 2442
626 2779
626 3097
626 4220
626 4255
626 4270
626 4977
627 707
627 764
627 956
627 1022
627 1208
627 1426
627 1432
627 1439
627 1496
627 1555
627 1563
627 1600
627 1842
627 1935
627 1994
627 2579
627 2584
627 2597
627 2663
627 2831
627 2869
627 2944
627 3060
627 3217
627 3271
627 3278
627 3476
627 3809
627 3842
627 3872
627 3938
627 4595
627 4773
627 4782
627 4808
627 4872
627 4886
627 4985
628 714
628 736
628 905
628 1066
628 1191
628 1445
628 1691
628 1982
628 2515
628 2534
628 2574
628 2615
628 2623
628 2659
628 2805
628 2991
628 3316
628 3399
628 3418
628 3626
628 3695
628 3718
628 3761
628 3774
628 3810
628 3951
628 4087
628 4467
628 4567
628 4634
628 4764
628 4803
628 4907
628 4989
629 975
629 1235
629 2204
629 2221
629 2239
629 2276
629 2301
629 2433
629 3307
629 3312
629 3587
630 1030
630 1094
630 1581
630 1687
630 1906
630 1914
630 1933
630 2037
630 2181
630 2201
630 2784
630 2820
630 2976
630 3025
630 3285
630 3303
630 3407
630 3597
630 3610
630 3639
630 3674
630 3692
630 3870
630 3915
630 3962
630 4664
630 4891
631 742
631 756
631 798
631 937
631 956
631 975
631 1049
631 1054
631 1249
631 1308
631 1419
631 1462
631 1525
631 1643
631 1681
631 1836
631 1862
631 1994
631 2013
631 2020
631 2515
631 2581
631 2584
631 2597
631 2657
631 2659
631 2663
631 2700
631 2715
631 2774
631 2809
631 2819
631 2829
631 2846
631 2858
631 3050
631 3143
631 3217
631 3218
631 3310
631 3389
631 3418
631 3501
631 3512
631 3624
631 3660
631 3695
631 3697
631 3718
631 3951
631 3995
631 4025
631 4240
631 4467
631 4741
631 4809
631 4855
631 4858
631 4897
631 4904
631 4964
631 4989
632 699
632 1068
632 1120
632 1503
632 2560
632 3876
632 4114
632 4363
632 4649
632 4760
632 4955
633 749
633 773
633 953
633 1163
633 1370
633 2155
633 2181
633 2252
633 2672
633 3029
633 3104
633 3110
633 3125
633 3160
633 3326
633 3348
633 3373
633 3474
633 4458
633 4694
633 4749
633 4911
634 903
634 953
634 1129
634 1163
634 1236
634 1896
634 1930
634 2116
634 2834
634 3000
634 3160
634 3267
634 3326
634 3650
634 3662
634 3691
634 3773
634 4040
634 4412
634 4455
634 4564
635 742
635 763
635 2087
635 2125
635 2344
635 2465
635 2911
635 3163
635 3673
635 4223
635 4232
635 4441
635 4746
635 4761
636 1201
636 2070
636 2289
636 2319
636 2368
636 2696
636 2901
636 3306
636 3481
636 3671
636 3775
636 3874
636 3885
636 4724
636 4864
637 700
637 718
637 810
637 830
637 948
637 1222
637 1244
637 1390
637 1531
637 1989
637 2806
637 2875
637 3080
637 3304
637 3398
637 3479
637 3494
637 3888
637 3911
637 3979
637 4393
637 4422
637 4759
638 670
638 691
638 922
638 1152
638 1236
638 1290
638 1615
638 1626
638 1636
638 1664
638 1671
638 1685
638 1696
638 1805
638 2104
638 2182
638 2243
638 2273
638 2316
638 2332
638 2424
638 2445
638 2709
638 2830
638 3340
638 3426
638 3651
638 3685
638 3787
638 3835
638 3951
638 4261
638 4582
638 4674
638 4705
638 4879
639 973
639 1004
639 1043
639 1571
639 1755
639 2090
639 2120
639 2234
639 2742
639 3297
639 3421
639 3506
639 3568
639 3614
639 3699
639 3714
639 4330
639 4569
639 4902
640 669
640 743
640 979
640 1641
640 1684
640 1898
640 2163
640 2431
640 2731
640 2935
640 3249
640 3265
640 4204
640 4340
640 4451
640 4512
640 4772
640 4793
640 4815
640 4848
640 4966
640 4976
641 741
641 750
641 808
641 1045
641 1172
641 1867
641 2812
641 2875
641 3235
641 3423
641 3469
641 3557
641 3559
641 4278
641 4449
641 4461
641 4485
641 4610
641 4732
641 4971
642 1167
642 1351
642 1377
642 1472
642 1584
642 1612
642 2087
642 2125
642 2362
642 2965
642 3168
642 3225
642 4668
642 4746
643 1064
643 2302
643 2392
643 2572
643 3272
643 3455
643 3937
643 3950
643 3989
643 4068
643 4115
643 4127
643 4388
643 4438
644 1023
644 1173
644 1236
644 1345
644 1462
644 1555
644 1643
644 1749
644 2020
644 2585
644 2586
644 2697
644 3009
644 3046
644 3261
644 3404
644 3910
644 3911
644 4396
644 4652
644 4684
644 4697
644 4741
644 4758
644 4762
644 4897
644 4985
645 653
645 738
645 749
645 779
645 1176
645 1337
645 1475
645 1687
645 1886
645 1923
645 2031
645 2149
645 2796
645 2844
645 2976
645 3092
645 3160
645 3246
645 4126
645 4205
645 4557
645 4695
645 4757
645 4920
646 794
646 1231
646 1284
646 1556
646 1777
646 2075
646 2080
646 2095
646 2260
646 2272
646 2298
646 2551
646 2708
646 3088
646 3176
646 3222
646 4144
646 4258
646 4839
646 4962
647 849
647 1029
647 1059
647 1142
647 1178
647 1363
647 1557
647 1611
647 1635
647 1747
647 1942
647 2499
647 2816
647 2916
647 2981
647 3171
647 3642
647 3734
647 3742
647 3824
647 3839
647 3897
647 3922
647 3928
647 3957
647 4501
647 4566
647 4943
648 760
648 1436
648 2262
648 2455
648 3210
648 3615
648 3873
648 4072
648 4344
648 4385
648 4411
648 4614
649 1176
649 1350
649 1386
649 1416
649 1817
649 1871
649 1949
649 2090
649 2181
649 2678
649 2684
649 2711
649 2784
649 3125
649 3328
649 3513
649 3514
649 3673
649 3674
649 3692
650 966
650 1257
650 2141
650 2175
650 2429
650 2542
650 3091
650 3115
650 3432
650 4098
650 4111
650 4416
650 4419
650 4437
650 4495
650 4500
650 4636
650 4654
651 968
651 1118
651 1746
651 2227
651 2322
651 2752
651 3199
651 3687
651 3775
651 4177
651 4184
651 4224
651 4257
651 4345
651 4417
651 4724
652 912
652 1104
652 1147
652 1242
652 1613
652 1754
652 1776
652 2234
652 2375
652 2679
652 3534
652 3538
652 3568
652 3645
652 3973
652 4072
652 4234
652 4293
652 4342
652 4391
652 4460
652 4783
653 716
653 892
653 1286
653 1350
653 1386
653 1387
653 1488
653 1587
653 1663
653 1906
653 2176
653 2277
653 2724
653 2797
653 3029
653 3125
653 3154
653 3158
653 3219
653 3328
653 3411
653 3521
653 3529
653 3620
653 3826
653 4064
654 686
654 808
654 1063
654 1078
654 1244
654 1299
654 1331
654 1900
654 2473
654 2488
654 2583
654 2806
654 3114
654 3248
654 3349
654 3398
654 3408
654 3754
654 3911
654 4078
654 4293
654 4592
654 4678
654 4965
655 657
655 699
655 777
655 866
655 888
655 1139
655 1180
655 1728
655 1911
655 1926
655 1934
655 2083
655 2157
655 2299
655 2458
655 2541
655 2748
655 2842
655 3062
655 3380
655 3513
655 3743
655 3869
655 3978
655 4063
655 4109
655 4235
655 4347
655 4390
655 4534
655 4536
655 4825
656 1052
656 1794
656 2425
656 2756
656 3379
656 3463
656 3504
656 4129
656 4396
656 4471
656 4521
656 4696
657 1139
657 1672
657 1934
657 2157
657 3380
657 3421
657 3743
657 4063
657 4347
657 4390
657 4536
657 4690
658 755
658 838
658 1125
658 1349
658 1727
658 1746
658 1838
658 1899
658 2215
658 2317
658 2470
658 2696
658 2906
658 3041
658 3272
658 4297
658 4345
658 4730
658 4779
658 4864
658 4932
659 676
659 898
659 920
659 978
659 1952
659 2066
659 2302
659 2352
659 2476
659 2595
659 2629
659 3272
659 3313
659 3455
659 3569
659 3628
659 4082
659 4197
659 4967
660 705
660 914
660 946
660 993
660 1167
660 1245
660 1509
660 1510
660 2068
660 2113
660 2315
660 2469
660 2474
660 2548
660 2649
660 2810
660 3425
660 3522
660 3763
660 3788
660 4028
660 4152
660 4172
660 4513
660 4776
661 882
661 1529
661 1621
661 1745
661 1868
661 2408
661 2480
661 2598
661 2915
661 3273
661 3530
661 4443
661 4599
661 4657
661 4672
662 751
662 1152
662 1633
662 1929
662 2114
662 2164
662 2251
662 2580
662 2675
662 2677
662 3426
662 3482
662 3857
662 4780
663 758
663 1400
663 1613
663 1635
663 2519
663 2564
663 3271
663 3568
663 3637
663 4101
663 4429
664 696
664 935
664 1869
664 2095
664 2195
664 2236
664 2266
664 2268
664 2491
664 2679
664 2909
664 3007
664 3150
664 3183
664 3216
664 4170
664 4315
664 4353
664 4395
664 4786
665 830
665 948
665 1052
665 1618
665 2682
665 3000
665 3228
665 3273
665 3296
665 3383
665 3445
665 3652
665 3831
665 3870
665 3878
665 3889
665 4363
665 4422
665 4449
665 4804
665 4981
666 1681
666 1766
666 1773
666 1810
666 1885
666 1917
666 2096
666 2190
666 2350
666 2439
666 2736
666 3153
666 3167
666 3194
666 3612
666 4135
666 4733
666 4748
667 670
667 877
667 950
667 1565
667 1828
667 1890
667 2187
667 2577
667 2944
667 3332
667 3402
667 3543
667 3740
667 3857
667 3931
667 4022
667 4131
667 4276
667 4319
667 4628
667 4631
667 4661
668 697
668 820
668 1128
668 1311
668 1550
668 2207
668 2345
668 3252
668 3429
668 3471
668 3482
668 3591
668 4075
668 4369
668 4372
668 4450
668 4646
668 4754
669 769
669 1005
669 1206
669 1454
669 1499
669 1684
669 1898
669 2041
669 2163
669 2169
669 2538
669 2872
669 2882
669 3123
669 3268
669 3398
669 4451
669 4512
669 4517
669 4680
669 4793
669 4966
670 691
670 1152
670 1290
670 1463
670 1615
670 1633
670 1671
670 1929
670 2044
670 2104
670 2114
670 2164
670 2182
670 2235
670 2273
670 2327
670 2330
670 2332
670 2501
670 2516
670 2550
670 2830
670 3243
670 3375
670 3519
670 3583
670 3685
670 3721
670 3894
670 3953
670 3981
670 4261
670 4476
670 4675
670 4694
670 4700
670 4705
670 4780
670 4794
670 4879
671 877
671 1565
671 1828
671 1858
671 1890
671 2032
671 2330
671 2577
671 2704
671 2728
671 3754
671 4022
671 4131
671 4276
671 4631
671 4661
671 4793
672 1637
672 2140
672 2249
672 2555
672 3378
672 3534
672 4139
672 4301
672 4342
672 4616
672 4699
672 4736
673 1149
673 2074
673 2139
673 2161
673 2661
673 3137
673 3271
673 3414
673 3622
673 3657
673 4128
673 4213
673 4544
673 4626
673 4760
673 4766
673 4978
674 746
674 954
674 1813
674 1845
674 1874
674 1961
674 2342
674 2429
674 2642
674 3234
674 3857
674 3882
674 3898
674 4142
674 4147
674 4352
674 4632
675 805
675 1035
675 1208
675 1369
675 1674
675 1862
675 2540
675 2547
675 2586
675 2621
675 2667
675 2845
675 2869
675 2982
675 3060
675 3316
675 3389
675 3500
675 3579
675 3709
675 3726
675 3787
675 4025
675 4795
675 4809
675 4855
675 4897
675 4906
676 898
676 920
676 947
676 1020
676 1114
676 1136
676 1276
676 1332
676 1406
676 1519
676 1534
676 1891
676 1936
676 1983
676 1985
676 2000
676 2036
676 2048
676 2055
676 2066
676 2089
676 2097
676 2162
676 2172
676 2238
676 2339
676 2352
676 2476
676 2572
676 2595
676 2601
676 2625
676 2629
676 2721
676 2756
676 2947
676 2950
676 3165
676 3204
676 3212
676 3272
676 3280
676 3313
676 3346
676 3384
676 3455
676 3752
676 3788
676 3928
676 3950
676 4003
676 4121
676 4215
676 4216
676 4221
676 4294
676 4358
676 4388
676 4401
676 4491
676 4594
676 4959
676 4967
676 4979
677 975
677 1183
677 1235
677 1269
677 1443
677 1520
677 1549
677 2260
677 2497
677 2541
677 3444
677 3520
677 4857
678 715
678 933
678 981
678 1080
678 1105
678 1108
678 2109
678 2130
678 2201
678 2281
678 2549
678 2786
678 3035
678 3040
678 3072
678 3192
678 3472
678 3493
678 4006
678 4122
678 4130
678 4206
678 4623
678 4709
678 4786
679 755
679 1117
679 1340
679 1607
679 1723
679 1767
679 1888
679 1912
679 2175
679 2238
679 2283
679 2287
679 2390
679 2619
679 2688
679 2744
679 3223
679 3350
679 3462
679 3484
679 3767
679 3854
679 3912
679 4186
679 4234
679 4241
679 4304
679 4338
679 4430
679 4490
679 4637
679 4704
679 4738
679 4875
680 688
680 1147
680 1185
680 1374
680 1491
680 1648
680 1754
680 1781
680 1816
680 2010
680 2174
680 2208
680 2218
680 2255
680 2375
680 2444
680 2546
680 3116
680 3262
680 3304
680 3405
680 3678
680 3807
680 3875
680 4158
680 4163
680 4285
680 4617
680 4618
680 4935
681 787
681 1202
681 1263
681 1651
681 1665
681 1871
681 1962
681 2037
681 2126
681 2149
681 2684
681 2711
681 2730
681 3160
681 3184
681 3207
681 3219
681 3529
681 3675
681 4020
681 4042
681 4745
681 4810
681 4891
681 4982
682 798
682 956
682 1294
682 1623
682 1674
682 2043
682 2061
682 2623
682 2663
682 2989
682 3009
682 3053
682 3322
682 3716
682 3810
682 3855
682 3986
682 4387
682 4595
682 4722
682 4826
682 4840
682 4882
682 4985
683 984
683 1147
683 1277
683 1754
683 2321
683 2808
683 3558
683 3723
683 3745
683 3817
683 4138
683 4214
683 4498
683 4532
683 4763
684 743
684 1005
684 1435
684 1514
684 1652
684 1830
684 2169
684 2200
684 2224
684 2264
684 2314
684 2420
684 2731
684 2879
684 3123
684 3699
684 3782
684 3812
684 3894
684 4204
684 4217
684 4236
684 4340
684 4451
684 4512
684 4680
684 4875
684 4966
685 698
685 1292
685 1296
685 1337
685 1843
685 1893
685 1907
685 1990
685 2088
685 2814
685 2828
685 3149
685 3818
685 3899
685 4248
685 4526
685 4987
686 830
686 948
686 2378
686 2421
686 2438
686 2530
686 2662
686 3559
686 3661
686 4017
686 4402
686 4461
686 4554
686 4644
686 4672
686 4706
687 755
687 1590
687 2112
687 2287
687 2464
687 2683
687 2688
687 2759
687 3305
687 3332
687 4273
687 4375
687 4490
687 4690
687 4777
688 988
688 1799
688 1803
688 2038
688 2430
688 4214
688 4489
688 4719
688 4783
689 811
689 1044
689 1158
689 1717
689 1740
689 2052
689 2428
689 2706
689 4360
690 706
690 823
690 2076
690 2086
690 2507
690 2760
690 2902
690 2940
690 3084
690 3118
690 3399
690 3899
690 4281
691 698
691 701
691 751
691 1152
691 1290
691 1615
691 1626
691 1664
691 1685
691 1805
691 2243
691 3426
691 3583
691 3721
691 3818
691 4011
691 4167
691 4582
691 4674
691 4780
692 911
692 1289
692 1565
692 1573
692 2187
692 2330
692 2577
692 2842
692 3796
692 4022
692 4131
692 4186
692 4276
692 4631
693 908
693 1167
693 1246
693 1453
693 1478
693 1953
693 2158
693 2315
693 2810
693 3138
693 3280
693 4046
693 4076
693 4152
693 4502
694 798
694 1326
694 1754
694 1874
694 2174
694 2275
694 2846
694 3359
694 3506
694 3631
694 3677
694 4293
694 4412
694 4812
695 996
695 1046
695 1105
695 1512
695 2136
695 2231
695 2636
695 3061
695 3131
695 3317
695 3794
695 4080
695 4170
695 4353
695 4359
695 4403
696 942
696 1018
696 1036
696 1055
696 1057
696 1108
696 1252
696 1283
696 1546
696 1642
696 2167
696 2268
696 2271
696 2599
696 3157
696 3182
696 3317
696 3333
696 3786
696 4006
696 4122
696 4130
696 4786
696 4983
697 820
697 1834
697 2345
697 3429
697 3471
697 3582
697 4372
697 4514
697 4646
697 4754
697 4873
698 813
698 857
698 1028
698 1076
698 1114
698 1137
698 1169
698 1763
698 1768
698 1907
698 1916
698 1946
698 2100
698 2202
698 2882
698 2962
698 2986
698 3043
698 3149
698 3172
698 3179
698 3318
698 3751
698 3766
698 3796
698 3907
698 3947
698 3972
698 4526
698 4861
698 4862
698 4902
699 973
699 1012
699 1090
699 1503
699 2573
699 2620
699 3142
699 3972
699 4021
699 4079
699 4125
699 4440
699 4468
699 4665
700 948
700 1010
700 1354
700 1401
700 1962
700 1997
700 2544
700 2549
700 2581
700 2624
700 3398
700 3479
700 3710
700 4012
700 4393
700 4423
700 4449
700 4503
700 4592
700 4610
700 4763
701 922
701 1615
701 1626
701 1755
701 1929
701 2104
701 2164
701 2681
701 2709
701 2879
701 3340
701 3651
701 4674
701 4675
701 4879
702 843
702 948
702 1026
702 1147
702 2384
702 2443
702 2449
702 3540
702 3964
702 4017
702 4031
702 4981
703 798
703 956
703 1054
703 1204
703 1352
703 1518
703 1693
703 1742
703 2515
703 2584
703 2626
703 2828
703 2838
703 2982
703 3217
703 3316
703 3367
703 3531
703 3552
703 3613
703 3624
703 3823
703 3918
703 4020
703 4758
703 4768
703 4787
703 4907
703 4922
703 4947
704 853
704 995
704 1072
704 1882
704 1904
704 2147
704 2881
704 2891
704 2951
704 3093
704 3599
704 3834
704 3836
704 4001
704 4002
704 4011
704 4034
704 4119
704 4199
704 4588
704 4898
705 734
705 908
705 1070
705 1097
705 1412
705 1509
705 1666
705 2068
705 2113
705 2548
705 2692
705 3309
705 3810
705 3928
705 4015
705 4123
705 4152
705 4194
705 4614
705 4776
706 803
706 863
706 1185
706 1188
706 1256
706 1719
706 1766
706 1788
706 1825
706 1832
706 1869
706 1903
706 1907
706 1916
706 2007
706 2076
706 2088
706 2169
706 2184
706 2192
706 2198
706 2318
706 2387
706 2507
706 2546
706 2760
706 2781
706 2836
706 2876
706 2999
706 3043
706 3084
706 3179
706 3323
706 3691
706 3751
706 3771
706 3783
706 3796
706 3899
706 3907
706 3928
706 3972
706 4091
706 4263
706 4281
706 4473
706 4527
706 4570
706 4824
706 4844
706 4850
706 4878
706 4884
706 4902
706 4926
706 4949
706 4963
706 4987
707 712
707 819
707 1146
707 2579
707 2853
707 3011
707 3060
707 3217
707 3271
707 3420
707 3655
707 3697
707 3855
707 4557
707 4595
707 4721
707 4736
707 4795
707 4892
708 738
708 1050
708 1176
708 1549
708 1663
708 1819
708 1921
708 2116
708 2252
708 2784
708 3219
708 3241
708 3246
708 3452
708 3630
708 3852
708 4715
709 781
709 1309
709 1337
709 1886
709 2116
709 2354
709 2397
709 2678
709 3056
709 3086
709 3160
709 3193
709 3279
709 3348
709 3360
709 3514
709 3620
709 3946
709 3997
709 4846
710 1183
710 1235
710 1275
710 1402
710 2204
710 2221
710 2260
710 2276
710 2446
710 4262
710 4303
710 4377
710 4688
711 993
711 1188
711 1720
711 1840
711 1893
711 2318
711 2401
711 2836
711 2999
711 3028
711 3290
711 3902
711 3908
711 4264
711 4281
711 4408
711 4473
711 4993
712 1249
712 1531
712 1550
712 1606
712 2402
712 2579
712 2586
712 2615
712 2700
712 3066
712 3477
712 4208
712 4252
712 4387
712 4595
712 4762
712 4782
712 4795
713 963
713 1111
713 1213
713 1288
713 1535
713 2106
713 2178
713 2253
713 2343
713 2511
713 2846
713 2847
713 3299
713 3339
713 3848
713 4195
713 4379
713 4562
713 4615
714 791
714 905
714 1407
714 1525
714 1842
714 1954
714 2386
714 2700
714 2715
714 2944
714 2982
714 3011
714 3060
714 3164
714 3217
714 3218
714 3453
714 3470
714 3578
714 3951
714 4634
714 4731
714 4762
714 4795
714 4882
714 4989
715 1180
715 1288
715 1315
715 1546
715 1824
715 2178
715 2494
715 2847
715 3006
715 3299
715 3362
715 3365
715 3838
715 4048
715 4180
715 4379
715 4615
715 4673
715 4698
715 4811
716 738
716 773
716 892
716 1030
716 1404
716 1562
716 1846
716 1902
716 2354
716 2727
716 2751
716 2855
716 3066
716 3125
716 3155
716 3246
716 3285
716 3592
716 3674
716 3795
716 3892
716 3962
716 3997
716 4452
716 4745
717 1177
717 1688
717 1939
717 2218
717 2235
717 2522
717 2718
717 2836
717 4630
717 4890
717 4912
718 886
718 1063
718 1222
718 1372
718 2399
718 2473
718 2575
718 2662
718 2763
718 2875
718 3097
718 3336
718 3414
718 3575
718 3623
718 4920
719 1014
719 1368
719 1631
719 2082
719 2406
719 3022
719 3050
719 3064
719 3198
719 3935
719 3948
719 3985
719 4143
719 4268
720 721
720 723
720 1017
720 1755
720 1767
720 2110
720 2454
720 2564
720 2964
720 3030
720 3196
720 3206
720 3485
720 3589
720 3635
720 4138
720 4163
720 4391
720 4502
720 4573
720 4860
721 1253
721 1278
721 1513
721 1628
721 2170
721 2915
721 3714
721 3923
721 4139
721 4331
721 4608
721 4779
722 765
722 901
722 972
722 1212
722 1231
722 1801
722 1925
722 2089
722 2094
722 2108
722 2770
722 2824
722 2904
722 2922
722 3282
722 3424
722 3876
722 3968
722 4011
722 4818
723 1455
723 1754
723 1755
723 1796
723 2280
723 2607
723 2720
723 2859
723 3178
723 3436
723 3485
723 3635
723 4483
723 4736
724 1489
724 1996
724 2086
724 2198
724 2202
724 2755
724 2836
724 3125
724 3513
724 3766
724 3777
724 4281
725 1196
725 1306
725 1390
725 1625
725 1666
725 1923
725 2385
725 2510
725 3138
725 3304
725 3336
725 3791
725 4392
725 4554
725 4604
725 4696
725 4939
726 901
726 947
726 1813
726 1819
726 1908
726 2770
726 3392
726 3802
726 3857
726 4087
726 4147
726 4199
726 4245
726 4266
726 4515
726 4541
726 4559
726 4588
727 832
727 863
727 1175
727 1281
727 1313
727 1470
727 1527
727 1575
727 1604
727 1609
727 2038
727 2197
727 2467
727 2533
727 2545
727 2600
727 2726
727 2764
727 2785
727 2846
727 2948
727 3005
727 3220
727 3314
727 3473
727 3511
727 3756
727 3837
727 4053
727 4240
727 4242
727 4271
727 4278
727 4305
727 4318
727 4522
727 4590
727 4774
727 4811
728 1117
728 1695
728 1888
728 1912
728 2225
728 2642
728 2681
728 2802
728 3350
728 3403
728 3490
728 3912
728 4273
728 4448
728 4716
729 1112
729 2342
729 2422
729 2749
729 2761
729 2770
729 4148
729 4199
729 4355
729 4632
729 4986
730 963
730 1039
730 1216
730 2343
730 2384
730 2494
730 2603
730 3339
730 3365
730 3409
730 4195
730 4562
731 1626
731 2050
731 2051
731 2147
731 2218
731 2729
731 3112
731 3175
731 3532
731 3560
731 3604
731 4045
731 4629
732 1176
732 1370
732 1409
732 1777
732 1804
732 2011
732 2354
732 2716
732 2924
732 3092
732 3160
732 3458
732 3474
732 3746
732 3811
732 3870
732 4000
732 4757
732 4813
732 4846
733 1159
733 1380
733 1418
733 2133
733 2136
733 2173
733 2478
733 2482
733 2565
733 2660
733 2725
733 2958
733 3738
733 4737
733 4848
734 1025
734 1453
734 2078
734 2613
734 2622
734 3617
734 3680
734 3689
734 4190
734 4580
734 4614
734 4776
734 4871
735 831
735 1099
735 1116
735 1763
735 2086
735 2192
735 2546
735 2629
735 3467
735 3771
735 3907
735 4507
735 4862
736 793
736 819
736 1054
736 1168
736 1181
736 1191
736 1208
736 1210
736 1249
736 1301
736 1344
736 1426
736 1434
736 1496
736 1623
736 1648
736 1652
736 1696
736 1787
736 1824
736 1836
736 1854
736 1989
736 1999
736 2013
736 2020
736 2054
736 2220
736 2333
736 2386
736 2547
736 2574
736 2584
736 2585
736 2623
736 2637
736 2667
736 2697
736 2701
736 2774
736 3011
736 3046
736 3066
736 3121
736 3131
736 3186
736 3226
736 3277
736 3406
736 3448
736 3546
736 3586
736 3624
736 3655
736 3716
736 3733
736 3776
736 3804
736 3808
736 3809
736 3816
736 3951
736 4025
736 4074
736 4079
736 4233
736 4577
736 4636
736 4689
736 4762
736 4768
736 4776
736 4803
736 4809
736 4826
736 4842
736 4882
736 4980
736 4989
737 798
737 851
737 1022
737 1043
737 1145
737 1181
737 1369
737 1393
737 1480
737 1550
737 2017
737 2386
737 2402
737 2597
737 2739
737 2811
737 2858
737 2885
737 2944
737 2982
737 3050
737 3060
737 3226
737 3367
737 3437
737 3488
737 3546
737 3718
737 3720
737 3804
737 4251
737 4298
737 4467
737 4558
737 4652
737 4886
737 4983
737 4989
738 987
738 1148
738 1327
738 1350
738 1386
738 1409
738 1540
738 1587
738 2149
738 2176
738 2359
738 2678
738 2684
738 2784
738 2839
738 2984
738 3125
738 3160
738 3373
738 3514
738 3634
738 3712
738 3747
738 3870
738 3929
738 3954
738 4149
738 4404
738 4649
738 4894
739 1529
739 1750
739 2384
739 2421
739 2614
739 2835
739 3187
739 3559
739 3632
739 4031
739 4231
739 4396
739 4599
739 4616
739 4643
739 4852
740 901
740 1044
740 1193
740 1305
740 1619
740 1731
740 1813
740 1819
740 1925
740 2102
740 2215
740 2777
740 2799
740 2824
740 2881
740 2951
740 3054
740 3821
740 3876
740 4062
740 4127
740 4147
740 4367
740 4559
740 4898
740 4963
741 1005
741 1395
741 1713
741 1986
741 2048
741 2200
741 2935
741 3636
741 3812
741 4204
741 4451
741 4517
742 864
742 1145
742 1426
742 2067
742 2579
742 2637
742 2663
742 2774
742 3009
742 3254
742 3255
742 3271
742 3278
742 3322
742 3804
742 3855
742 3937
742 4433
742 4595
742 4904
742 4906
742 4922
742 4985
743 765
743 1713
743 1898
743 2142
743 2200
743 2217
743 2243
743 2872
743 2995
743 3177
743 3394
743 3812
743 4269
743 4340
743 4451
743 4875
744 1227
744 1331
744 1365
744 1425
744 1745
744 1780
744 1807
744 1867
744 1900
744 2404
744 2645
744 2747
744 2875
744 3526
744 3635
744 3668
744 3979
744 4017
744 4165
745 1576
745 1695
745 2013
745 2155
745 2313
745 2436
745 2486
745 2717
745 2943
746 899
746 1077
746 1106
746 1688
746 1791
746 1925
746 2016
746 2089
746 2094
746 2205
746 2228
746 3834
746 3882
746 4147
746 4156
746 4541
747 832
747 1060
747 1281
747 1313
747 1527
747 1604
747 2007
747 2038
747 2278
747 2764
747 3277
747 3345
747 4240
747 4278
747 4290
747 4522
748 755
748 774
748 825
748 902
748 1184
748 1912
748 2413
748 2464
748 2759
748 3223
748 3242
748 3305
748 3332
748 3350
748 3403
748 3463
748 3912
748 4186
748 4490
748 4503
748 4602
748 4704
748 4716
748 4742
749 759
749 828
749 1125
749 1387
749 1466
749 1651
749 1923
749 2263
749 2796
749 3256
749 3377
749 3581
749 3650
749 3737
749 3870
749 3946
749 4750
750 1063
750 1762
750 2009
750 2025
750 2378
750 2460
750 2674
750 2682
750 3000
750 3070
750 3423
750 3438
750 3439
750 3445
750 3791
750 4422
750 4485
750 4644
750 4672
750 4679
750 4817
750 4868
750 4901
750 4965
750 4996
751 1152
751 1615
751 1626
751 1664
751 1685
751 1805
751 1929
751 2067
751 2327
751 2332
751 3140
751 3243
751 3340
751 3793
751 3825
751 3953
751 4452
751 4582
752 932
752 1123
752 1904
752 1925
752 2089
752 2339
752 2777
752 2881
752 2891
752 3083
752 3898
752 3944
752 4119
752 4488
752 4588
752 4664
752 4818
752 4874
753 813
753 1296
753 1447
753 1816
753 1938
753 1990
753 2007
753 2100
753 2255
753 2310
753 2546
753 2778
753 2798
753 2836
753 2868
753 2876
753 2882
753 2895
753 3001
753 3149
753 3703
753 3751
753 3777
753 3818
753 3908
753 3975
753 4088
753 4254
753 4382
753 4570
753 4659
753 4861
753 4863
753 4902
753 4949
754 865
754 882
754 975
754 1063
754 1222
754 1267
754 1682
754 1768
754 2388
754 2421
754 2453
754 2575
754 2581
754 2583
754 3021
754 3107
754 3959
754 4644
754 4674
754 4696
754 4781
754 4971
755 774
755 1607
755 1888
755 1996
755 2196
755 2283
755 2413
755 2764
755 3223
755 3350
755 3484
755 3759
755 3802
755 3892
755 4273
755 4304
755 4316
755 4375
755 4716
755 4777
755 4785
755 4921
756 776
756 1304
756 1465
756 1681
756 2944
756 3046
756 3156
756 3220
756 3367
756 3552
756 3569
756 3855
756 3869
756 4598
756 4684
756 4758
756 4768
757 1609
757 2174
757 2383
757 2444
757 2564
757 2607
757 2742
757 2880
757 3378
757 3568
757 4138
757 4192
757 4216
757 4331
757 4334
757 4608
757 4736
757 4812
758 991
758 1382
758 1538
758 1782
758 1986
758 2234
758 2255
758 2290
758 2305
758 2454
758 2655
758 2702
758 2827
758 3252
758 3568
758 3573
758 3676
758 4036
758 4101
758 4301
758 4362
758 4489
758 4608
758 4847
759 1148
759 1404
759 1991
759 2031
759 2181
759 2724
759 2741
759 2797
759 2831
759 3015
759 3066
759 3229
759 3246
759 3348
759 3456
759 3514
759 3639
759 3962
759 4917
760 1580
760 2864
760 3001
760 4072
760 4248
760 4385
760 4411
760 4415
760 4956
761 1272
761 2285
761 2379
761 2403
761 2418
761 2440
761 2442
761 3433
761 3519
761 3587
761 4220
761 4222
761 4270
761 4486
761 4630
761 4977
762 880
762 945
762 1024
762 1065
762 1321
762 1618
762 2594
762 3221
762 3731
762 3911
762 4396
762 4585
762 4644
762 4696
763 786
763 971
763 1529
763 1915
763 1920
763 2048
763 2058
763 2084
763 2823
763 2909
763 2930
763 3338
763 4296
763 4356
764 808
764 1164
764 1247
764 1529
764 2366
764 2473
764 2812
764 3158
764 3386
764 3739
764 4019
764 4095
764 4373
764 4392
764 4971
764 4996
765 939
765 1072
765 1134
765 1434
765 1743
765 1863
765 1928
765 2228
765 2799
765 2847
765 2881
765 4986
766 1045
766 1106
766 1112
766 1167
766 1794
766 2438
766 2674
766 2730
766 3398
766 3444
766 3494
766 4016
766 4173
766 4497
766 4759
766 4934
766 4965
767 839
767 853
767 856
767 878
767 2079
767 2098
767 2279
767 2919
767 3090
767 3119
767 3238
767 3548
767 3814
767 4018
767 4029
767 4105
767 4695
767 4954
768 787
768 828
768 1094
768 1125
768 1266
768 1876
768 1896
768 2317
768 2354
768 2537
768 2867
768 2874
768 3537
768 3662
768 4033
768 4714
768 4827
768 4837
768 4953
769 896
769 1547
769 2182
769 2806
769 3873
769 3894
769 4451
769 4793
769 4848
769 4875
770 1037
770 1292
770 1581
770 1990
770 2076
770 2318
770 2401
770 2769
770 2808
770 3783
770 3899
770 3908
770 4155
770 4183
770 4254
770 4878
770 4884
771 824
771 1001
771 1578
771 1703
771 1760
771 2142
771 2145
771 2232
771 2459
771 2875
771 4106
771 4821
771 4862
771 4902
772 835
772 1088
772 1260
772 1346
772 1378
772 1522
772 1615
772 1987
772 2065
772 2166
772 2886
772 3408
772 3425
772 3690
772 3945
772 4708
773 1125
773 1202
773 1300
773 1339
773 1347
773 1560
773 1670
773 1855
773 2004
773 2124
773 2834
773 2841
773 2844
773 2984
773 3096
773 3639
773 3943
773 3962
773 4007
773 4969
773 4982
774 778
774 825
774 836
774 1117
774 1161
774 1607
774 1767
774 1888
774 2183
774 2196
774 2225
774 2495
774 2683
774 2688
774 2736
774 2759
774 3217
774 3242
774 3350
774 3439
774 3463
774 3484
774 3767
774 3912
774 3921
774 4081
774 4169
774 4196
774 4241
774 4304
774 4316
774 4338
774 4398
774 4490
774 4578
774 4614
774 4640
774 4685
774 4690
774 4704
774 4738
774 4742
775 940
775 974
775 1055
775 1105
775 2060
775 2159
775 2268
775 3451
775 3472
775 4335
775 4353
775 4786
775 4960
775 4963
775 4984
776 1035
776 1043
776 1854
776 2020
776 2623
776 2774
776 3011
776 3105
776 3130
776 3218
776 3501
776 3787
776 3823
776 3908
776 3951
776 3987
776 4557
776 4678
776 4697
776 4764
777 1728
777 1911
777 1934
777 1959
777 2157
777 2299
777 2458
777 2595
777 2842
777 3295
777 3743
777 3869
777 4109
777 4235
777 4347
777 4390
777 4536
777 4606
777 4878
778 902
778 1196
778 1243
778 1607
778 1659
778 1663
778 2283
778 2299
778 2688
778 2759
778 2802
778 3403
778 3463
778 3484
778 4169
778 4398
778 4490
779 794
779 1202
779 1665
779 1886
779 2354
779 2673
779 2711
779 2743
779 2976
779 3096
779 3320
779 3348
779 3463
779 4757
779 4880
779 4982
780 1697
780 1744
780 2090
780 2346
780 2383
780 2444
780 2985
780 3421
780 4101
780 4334
780 4493
780 4699
780 4783
781 892
781 1080
781 1141
781 1382
781 1416
781 1603
781 1876
781 2045
781 2124
781 2263
781 2942
781 3075
781 3155
781 3320
781 3620
781 3675
781 3691
781 3843
781 3870
781 3915
781 4000
781 4205
781 4953
782 1022
782 1265
782 1366
782 1587
782 1738
782 1771
782 1776
782 2167
782 2325
782 2331
782 2387
782 2536
782 2632
782 2870
782 3033
782 3331
782 3542
782 3601
782 3629
782 3899
782 4366
782 4647
782 4845
782 4896
783 1304
783 1674
783 1676
783 2386
783 2805
783 2811
783 3011
783 3053
783 3354
783 3399
783 3469
783 3716
783 3776
783 4387
783 4636
783 4802
783 4826
783 4855
784 801
784 1026
784 1321
784 1574
784 1984
784 2598
784 2883
784 3169
784 3710
784 4375
784 4393
784 4447
784 4637
784 4981
784 4996
785 789
785 1241
785 1336
785 1447
785 3153
785 3167
785 3204
785 3467
785 3833
785 4295
785 4748
786 967
786 1323
786 1930
786 1950
786 2048
786 2053
786 2255
786 3338
786 3401
786 3522
786 3692
786 3820
787 903
787 1382
787 1811
787 1985
787 2252
787 3015
787 3017
787 3267
787 3407
787 3675
787 3946
787 4108
787 4194
787 4268
787 4695
787 4714
787 4757
788 1007
788 1285
788 1374
788 1460
788 1812
788 1910
788 2193
788 2234
788 2356
788 2370
788 2559
788 2845
788 2859
788 3259
788 3509
788 3538
788 3605
788 3631
788 3653
788 3702
788 4163
788 4229
788 4331
788 4412
788 4617
788 4784
789 1628
789 2191
789 2212
789 2314
789 2647
789 2736
789 2952
789 3167
789 3194
789 4135
789 4693
790 975
790 1221
790 1539
790 2239
790 2361
790 2583
790 3302
790 3520
790 4267
790 4303
790 4333
790 4377
790 4854
791 795
791 803
791 881
791 903
791 1129
791 1370
791 1414
791 1663
791 1673
791 1759
791 1919
791 2149
791 2263
791 2673
791 2848
791 3096
791 3496
791 3650
791 3654
791 3892
791 3903
791 3929
791 3954
791 4084
791 4455
791 4475
791 4720
791 4745
791 4751
792 973
792 1501
792 1599
792 1783
792 1792
792 2564
792 2702
792 2838
792 3089
792 3127
792 3298
792 3352
792 3817
792 4138
792 4228
792 4330
792 4354
793 798
793 905
793 1151
793 1465
793 1511
793 1563
793 1681
793 1854
793 2386
793 2515
793 2579
793 2869
793 2881
793 2944
793 3184
793 3261
793 3311
793 3478
793 3578
793 3753
793 3823
793 3993
793 4870
794 887
794 1238
794 1334
794 1347
794 1409
794 1475
794 1817
794 1892
794 1921
794 2124
794 2149
794 2176
794 2247
794 2252
794 2741
794 3086
794 3096
794 3155
794 3197
794 3209
794 3219
794 3507
794 3620
794 3662
794 3749
794 3962
794 4084
794 4867
795 826
795 1347
795 1473
795 1892
795 1919
795 1930
795 2124
795 2252
795 2741
795 3092
795 3285
795 3303
795 3436
795 3514
795 3712
795 3713
795 3900
795 3954
795 4430
795 4695
796 1072
796 1619
796 1868
796 2091
796 2205
796 2865
796 3093
796 3234
796 3599
796 3790
796 3867
796 4053
796 4488
796 4894
797 831
797 1188
797 1709
797 1819
797 1821
797 1938
797 2076
797 2086
797 2100
797 2212
797 2485
797 2940
797 3796
797 4050
797 4264
797 4485
797 4993
798 833
798 1280
798 1345
798 1556
798 1742
798 1836
798 1862
798 2053
798 2287
798 2579
798 2615
798 2663
798 2667
798 2829
798 3050
798 3091
798 3163
798 3716
798 3823
798 3951
798 4467
798 4765
798 4768
798 4787
798 4803
798 4815
798 4907
799 914
799 918
799 921
799 1412
799 1510
799 1535
799 2021
799 2068
799 2113
799 2151
799 2548
799 2621
799 2649
799 2722
799 2917
799 3004
799 3522
799 3689
799 4028
799 4162
799 4580
799 4640
799 4642
800 1813
800 2094
800 2205
800 2215
800 2771
800 2891
800 2912
800 4034
800 4244
800 4874
800 4941
801 1331
801 1401
801 1435
801 1459
801 1958
801 2437
801 2883
801 3021
801 3169
801 3336
801 3559
801 3580
801 3683
801 3995
801 4012
801 4016
801 4055
801 4368
801 4422
801 4585
801 4656
801 4657
801 4759
801 4876
802 975
802 1093
802 1539
802 2398
802 3325
802 3444
802 3520
802 4303
802 4377
802 4543
803 823
803 1003
803 1039
803 1144
803 1768
803 1802
803 1893
803 1990
803 2015
803 2086
803 2088
803 2202
803 2210
803 2212
803 2781
803 2876
803 2940
803 3084
803 3251
803 3415
803 3751
803 3818
803 3891
803 3902
803 4316
803 4382
803 4409
803 4535
803 4844
804 810
804 1010
804 1372
804 1582
804 1618
804 1824
804 1874
804 2025
804 2530
804 2662
804 2806
804 3156
804 3632
804 3732
804 3831
804 4116
804 4461
804 4672
804 4781
804 4901
804 4968
805 819
805 864
805 1204
805 1245
805 1385
805 1517
805 1894
805 1988
805 2054
805 2461
805 2579
805 2982
805 3011
805 3060
805 3180
805 3217
805 3271
805 3476
805 3655
805 3686
805 3718
805 3776
805 3836
805 3891
805 4467
805 4872
805 4906
806 1622
806 1773
806 1875
806 2144
806 2222
806 2761
806 2955
806 3747
806 3983
806 4172
806 4202
806 4397
806 4399
806 4486
806 4645
806 4667
807 1039
807 1111
807 1516
807 1546
807 2157
807 2236
807 2343
807 2552
807 2715
807 2847
807 3339
807 3362
807 3365
807 3564
807 3838
807 4048
807 4615
807 4811
808 882
808 948
808 954
808 958
808 1138
808 1170
808 1372
808 1423
808 1722
808 1794
808 1829
808 2095
808 2385
808 2414
808 2434
808 2438
808 2616
808 3010
808 3021
808 3107
808 3357
808 3580
808 3661
808 3732
808 3805
808 3827
808 3877
808 3964
808 4679
808 4804
809 861
809 1346
809 1592
809 1640
809 2206
809 2468
809 2496
809 2600
809 3117
809 3192
809 3330
809 3609
809 4117
809 4428
810 1223
810 1267
810 1399
810 1466
810 1529
810 1582
810 1591
810 1618
810 1745
810 2009
810 2014
810 2384
810 2438
810 2462
810 2553
810 2581
810 2813
810 3042
810 3070
810 3098
810 3164
810 3190
810 3248
810 3430
810 3559
810 3566
810 3603
810 3618
810 3924
810 4012
810 4013
810 4481
810 4554
810 4592
810 4852
810 4915
811 1186
811 1717
811 1740
811 2428
811 2556
811 3037
811 3081
811 3725
811 3753
811 4543
812 1147
812 1255
812 1571
812 1697
812 1781
812 1939
812 2234
812 2337
812 2519
812 2604
812 2899
812 2970
812 2999
812 3262
812 3508
812 3549
812 3646
812 3677
812 3835
812 3984
812 4192
812 4285
812 4310
812 4442
812 4736
812 4804
812 4931
813 1169
813 1292
813 2076
813 2776
813 2798
813 2836
813 3329
813 4850
813 4862
814 908
814 914
814 918
814 981
814 992
814 1070
814 1167
814 1461
814 2068
814 2158
814 2181
814 2492
814 2610
814 2649
814 2966
814 3152
814 3617
814 3879
814 4076
814 4123
814 4138
814 4176
814 4513
814 4580
814 4640
814 4871
815 1048
815 1069
815 1109
815 1132
815 2079
815 2270
815 3044
815 3103
815 3133
815 3227
815 3342
815 3372
815 3860
815 4208
815 4302
815 4357
815 4854
816 932
816 1561
816 1566
816 1595
816 1667
816 2153
816 2521
816 2614
816 2733
816 2931
816 2945
816 3547
816 3588
816 4651
816 4889
817 843
817 966
817 1306
817 1403
817 1552
817 2175
817 2503
817 2568
817 2615
817 2953
817 3012
817 3115
817 3432
817 3659
817 4416
817 4421
817 4426
818 839
818 856
818 943
818 1079
818 1306
818 1944
818 2062
818 2817
818 2980
818 3124
818 3238
818 3858
818 4086
818 4763
818 4851
819 905
819 1245
819 1295
819 1398
819 2020
819 2067
819 2615
819 2715
819 3418
819 3816
819 3821
819 3842
819 4426
819 4795
819 4897
819 4989
820 1250
820 1311
820 1834
820 3429
820 3471
820 3591
820 3740
820 4237
820 4369
820 4514
820 4873
821 862
821 1096
821 1319
821 1438
821 1474
821 1557
821 1872
821 3005
821 3239
821 3280
821 3284
821 3419
821 3642
821 3851
821 3957
821 4288
821 4492
821 4874
822 856
822 990
822 1165
822 1166
822 1965
822 2062
822 2117
822 2763
822 2783
822 2826
822 2888
822 2908
822 2939
822 3052
822 3059
822 3133
822 3372
822 3938
822 4096
822 4178
822 4203
822 4207
822 4394
822 4954
823 1355
823 1840
823 1965
823 2007
823 2198
823 2353
823 2460
823 3028
823 3039
823 3066
823 3172
823 3323
823 3366
823 3642
823 3783
823 3818
823 4071
823 4183
823 4254
823 4473
823 4862
823 4926
823 4938
824 1001
824 1578
824 1760
824 2142
824 2459
824 3442
824 3993
824 4038
824 4106
824 4463
825 1009
825 1161
825 1182
825 1646
825 1659
825 1767
825 2230
825 2413
825 2759
825 2946
825 3237
825 3305
825 3425
825 3463
825 3484
825 3490
825 3767
825 4169
825 4234
825 4375
825 4921
826 926
826 1080
826 1140
826 1309
826 1382
826 1663
826 1702
826 2116
826 2181
826 3096
826 3114
826 3184
826 3200
826 3452
826 3521
826 3650
826 3746
826 3814
826 4827
827 943
827 1132
827 1458
827 2024
827 2079
827 2300
827 2374
827 2443
827 2929
827 3124
827 3227
827 3949
827 4103
827 4357
827 4637
827 4828
828 881
828 913
828 1193
828 1245
828 1263
828 1347
828 1380
828 1404
828 1414
828 1475
828 1562
828 2045
828 2181
828 2678
828 2719
828 2730
828 2834
828 2839
828 2844
828 3193
828 3285
828 3286
828 3328
828 3502
828 3513
828 3596
828 3679
828 3870
828 3884
828 4368
828 4407
828 4455
828 4719
828 4720
828 4769
828 4867
829 1200
829 1584
829 2087
829 2125
829 2362
829 2471
829 2646
829 2685
829 2705
829 3168
829 3673
829 4311
829 4408
829 4441
829 4668
829 4746
829 4904
829 4940
830 882
830 1065
830 1198
830 1299
830 1321
830 1523
830 2019
830 2234
830 2310
830 2438
830 2453
830 2567
830 2662
830 2784
830 2875
830 3070
830 3080
830 3273
830 3466
830 3557
830 3930
830 4478
830 4521
830 4579
830 4609
830 4770
830 4781
830 4876
831 997
831 1353
831 1714
831 1763
831 1768
831 1808
831 1893
831 1907
831 1965
831 2047
831 2100
831 2198
831 2265
831 2274
831 2750
831 2776
831 2778
831 2808
831 2882
831 2986
831 2999
831 3290
831 3415
831 3421
831 3766
831 3783
831 3786
831 3891
831 4091
831 4263
831 4281
831 4507
831 4526
831 4543
831 4617
831 4863
831 4884
831 4938
831 4949
831 4987
832 1253
832 1470
832 1609
832 2197
832 2254
832 2545
832 2726
832 3005
832 3314
832 4290
833 925
833 1690
833 2067
833 2574
833 2586
833 2769
833 2793
833 3053
833 3089
833 3271
833 4025
833 4557
833 4722
833 4795
833 4808
833 4809
833 4989
834 1117
834 1607
834 1659
834 1888
834 1895
834 2183
834 2705
834 3350
834 4316
834 4435
834 4716
834 4827
835 1088
835 1260
835 1346
835 1378
835 1389
835 1924
835 2166
835 2210
835 2294
835 2303
835 2441
835 2886
835 3425
835 3690
835 3738
835 3945
835 4301
835 4356
835 4708
836 1337
836 1767
836 1888
836 2283
836 3291
836 3305
836 4186
836 4234
836 4375
836 4414
836 4595
836 4602
836 4856
837 960
837 1061
837 1086
837 1660
837 1880
837 2070
837 2160
837 2291
837 2623
837 3087
838 1130
838 1741
838 1899
838 2348
838 2535
838 3323
838 3410
838 3775
838 4224
838 4345
838 4723
839 878
839 980
839 1033
839 1109
839 1502
839 1866
839 1868
839 1977
839 2098
839 2300
839 2588
839 2834
839 2914
839 2987
839 3124
839 3133
839 3250
839 3988
839 4448
839 4944
840 1131
840 1588
840 1875
840 2144
840 2222
840 2612
840 2665
840 3747
840 3983
840 4329
840 4383
840 4397
840 4645
840 4923
841 2257
841 2260
841 3112
841 3520
841 4056
841 4464
842 876
842 971
842 1632
842 2084
842 2625
842 2790
842 2823
842 3035
842 3338
842 3401
842 4296
842 4308
842 4591
842 4976
843 923
843 966
843 1013
843 1209
843 1335
843 1403
843 1433
843 1708
843 1909
843 2141
843 2175
843 2188
843 2211
843 2226
843 2392
843 2435
843 2508
843 2664
843 2739
843 2843
843 2885
843 2953
843 3115
843 3379
843 3390
843 3432
843 3492
843 3510
843 3582
843 3789
843 3828
843 3904
843 3916
843 4098
843 4112
843 4149
843 4187
843 4230
843 4416
843 4424
843 4426
843 4437
843 4439
843 4470
843 4735
844 1093
844 2285
844 2379
844 2403
844 2418
844 2744
844 2789
844 3292
844 3825
844 4255
844 4361
845 1284
845 1748
845 2095
845 2180
845 2272
845 2551
845 3264
845 3648
845 4144
845 4258
846 1131
846 1362
846 2392
846 3012
846 3115
846 3432
846 3441
846 3461
846 3523
846 3627
846 4330
846 4416
846 4419
846 4735
847 1200
847 1318
847 1351
847 1585
847 2087
847 2344
847 2471
847 2646
847 2685
847 2763
847 3135
847 3168
847 3170
847 3222
847 3451
847 4408
847 4668
847 4910
848 985
848 1032
848 1142
848 1319
848 1324
848 1342
848 1348
848 1593
848 1694
848 1730
848 1735
848 1858
848 2261
848 2365
848 2472
848 2699
848 2927
848 2968
848 3031
848 3057
848 3176
848 3189
848 3280
848 3284
848 3319
848 3338
848 3449
848 3588
848 3649
848 3663
848 3715
848 3897
848 4095
848 4195
848 4299
848 4777
848 4933
848 4997
849 985
849 1095
849 1199
849 1342
849 1375
849 1424
849 1467
849 1655
849 1711
849 2311
849 2365
849 3063
849 3153
849 3166
849 3232
849 3345
849 3953
849 4015
849 4350
849 4612
849 4942
850 1688
850 1939
850 2171
850 2382
850 2687
850 3036
850 3054
850 3667
850 3786
850 3819
850 4201
850 4829
850 4890
850 4912
851 905
851 911
851 1043
851 1151
851 1168
851 1245
851 1301
851 1407
851 1480
851 1517
851 1531
851 1555
851 1563
851 1679
851 1700
851 1704
851 1802
851 1988
851 2002
851 2003
851 2017
851 2020
851 2209
851 2574
851 2585
851 2586
851 2588
851 2623
851 2701
851 2793
851 2853
851 3011
851 3046
851 3162
851 3163
851 3344
851 3386
851 3477
851 3488
851 3546
851 3716
851 3720
851 3761
851 3776
851 3810
851 3823
851 3836
851 3887
851 3950
851 4061
851 4139
851 4183
851 4595
851 4634
851 4741
851 4795
851 4826
851 4858
851 4922
851 4985
852 889
852 928
852 1028
852 1296
852 1714
852 1903
852 2725
852 2781
852 2836
852 2940
852 2971
852 3028
852 3179
852 3290
852 3812
852 3884
852 3947
852 4264
852 4366
852 4380
852 4938
853 930
853 943
853 989
853 1820
853 1849
853 1993
853 2098
853 2156
853 2374
853 2746
853 2833
853 2852
853 2898
853 2939
853 2980
853 3052
853 3119
853 3133
853 3551
853 3799
853 3879
853 3890
853 3938
853 4009
853 4165
853 4323
853 4357
853 4448
853 4822
853 4828
853 4851
853 4857
854 1094
854 1162
854 1241
854 1261
854 1542
854 1647
854 1678
854 2096
854 2636
854 3167
854 3194
854 3316
854 3378
854 3728
854 4135
855 1427
855 1431
855 2108
855 2128
855 2505
855 2531
855 3209
855 3397
855 3516
855 4249
855 4289
855 4853
855 4937
856 878
856 930
856 943
856 1091
856 1166
856 1306
856 1944
856 1993
856 2024
856 2032
856 2033
856 2079
856 2098
856 2117
856 2156
856 2270
856 2300
856 2320
856 2495
856 2866
856 2871
856 2889
856 2972
856 2977
856 2996
856 3119
856 3124
856 3548
856 3879
856 3971
856 3981
856 3982
856 4047
856 4075
856 4105
856 4178
856 4186
856 4207
856 4208
856 4260
856 4340
856 4394
856 4478
856 4568
856 4831
856 4851
856 4925
856 4954
857 882
857 964
857 1229
857 1244
857 1867
857 2438
857 2674
857 3114
857 3248
857 3559
857 3632
857 3831
857 4016
857 4078
857 4271
857 4521
857 4616
857 4996
858 1088
858 1522
858 1924
858 2492
858 2886
858 3408
858 3690
858 3883
858 3945
858 4708
858 4855
859 951
859 1061
859 1368
859 1487
859 2291
859 2406
859 2619
859 2688
859 3079
859 3935
859 3985
859 4143
859 4829
859 4932
860 911
860 956
860 1146
860 1151
860 1236
860 1372
860 1431
860 1643
860 1662
860 1836
860 1994
860 2597
860 2738
860 3060
860 3137
860 3218
860 3344
860 3385
860 3406
860 3469
860 3497
860 3918
860 4102
860 4557
860 4775
860 4904
860 4953
861 919
861 2206
861 2496
861 2513
861 2600
861 3117
861 3330
861 3472
861 4073
861 4117
862 879
862 1075
862 1195
862 1238
862 1348
862 1438
862 1464
862 1557
862 1583
862 1605
862 1701
862 1711
862 1941
862 2261
862 2489
862 2499
862 2927
862 3085
862 3195
862 3232
862 3345
862 3363
862 3533
862 3539
862 3570
862 3607
862 3663
862 3730
862 3839
862 3861
862 4015
862 4035
862 4070
862 4288
862 4321
862 4350
862 4523
862 4553
862 4797
862 4997
863 1028
863 1032
863 1821
863 2265
863 2367
863 2546
863 2808
863 2836
863 4409
863 4923
864 1417
864 2220
864 2637
864 2793
864 2991
864 3288
864 3842
864 3951
864 4670
864 4897
864 4904
865 1222
865 1293
865 1365
865 1458
865 2014
865 2027
865 2410
865 2453
865 2480
865 2602
865 2617
865 3139
865 3414
865 3580
865 3888
865 3911
865 3973
865 4031
865 4649
865 4759
865 4805
866 1248
866 1418
866 1444
866 2136
866 2173
866 2304
866 2668
866 2852
866 3340
866 3402
866 3565
866 3738
866 4202
866 4337
866 4346
866 4434
866 4737
866 4820
866 4955
867 976
867 1619
867 1758
867 1908
867 1940
867 2028
867 2205
867 2215
867 2777
867 2799
867 2881
867 2884
867 3876
867 3883
867 3958
867 4245
867 4787
867 4818
868 964
868 1040
868 1059
868 1400
868 1748
868 2080
868 2551
868 2865
868 3341
868 3648
868 3781
868 4386
868 4839
869 1292
869 1790
869 1893
869 2198
869 2318
869 2353
869 2769
869 2940
869 3118
869 3149
869 3191
869 4926
869 4987
870 941
870 1299
870 2378
870 2388
870 2594
870 3703
870 4021
870 4055
870 4393
870 4402
870 4616
870 4732
870 4753
871 1049
871 1249
871 1393
871 1419
871 1525
871 1824
871 1854
871 2402
871 2819
871 2944
871 3217
871 3344
871 3569
871 3578
871 3718
871 3823
871 3842
871 4026
871 4298
871 4762
871 4808
872 1282
872 1360
872 1487
872 2257
872 2292
872 2446
872 3396
872 4333
872 4453
872 4701
873 1034
873 2553
873 2662
873 3575
873 3907
873 4267
873 4561
873 4696
874 1820
874 1951
874 2254
874 3230
874 3372
874 3653
874 3860
874 4623
875 1413
875 1415
875 1426
875 1542
875 1638
875 1736
875 2313
875 2419
875 2426
875 2477
875 2593
875 2943
875 3311
875 4100
875 4225
876 1011
876 1920
876 2058
876 2084
876 2352
876 2525
876 3338
876 3401
876 3524
876 3565
876 4296
876 4727
876 4908
877 1828
877 1890
877 2187
877 2427
877 2704
877 3100
877 3543
877 4022
877 4131
877 4631
878 943
878 1079
878 2300
878 2374
878 2562
878 2612
878 2826
878 2914
878 2919
878 3044
878 3227
878 3372
878 3830
878 4018
878 4324
878 4580
878 4903
878 4919
879 900
879 902
879 965
879 981
879 1253
879 1589
879 1686
879 2311
879 2365
879 2472
879 2873
879 2927
879 2937
879 3057
879 3203
879 3257
879 3409
879 3526
879 3784
879 3880
879 3920
879 4010
879 4019
879 4209
879 4288
879 4933
880 882
880 948
880 1367
880 1372
880 2425
880 2449
880 2617
880 2887
880 3000
880 3107
880 4016
880 4246
880 4396
880 4842
880 4990
881 1050
881 1125
881 1233
881 1339
881 1387
881 1540
881 1629
881 1663
881 1702
881 2045
881 2181
881 2976
881 3045
881 3246
881 3373
881 3407
881 3456
881 3514
881 3521
881 3757
881 3892
881 3903
881 4458
881 4810
881 4837
881 4856
882 886
882 934
882 948
882 1078
882 1172
882 1179
882 1247
882 1270
882 1299
882 1420
882 1428
882 1529
882 1568
882 1629
882 1829
882 1984
882 2009
882 2139
882 2396
882 2449
882 2488
882 2594
882 2598
882 2652
882 2747
882 2843
882 2979
882 2990
882 3034
882 3048
882 3098
882 3107
882 3179
882 3228
882 3273
882 3335
882 3336
882 3398
882 3538
882 3643
882 3739
882 3791
882 3827
882 3889
882 3911
882 3942
882 3955
882 3994
882 4016
882 4129
882 4185
882 4425
882 4497
882 4543
882 4571
882 4599
882 4643
882 4644
882 4648
882 4672
882 4679
882 4817
883 1569
883 1570
883 2081
883 3144
883 3622
883 3657
883 4118
883 4213
883 4260
883 4476
883 4626
883 4929
883 4978
884 1427
884 1630
884 2108
884 2128
884 3311
884 3397
884 3516
884 4249
884 4289
884 4459
884 4853
884 4937
884 4964
885 1483
885 1933
885 2103
885 2644
885 2775
885 2933
885 3209
885 3555
885 3560
885 3713
885 4166
885 4611
885 4622
886 954
886 1247
886 1861
886 1992
886 2386
886 2404
886 2457
886 2487
886 2567
886 3120
886 3169
886 3296
886 3380
886 4462
886 4686
887 892
887 1080
887 1141
887 1286
887 1347
887 1381
887 1978
887 2149
887 2181
887 2848
887 2867
887 3214
887 3446
887 3650
887 3662
887 4735
887 4750
888 1070
888 1672
888 1689
888 1728
888 1911
888 2083
888 2299
888 2842
888 3208
888 3295
888 3650
888 3743
888 3869
888 4040
888 4347
888 4534
889 1102
889 1392
889 1628
889 1772
889 1910
889 2275
889 2375
889 2572
889 2604
889 2621
889 2655
889 3089
889 3178
889 3416
889 3460
889 3506
889 3509
889 3646
889 4036
889 4310
889 4412
889 4537
889 4736
889 4805
890 929
890 1790
890 2074
890 2312
890 2661
890 3594
890 3657
890 4128
890 4213
891 1009
891 2339
891 2476
891 2601
891 2629
891 3272
891 3991
891 4102
891 4113
891 4401
891 4654
892 903
892 1051
892 1206
892 1381
892 1404
892 1514
892 1669
892 1866
892 1896
892 1930
892 1933
892 2066
892 2116
892 2181
892 2571
892 2656
892 2730
892 2848
892 2867
892 3096
892 3160
892 3200
892 3279
892 3320
892 3411
892 3436
892 3514
892 3521
892 3650
892 3674
892 3826
892 3829
892 3943
892 4404
892 4745
892 4775
892 4827
892 4920
893 1086
893 1533
893 1577
893 1766
893 2082
893 2127
893 2291
893 2511
893 2532
893 3128
893 3332
893 3743
893 3935
893 3948
893 4771
894 1292
894 1709
894 2027
894 2100
894 2940
894 3231
894 3301
894 3770
894 4155
894 4248
894 4902
894 4987
895 1456
895 1634
895 1706
895 1743
895 1847
895 2249
895 3563
895 3568
895 3934
895 4159
895 4210
895 4532
895 4699
895 4936
895 4948
896 1581
896 1665
896 1745
896 2727
896 2874
896 2875
896 3035
896 3104
896 3110
896 3181
896 3260
896 3734
896 3870
896 3915
896 4054
896 4104
896 4301
896 4720
896 4775
896 4961
897 1163
897 1572
897 2864
897 3276
897 3615
897 3633
897 3640
897 4072
897 4110
897 4385
897 4956
898 1798
898 2210
898 2282
898 2339
898 2881
898 3313
898 3755
898 3991
898 4371
898 4388
898 4491
899 1305
899 1751
899 2001
899 2205
899 2891
899 3007
899 3790
899 3895
899 4034
899 4051
899 4142
899 4148
899 4313
900 1262
900 1437
900 1493
900 1686
900 1813
900 2877
900 3189
900 3844
900 3851
900 3861
900 3920
900 3928
900 4015
900 4299
900 4328
900 4349
900 4553
901 2091
901 2186
901 2806
901 2960
901 2967
901 3093
901 3211
901 4132
901 4367
901 4515
902 1365
902 1767
902 1888
902 2196
902 2413
902 2495
902 2576
902 2681
902 3305
902 3332
902 3439
902 3484
902 3703
902 4338
902 4398
902 4490
903 926
903 1060
903 1094
903 1128
903 1148
903 1187
903 1237
903 1497
903 1923
903 1991
903 2116
903 2176
903 2247
903 2252
903 2316
903 2711
903 2724
903 2878
903 2921
903 2976
903 3075
903 3104
903 3111
903 3125
903 3193
903 3326
903 3351
903 3446
903 3514
903 3603
903 3620
903 3915
903 4008
903 4775
903 4867
903 4920
904 1049
904 1680
904 1854
904 1921
904 1973
904 1982
904 2699
904 2793
904 2850
904 3121
904 3586
904 3613
904 3655
904 3918
904 3993
904 4697
904 4795
905 1181
905 1245
905 1432
905 1434
905 2013
905 2694
905 2971
905 3060
905 3218
905 3255
905 3404
905 3448
905 3761
905 3855
905 4598
906 1442
906 1485
906 1852
906 2051
906 2602
906 2729
906 3035
906 3604
906 3713
906 4045
906 4482
906 4611
907 921
907 1013
907 1294
907 1507
907 2023
907 2113
907 2315
907 2441
907 2492
907 2548
907 2622
907 3152
907 4152
907 4190
908 1025
908 1071
908 1509
908 1644
908 2884
908 3309
908 4152
908 4203
908 4877
909 988
909 1490
909 1955
909 2120
909 2174
909 2234
909 2582
909 3147
909 4156
909 4608
909 4617
910 1816
910 1821
910 2088
910 2111
910 2192
910 2353
910 2808
910 2940
910 2946
910 2986
910 3463
910 3801
910 3818
910 3975
910 4050
910 4380
910 4878
910 4902
911 1035
911 1426
911 1462
911 1537
911 1648
911 1999
911 2534
911 2547
911 2597
911 2667
911 2849
911 3147
911 3448
911 3476
911 3578
911 3842
911 4467
911 4636
911 4815
911 4900
912 1097
912 1102
912 1150
912 1255
912 1306
912 1384
912 1394
912 1628
912 1706
912 1811
912 1847
912 1955
912 2164
912 2432
912 2454
912 2564
912 2840
912 2846
912 2970
912 2993
912 3262
912 3416
912 3421
912 3568
912 3676
912 3745
912 4038
912 4073
912 4498
912 4575
912 4718
912 4736
913 941
913 953
913 1129
913 1292
913 1409
913 1608
913 1669
913 2149
913 2351
913 2839
913 2855
913 3326
913 3620
913 3650
913 3929
913 3946
914 1070
914 1478
914 2234
914 2474
914 2492
914 2676
914 3109
914 3681
914 4018
914 4152
915 1215
915 1462
915 1637
915 1645
915 1824
915 1842
915 2402
915 2680
915 2700
915 2704
915 3060
915 3316
915 3413
915 3569
915 3896
915 3918
915 3986
915 3987
915 4238
915 4598
915 4683
916 948
916 965
916 1034
916 1065
916 1196
916 1270
916 1344
916 1466
916 1591
916 1621
916 1729
916 1861
916 2009
916 2378
916 2414
916 2460
916 2488
916 2511
916 2529
916 2754
916 2835
916 2898
916 3122
916 3158
916 3169
916 3248
916 3358
916 3559
916 3575
916 3612
916 3703
916 3787
916 3791
916 3955
916 3994
916 4013
916 4312
916 4422
916 4471
916 4536
916 4585
916 4596
916 4609
916 4915
916 4965
917 1499
917 1652
917 2078
917 2264
917 2731
917 3307
917 3699
917 4875
918 1070
918 1071
918 1140
918 1468
918 1507
918 1532
918 1644
918 2315
918 2474
918 2649
918 3142
918 3992
918 4152
918 4239
918 4580
918 4640
918 4877
919 1098
919 2092
919 2576
919 2852
919 2990
919 3713
919 4014
919 4161
919 4306
919 4611
920 1123
920 1950
920 2066
920 2118
920 2352
920 3233
920 4102
920 4325
921 1070
921 1453
921 1535
921 1644
921 1674
921 2252
921 2441
921 2469
921 2649
921 2804
921 2860
921 3004
921 3109
921 3309
921 3348
921 3367
921 3763
921 4076
921 4093
921 4145
921 4176
921 4237
921 4360
921 4558
921 4776
921 4871
922 1152
922 1234
922 1290
922 1334
922 1615
922 1929
922 2104
922 2114
922 2164
922 2235
922 2424
922 2550
922 3583
922 4582
922 4674
922 4675
922 4694
922 4780
922 4794
922 4886
923 1538
923 1552
923 1642
923 2226
923 2429
923 3101
923 3115
923 3372
923 3461
923 3547
923 3789
923 4111
923 4421
923 4620
924 1079
924 1993
924 2198
924 2531
924 2784
924 2987
924 3119
924 3124
924 3250
924 3371
924 3875
924 4075
924 4103
924 4832
924 4857
925 1081
925 1208
925 1345
925 1648
925 1696
925 1989
925 2579
925 2715
925 2879
925 3046
925 3053
925 3217
925 3232
925 3255
925 3322
925 3470
925 3497
925 3726
925 3804
925 3810
925 3816
925 4061
925 4077
925 4298
925 4886
926 1060
926 1266
926 1541
926 1926
926 2011
926 2752
926 2784
926 2834
926 2900
926 3075
926 3160
926 3567
926 3691
926 3773
926 3925
926 4123
927 1791
927 2094
927 2293
927 2333
927 2881
927 2951
927 3857
927 3867
927 3882
927 3969
927 4011
927 4097
927 4119
927 4286
928 1185
928 1292
928 1802
928 1946
928 2778
928 2902
928 2940
928 3818
928 4527
928 4850
928 4862
929 1027
929 1287
929 1452
929 1459
929 1579
929 1586
929 1594
929 1602
929 1935
929 2308
929 2611
929 2845
929 2861
929 3043
929 3099
929 3240
929 3353
929 3611
929 3797
929 4133
929 4499
929 4916
930 1069
930 1091
930 2062
930 2947
930 3781
930 4069
930 4260
931 938
931 948
931 1026
931 1172
931 1745
931 2384
931 2883
931 3034
931 3215
931 3504
931 3662
931 4129
931 4335
931 4341
932 1258
932 1566
932 1667
932 1761
932 1905
932 2153
932 2521
932 2733
932 2960
932 2973
932 3547
932 3894
932 4191
932 4651
933 940
933 1108
933 1302
933 1642
933 1906
933 2060
933 2326
933 3625
933 4086
933 4353
933 4368
933 4395
933 4660
934 1574
934 2014
934 2437
934 2449
934 2450
934 2488
934 2514
934 2561
934 3661
934 4425
934 4592
934 4641
934 4965
935 1105
935 1212
935 1214
935 2159
935 2160
935 2231
935 2245
935 2271
935 2528
935 3703
935 4309
935 4660
936 1009
936 1102
936 1234
936 1319
936 1564
936 1891
936 1998
936 2055
936 2168
936 2189
936 2318
936 2338
936 2339
936 2629
936 2947
936 2950
936 3022
936 3047
936 3150
936 3272
936 3384
936 3937
936 3941
936 3960
936 4082
936 4102
936 4221
936 4319
936 4358
936 4538
936 4712
936 4785
937 1245
937 1480
937 1504
937 1643
937 1787
937 1824
937 2002
937 2386
937 2584
937 2586
937 2694
937 3060
937 3217
937 3518
937 3578
937 3716
937 3816
937 4298
937 4485
937 4787
937 4989
938 1415
938 1542
938 1638
938 2313
938 2436
938 2477
938 2486
938 2663
938 2943
938 2949
938 2956
938 3447
938 4928
939 1236
939 2016
939 2071
939 2094
939 2807
939 2951
939 3802
939 3882
939 3997
939 4119
939 4632
939 4818
940 1006
940 1046
940 1212
940 1214
940 1252
940 1405
940 1458
940 1481
940 2008
940 2130
940 2131
940 2245
940 2281
940 2338
940 2364
940 2479
940 2563
940 3040
940 3150
940 3182
940 3493
940 3933
940 4006
940 4080
940 4623
940 4633
940 4926
941 1031
941 1102
941 1354
941 1401
941 1458
941 1566
941 1610
941 1934
941 2009
941 2027
941 2408
941 2425
941 2460
941 2487
941 2488
941 2530
941 2544
941 2561
941 2617
941 2653
941 2742
941 2754
941 3158
941 3304
941 3612
941 3618
941 3619
941 3732
941 3772
941 4447
941 4461
941 4934
941 4990
942 1021
942 1172
942 1212
942 2032
942 2109
942 2159
942 2271
942 2278
942 2909
942 3035
942 3157
942 3182
942 3417
942 3472
942 3493
942 3574
942 4041
942 4154
942 4181
942 4191
942 4240
942 4247
942 4359
942 4367
942 4368
943 944
943 990
943 1048
943 1091
943 1132
943 1173
943 1273
943 1307
943 1538
943 1589
943 1849
943 1993
943 2024
943 2079
943 2098
943 2270
943 2340
943 2475
943 2713
943 2767
943 2817
943 2826
943 2857
943 2888
943 2919
943 2932
943 2972
943 2975
943 2996
943 2998
943 3002
943 3032
943 3052
943 3102
943 3135
943 3151
943 3227
943 3238
943 3297
943 3653
943 3711
943 3971
943 3977
943 3981
943 3982
943 4047
943 4069
943 4137
943 4208
943 4259
943 4357
943 4394
943 4418
943 4420
943 4621
943 4637
943 4816
943 4828
943 4830
943 4831
943 4857
944 996
944 1212
944 1219
944 2026
944 2109
944 2154
944 2231
944 2271
944 2278
944 2412
944 3020
944 3077
944 4353
945 1243
945 1503
945 2620
945 2707
945 3148
945 3289
945 3505
945 3593
945 3594
945 3621
945 3719
945 4134
945 4239
945 4649
945 4665
946 1071
946 2021
946 2137
946 2145
946 2804
946 2810
946 3299
946 4028
946 4152
946 4614
946 4624
946 4640
946 4642
946 4979
947 994
947 2063
947 2162
947 2339
947 2352
947 3313
947 3771
947 4102
947 4107
947 4466
947 4491
948 964
948 1052
948 1057
948 1063
948 1067
948 1193
948 1372
948 1446
948 1582
948 1618
948 1629
948 1806
948 2163
948 2438
948 2488
948 2544
948 2559
948 2772
948 2801
948 2806
948 2863
948 2954
948 3021
948 3070
948 3113
948 3155
948 3495
948 3530
948 3535
948 3632
948 3731
948 3772
948 3785
948 3792
948 3862
948 3955
948 4461
948 4472
948 4554
948 4571
948 4789
948 4903
948 4915
948 4971
948 4981
949 1120
949 1192
949 1200
949 1503
949 2242
949 2306
949 2484
949 2608
949 2658
949 2732
949 2895
949 3181
949 3515
949 3593
949 3594
949 4079
949 4125
949 4134
949 4157
949 4239
949 4279
949 4283
949 4363
949 4468
949 4649
949 4665
949 4839
949 4840
949 4842
950 1828
950 1890
950 2187
950 2455
950 2457
950 2577
950 3931
950 4131
950 4598
950 4628
950 4631
951 960
951 1086
951 1187
951 1281
951 1577
951 2070
951 2501
951 3517
951 3948
951 4501
952 1536
952 1611
952 1808
952 1814
952 2472
952 2558
952 3057
952 3231
952 3232
952 3533
952 3576
952 3737
952 3973
952 4321
952 4356
952 4508
952 4942
953 998
953 1006
953 1094
953 1202
953 1286
953 1300
953 1334
953 1381
953 1497
953 1892
953 1933
953 2678
953 2724
953 2741
953 2796
953 2820
953 2834
953 2942
953 3025
953 3096
953 3104
953 3197
953 3658
953 3757
953 3815
953 4775
953 4880
954 1073
954 1138
954 1170
954 1190
954 1227
954 1390
954 1458
954 1466
954 1490
954 1497
954 1622
954 1712
954 1762
954 1806
954 1829
954 2010
954 2027
954 2328
954 2384
954 2438
954 2561
954 2581
954 2583
954 2616
954 2624
954 2682
954 2772
954 2875
954 2990
954 3107
954 3122
954 3221
954 3235
954 3275
954 3324
954 3334
954 3383
954 3430
954 3495
954 3595
954 3628
954 3693
954 3705
954 3739
954 3768
954 3772
954 3862
954 3881
954 3889
954 3911
954 3989
954 4277
954 4392
954 4405
954 4461
954 4521
954 4585
954 4592
954 4596
954 4643
954 4657
954 4752
954 4753
954 4759
955 1033
955 1977
955 2117
955 2180
955 2389
955 2826
955 2996
955 3054
955 3124
955 3230
955 3840
955 3977
955 4009
955 4208
955 4857
955 4859
955 4903
956 1043
956 3217
956 3255
956 3816
956 4467
956 4758
956 4765
956 4787
957 1114
957 1519
957 1568
957 1950
957 2072
957 3212
957 3272
957 3937
957 4326
957 4990
958 1031
958 1338
958 1794
958 2473
958 2653
958 2824
958 2992
958 3127
958 3930
958 4539
958 4554
958 4587
958 4729
959 1109
959 1132
959 1364
959 2094
959 2300
959 3860
959 4394
959 4816
959 4833
960 1061
960 1526
960 1530
960 1533
960 1577
960 2030
960 2070
960 2372
960 2397
960 2406
960 2619
960 2654
960 2957
960 3079
960 3087
960 3128
960 3205
960 3517
960 3641
960 3932
960 3935
960 3948
960 3955
960 3985
960 4143
960 4450
960 4475
960 4784
961 1059
961 1108
961 1411
961 1477
961 1536
961 1553
961 1593
961 1705
961 2489
961 3100
961 3334
961 3409
961 3545
961 3916
961 3928
961 4511
961 4933
962 999
962 1289
962 1466
962 1523
962 1610
962 1745
962 1974
962 2408
962 2437
962 2462
962 2875
962 3070
962 3612
962 4462
962 4616
962 4947
962 4971
963 1039
963 1250
963 1315
963 1546
963 1820
963 2040
963 2106
963 2178
963 2253
963 2494
963 2552
963 2603
963 2675
963 2847
963 3024
963 3299
963 3339
963 3362
963 3365
963 3564
963 3590
963 3838
963 3848
963 4048
963 4136
963 4379
963 4384
963 4615
963 4698
963 4811
963 4860
964 1026
964 1618
964 1865
964 2378
964 2462
964 2487
964 2488
964 2801
964 3019
964 3034
964 3070
964 3097
964 3169
964 3193
964 3228
964 3336
964 3566
964 3589
964 3603
964 3705
964 3847
964 4031
964 4304
964 4402
964 4752
964 4852
964 4940
965 981
965 1230
965 1411
965 1415
965 1438
965 1617
965 1872
965 1932
965 2261
965 2880
965 2910
965 2961
965 2968
965 3151
965 3232
965 3854
965 3922
965 3928
965 4010
965 4870
965 4942
966 977
966 1013
966 1209
966 1361
966 1371
966 2141
966 2175
966 2188
966 2390
966 2435
966 2542
966 2643
966 2664
966 2715
966 3055
966 3445
966 3461
966 3627
966 3659
966 3674
966 4098
966 4180
966 4226
966 4230
966 4405
966 4465
966 4470
966 4569
966 4620
966 4654
967 1098
967 1903
967 2048
967 2058
967 2523
967 2629
967 2823
967 2930
967 3338
967 4296
967 4308
968 1118
968 1189
968 1741
968 2250
968 2258
968 2722
968 3205
968 3707
968 4224
968 4345
968 4779
969 1232
969 1916
969 2109
969 2245
969 2341
969 3157
969 4006
969 4218
969 4247
969 4312
969 4623
970 1092
970 1164
970 2172
970 2572
970 2625
970 3212
970 3427
970 4127
970 4322
971 1016
971 1323
971 1632
971 1704
971 1715
971 1915
971 1920
971 2048
971 2053
971 2084
971 2160
971 2181
971 2491
971 2523
971 2786
971 2823
971 2825
971 2943
971 3042
971 3338
971 3349
971 3376
971 3401
971 3468
971 3565
971 3960
971 4296
971 4533
971 4731
971 4881
971 4908
971 4976
972 1619
972 1801
972 1813
972 1882
972 1908
972 1928
972 2228
972 2391
972 2799
972 2854
972 2881
972 2952
972 3895
972 4097
972 4199
972 4530
973 986
973 1004
973 1212
973 1384
973 1927
973 1986
973 2073
973 2219
973 2370
973 2559
973 2691
973 2808
973 2818
973 2827
973 2913
973 3069
973 3229
973 3245
973 3297
973 3459
973 3568
973 3608
973 3677
973 3786
973 4160
973 4477
973 4525
973 4537
973 4767
973 4952
974 1085
974 1189
974 1571
974 2432
974 2454
974 2465
974 2519
974 2564
974 2714
974 2970
974 3037
974 3377
974 3727
974 3967
974 4033
974 4101
974 4146
974 4252
974 4272
974 4619
974 4719
974 4763
974 4772
975 1058
975 1183
975 1221
975 1232
975 1235
975 1256
975 1269
975 1330
975 1360
975 1410
975 1505
975 1520
975 1543
975 1549
975 1614
975 2061
975 2190
975 2204
975 2221
975 2244
975 2257
975 2259
975 2260
975 2276
975 2324
975 2328
975 2334
975 2359
975 2369
975 2446
975 2497
975 2539
975 2541
975 2557
975 2606
975 2735
975 2792
975 3064
975 3270
975 3307
975 3312
975 3325
975 3327
975 3520
975 3532
975 3935
975 3939
975 3992
975 4108
975 4256
975 4262
975 4267
975 4303
975 4377
975 4386
975 4453
975 4688
975 4703
976 1077
976 1390
976 1619
976 2091
976 2094
976 2106
976 2107
976 2147
976 2228
976 2891
976 3054
976 3074
976 3599
977 2175
977 2429
977 3115
977 3382
977 3388
977 3659
977 4374
977 4503
977 4654
977 4735
978 1064
978 1536
978 2162
978 2238
978 2629
978 2994
978 3272
978 3937
978 4322
978 4607
978 4958
979 1160
979 1547
979 1692
979 2222
979 2698
979 2940
979 4348
979 4451
979 4875
980 1109
980 1307
980 1975
980 2340
980 3372
980 3799
980 4069
980 4323
980 4578
981 1075
981 1195
981 1469
981 1545
981 1553
981 1554
981 1650
981 1694
981 1710
981 1789
981 1853
981 2877
981 2894
981 3435
981 3533
981 3715
981 3844
981 4010
981 4015
981 4046
981 4067
981 4349
982 1113
982 1231
982 1296
982 1471
982 1724
982 1743
982 1758
982 1759
982 1769
982 1813
982 1822
982 1908
982 1961
982 2091
982 2094
982 2177
982 2228
982 2309
982 2333
982 2686
982 2749
982 2881
982 2912
982 2997
982 3067
982 3366
982 3424
982 3769
982 3801
982 3882
982 3968
982 4011
982 4034
982 4245
982 4488
982 4818
982 4992
983 1379
983 1998
983 2049
983 2168
983 2282
983 2641
983 2808
983 3101
983 3272
983 4326
983 4388
983 4959
984 2140
984 2607
984 3006
984 3020
984 4038
984 4156
984 4163
984 4252
984 4487
984 4608
985 1100
985 1199
985 1314
985 1730
985 2246
985 2311
985 2376
985 2937
985 3166
985 3435
985 3698
985 3922
985 3973
985 4010
985 4209
985 4933
986 1242
986 1296
986 1326
986 2370
986 2444
986 2746
986 3069
986 3534
986 3645
986 3665
986 3764
986 3828
986 4330
986 4665
986 4736
986 4744
987 1129
987 1387
987 1560
987 1571
987 1663
987 1702
987 1949
987 2252
987 2784
987 3056
987 3229
987 3514
987 3679
987 4448
987 4846
987 4867
988 1563
988 1781
988 2120
988 2293
988 2409
988 2607
988 2964
988 4197
988 4297
988 4301
988 4327
988 4477
988 4786
989 1069
989 1109
989 1839
989 2006
989 2767
989 3133
989 4178
989 4903
990 1048
990 1091
990 1377
990 1428
990 1809
990 1977
990 2146
990 2300
990 2389
990 2908
990 2914
990 2987
990 3103
990 3227
990 3250
990 3686
990 3800
990 3843
990 3859
990 4203
990 4208
990 4553
990 4637
990 4958
991 1115
991 1491
991 1754
991 2038
991 2073
991 2174
991 2411
991 2794
991 2862
991 2913
991 3534
991 4014
991 4280
991 4376
991 4572
991 4675
991 4931
992 1025
992 1070
992 1535
992 2021
992 2068
992 3004
992 3763
992 4050
992 4145
992 4194
993 1097
993 1453
993 1478
993 1479
993 1507
993 1644
993 1658
993 3109
993 3763
993 4152
993 4558
994 1074
994 1950
994 2162
994 2251
994 2282
994 2947
994 3101
994 3269
994 3634
994 3937
994 3952
994 4581
995 1615
995 1813
995 2228
995 2749
995 2799
995 2881
995 2951
995 2952
995 3128
995 3584
995 3804
995 3882
995 3944
995 4097
996 1439
996 2266
996 2305
996 2909
996 3417
996 3666
996 4080
996 4368
996 4786
997 1116
997 1169
997 1618
997 1649
997 1996
997 2500
997 2607
997 2778
997 2808
997 2836
997 2999
997 3039
997 3796
997 4379
998 1122
998 1291
998 1448
998 2112
998 2455
998 2836
998 3489
998 3999
998 4077
998 4115
998 4193
998 4431
998 4650
999 1974
999 2425
999 2480
999 2806
999 3080
999 3097
999 3107
999 3187
999 3336
999 3526
999 4055
999 4258
999 4449
999 4601
1000 2129
1000 2242
1000 2306
1000 2608
1000 3435
1000 3594
1000 3719
1000 4079
1000 4239
1000 4279
1000 4649
1001 1578
1001 1703
1001 1760
1001 2142
1001 2145
1001 2459
1001 3347
1001 4106
1002 1448
1002 1880
1002 1911
1002 2092
1002 2406
1002 2501
1002 3128
1002 3806
1002 3935
1002 3948
1002 3985
1002 4268
1002 4551
1002 4563
1002 4771
1003 1709
1003 1821
1003 1907
1003 1990
1003 2042
1003 2198
1003 2778
1003 2808
1003 3043
1003 3051
1003 3405
1003 3783
1003 3972
1003 4281
1003 4902
1003 4987
1004 1333
1004 1634
1004 1744
1004 1781
1004 2120
1004 2248
1004 2358
1004 2375
1004 2693
1004 2765
1004 2899
1004 3506
1004 3517
1004 4442
1005 1274
1005 1454
1005 2163
1005 2431
1005 2703
1005 3123
1005 3177
1005 3268
1005 3350
1005 4345
1005 4912
1006 1105
1006 1175
1006 1283
1006 1667
1006 3150
1006 3183
1006 3244
1006 3574
1006 4130
1006 4247
1006 4327
1007 1150
1007 1276
1007 1559
1007 1754
1007 1955
1007 2275
1007 2346
1007 2928
1007 4216
1007 4334
1007 4692
1007 4710
1007 4736
1007 4861
1007 4953
1008 1084
1008 1297
1008 1320
1008 1738
1008 2632
1008 3033
1008 3915
1008 4133
1008 4343
1008 4471
1008 4591
1009 1497
1009 1977
1009 2189
1009 2297
1009 2349
1009 2352
1009 2629
1009 3233
1009 3272
1009 3384
1009 4027
1009 4215
1009 4974
1010 2617
1010 3423
1010 4016
1010 4396
1010 4408
1010 4447
1010 4579
1010 4644
1010 4876
1010 4939
1011 1268
1011 1323
1011 1915
1011 2058
1011 2786
1011 2915
1011 3401
1011 3565
1011 3590
1011 4865
1011 4908
1011 4976
1012 1068
1012 1120
1012 1716
1012 2223
1012 2573
1012 2620
1012 2732
1012 3072
1012 3148
1012 3594
1012 3621
1012 3719
1012 3866
1012 4059
1012 4124
1012 4157
1012 4299
1012 4454
1012 4649
1013 1361
1013 1715
1013 1805
1013 2046
1013 2503
1013 3379
1013 3390
1013 3514
1013 3627
1013 4111
1013 4424
1013 4439
1013 4445
1013 4620
1013 4638
1013 4654
1013 4735
1014 1368
1014 1577
1014 1660
1014 2501
1014 2624
1014 3064
1014 3198
1014 4771
1015 1090
1015 1503
1015 2231
1015 2242
1015 2258
1015 2608
1015 2620
1015 2658
1015 2732
1015 3593
1015 3823
1015 4239
1015 4279
1015 4649
1015 4665
1015 4797
1016 2823
1016 3149
1016 3338
1016 4881
1016 4976
1017 1066
1017 1829
1017 1974
1017 2186
1017 2321
1017 2346
1017 2691
1017 2693
1017 3206
1017 3300
1017 3568
1017 4214
1017 4228
1017 4362
1017 4575
1017 4744
1017 4812
1017 4847
1018 1283
1018 1642
1018 2164
1018 2216
1018 2266
1018 2357
1018 3183
1018 3568
1018 4154
1018 4247
1018 4506
1019 1146
1019 1234
1019 1585
1019 2048
1019 2050
1019 2051
1019 2218
1019 2587
1019 3560
1019 3604
1020 1064
1020 2210
1020 2506
1020 2629
1020 2864
1020 2902
1020 3047
1020 3313
1020 3342
1020 3937
1020 4094
1020 4120
1020 4319
1020 4984
1020 4990
1021 2160
1021 2268
1021 2326
1021 2386
1021 2796
1021 3366
1021 3493
1021 3568
1021 3909
1021 4032
1021 4189
1021 4277
1021 4506
1022 1043
1022 1696
1022 2585
1022 3066
1022 3146
1022 3217
1022 3220
1022 3261
1022 3413
1022 3552
1022 4135
1022 4467
1023 1101
1023 1215
1023 1854
1023 1994
1023 2515
1023 2585
1023 2615
1023 2637
1023 2663
1023 2694
1023 2697
1023 2829
1023 3220
1023 3322
1023 3488
1023 3951
1023 4174
1023 4202
1023 4886
1024 1045
1024 1354
1024 1582
1024 1610
1024 1618
1024 2010
1024 2384
1024 2388
1024 2438
1024 2544
1024 2806
1024 2812
1024 3228
1024 3504
1024 3595
1024 3684
1024 3693
1024 3731
1024 3759
1024 4095
1024 4392
1024 4443
1024 4571
1024 4878
1025 1070
1025 1097
1025 1453
1025 1666
1025 2315
1025 2548
1025 2696
1025 3681
1025 3689
1025 4152
1025 4190
1025 4194
1025 4365
1025 4871
1026 1065
1026 1067
1026 1078
1026 1223
1026 1270
1026 1365
1026 1388
1026 1401
1026 1466
1026 1556
1026 1568
1026 1591
1026 1601
1026 1745
1026 1800
1026 1861
1026 1939
1026 2042
1026 2321
1026 2366
1026 2384
1026 2410
1026 2473
1026 2567
1026 2763
1026 2975
1026 2979
1026 3080
1026 3174
1026 3244
1026 3275
1026 3398
1026 3443
1026 3479
1026 3504
1026 3558
1026 3576
1026 3636
1026 3643
1026 3791
1026 3881
1026 3911
1026 3964
1026 3980
1026 4031
1026 4402
1026 4449
1026 4592
1026 4644
1026 4732
1026 4817
1026 4981
1027 1287
1027 1440
1027 1579
1027 1586
1027 1935
1027 2308
1027 2563
1027 2808
1027 2845
1027 2861
1027 3099
1027 3252
1027 3353
1027 3797
1027 4499
1028 1169
1028 1292
1028 1489
1028 1626
1028 1786
1028 1832
1028 1980
1028 1990
1028 2100
1028 2192
1028 2500
1028 2808
1028 2836
1028 2882
1028 3028
1028 3149
1028 3751
1028 3771
1028 3841
1028 4951
1029 1195
1029 1438
1029 1498
1029 1545
1029 1611
1029 1730
1029 1757
1029 1805
1029 2246
1029 2248
1029 2311
1029 2463
1029 2894
1029 3100
1029 3335
1029 3374
1029 3670
1029 3778
1029 3784
1029 3928
1030 1370
1030 1587
1030 1608
1030 1906
1030 1968
1030 1979
1030 2143
1030 2447
1030 2656
1030 2678
1030 2689
1030 2784
1030 2831
1030 2893
1030 3015
1030 3109
1030 3195
1030 3452
1030 3654
1030 3962
1030 4458
1030 4769
1030 4827
1030 4848
1030 4953
1030 4982
1031 1373
1031 1423
1031 1618
1031 2378
1031 2662
1031 2787
1031 4554
1031 4601
1031 4908
1032 1230
1032 1319
1032 1424
1032 1583
1032 1611
1032 1617
1032 1657
1032 1711
1032 1954
1032 2463
1032 2489
1032 2817
1032 2894
1032 2961
1032 3159
1032 3176
1032 3224
1032 3308
1032 3331
1032 3576
1032 3638
1032 3704
1032 3866
1032 3920
1032 3928
1032 3957
1032 4179
1032 4371
1032 4714
1033 1132
1033 1173
1033 1306
1033 1502
1033 2103
1033 2175
1033 2866
1033 2871
1033 2905
1033 2908
1033 2914
1033 3059
1033 3250
1033 3977
1033 4103
1033 4196
1033 4203
1033 4478
1034 1045
1034 1063
1034 2410
1034 2430
1034 2473
1034 3048
1034 3080
1034 3423
1034 3995
1034 4485
1034 4554
1034 4587
1034 4752
1035 1308
1035 1726
1035 1997
1035 2402
1035 2715
1035 3053
1035 3130
1035 3311
1035 3412
1035 3726
1035 3774
1035 3810
1035 4170
1035 4782
1035 4886
1035 4922
1036 1175
1036 1601
1036 2032
1036 2103
1036 2109
1036 2121
1036 2266
1036 2278
1036 2307
1036 2326
1036 3072
1036 3157
1036 3183
1036 3440
1036 3687
1036 4024
1036 4040
1036 4130
1036 4154
1036 4181
1036 4271
1036 4353
1036 4368
1036 4403
1036 4421
1036 4506
1036 4786
1037 1278
1037 1709
1037 1720
1037 1770
1037 1879
1037 1907
1037 1996
1037 2086
1037 2212
1037 2223
1037 2318
1037 2537
1037 2750
1037 2798
1037 2882
1037 2940
1037 2946
1037 3179
1037 3329
1037 3818
1037 4836
1037 4850
1038 1087
1038 1130
1038 2150
1038 2161
1038 2319
1038 2901
1038 3041
1038 3205
1038 3347
1038 3434
1038 3559
1038 3687
1038 3707
1038 3775
1038 4224
1038 4238
1038 4345
1038 4432
1038 4724
1039 1250
1039 1315
1039 1513
1039 1567
1039 2106
1039 2178
1039 2331
1039 2552
1039 2603
1039 2847
1039 3024
1039 3321
1039 3362
1039 3365
1039 4136
1039 4373
1039 4379
1039 4546
1039 4615
1039 4811
1040 1062
1040 1070
1040 1124
1040 1284
1040 2080
1040 2095
1040 2110
1040 2203
1040 2272
1040 2298
1040 3088
1040 3126
1040 3647
1040 3648
1040 4098
1040 4099
1040 4175
1040 4702
1040 4800
1040 4838
1040 4839
1041 1398
1041 2144
1041 2197
1041 2434
1041 2487
1041 2581
1041 2602
1041 2617
1041 2662
1041 2875
1041 3010
1041 3169
1041 3296
1041 3358
1041 3664
1041 3994
1041 4246
1041 4610
1041 4682
1041 4804
1041 4965
1041 4996
1042 1442
1042 1485
1042 1852
1042 2050
1042 2576
1042 2712
1042 2729
1042 3423
1042 3532
1042 3555
1042 4274
1042 4336
1042 4479
1042 4693
1042 4749
1043 1066
1043 1146
1043 1393
1043 1426
1043 1555
1043 1982
1043 2002
1043 2013
1043 2209
1043 2515
1043 2584
1043 2944
1043 2991
1043 3060
1043 3147
1043 3180
1043 3217
1043 3220
1043 3401
1043 3759
1043 3836
1043 4025
1043 4567
1043 4859
1043 4985
1044 1717
1044 1754
1044 2052
1044 2706
1044 3373
1044 3753
1044 4322
1044 4445
1044 4454
1044 4509
1044 4726
1044 4734
1045 1244
1045 1299
1045 1367
1045 1712
1045 2399
1045 2479
1045 2657
1045 2941
1045 3070
1045 3080
1045 3438
1045 3606
1045 3612
1045 4284
1045 4351
1045 4393
1045 4425
1045 4547
1045 4579
1045 4592
1045 4610
1045 4940
1046 1055
1046 1105
1046 2032
1046 2341
1046 2636
1046 3018
1046 3020
1046 3216
1046 3493
1046 3933
1046 4006
1046 4041
1046 4206
1046 4335
1046 4568
1046 4899
1047 1199
1047 1211
1047 1396
1047 1545
1047 1554
1047 1757
1047 2365
1047 2499
1047 3106
1047 3420
1047 3458
1047 3678
1047 3861
1047 3920
1047 4006
1047 4039
1047 4046
1047 4685
1047 4975
1047 4991
1048 1166
1048 1364
1048 1809
1048 1849
1048 1975
1048 2039
1048 2367
1048 2987
1048 3012
1048 3103
1048 3119
1048 3372
1048 4302
1048 4323
1048 4854
1048 4903
1049 1385
1049 2585
1049 2615
1049 2680
1049 2850
1049 3011
1049 3166
1049 3255
1049 3271
1049 3970
1049 4308
1050 2181
1050 2351
1050 2878
1050 3056
1050 3086
1050 3246
1050 3514
1050 3525
1050 3650
1050 3790
1050 4953
1051 1080
1051 1202
1051 1334
1051 1409
1051 1473
1051 1817
1051 1871
1051 1892
1051 2056
1051 2126
1051 2433
1051 2684
1051 2719
1051 2741
1051 2754
1051 2879
1051 3096
1051 3214
1051 3320
1051 3525
1051 3578
1051 3691
1051 3773
1051 3795
1051 3946
1051 4455
1051 4720
1051 4757
1051 4902
1051 4988
1052 1164
1052 1247
1052 1446
1052 2014
1052 2363
1052 2437
1052 2444
1052 2457
1052 2480
1052 2843
1052 3158
1052 3419
1052 3445
1052 3487
1052 3559
1052 3732
1052 3881
1052 4005
1052 4116
1052 4648
1052 4682
1052 4706
1052 4796
1052 4958
1052 4996
1053 1073
1053 1482
1053 1622
1053 1712
1053 1863
1053 2438
1053 2453
1053 2480
1053 2488
1053 2567
1053 2754
1053 2898
1053 2990
1053 3042
1053 3070
1053 3286
1053 3526
1053 3652
1053 4055
1053 4485
1053 4756
1053 4813
1054 1210
1054 1456
1054 1600
1054 1662
1054 2003
1054 2586
1054 2694
1054 3050
1054 3083
1054 3271
1054 3469
1054 3552
1054 3660
1054 4467
1054 4808
1055 1105
1055 1165
1055 1405
1055 1457
1055 1642
1055 1694
1055 2159
1055 2448
1055 2526
1055 3007
1055 3216
1055 3440
1055 3718
1055 3933
1055 4154
1055 4312
1055 4315
1055 4335
1055 4359
1055 4412
1055 4974
1056 1471
1056 1644
1056 1683
1056 2092
1056 2103
1056 2487
1056 2818
1056 3555
1056 4336
1056 4525
1056 4556
1057 1105
1057 1108
1057 1175
1057 1212
1057 2070
1057 2245
1057 2278
1057 2341
1057 2348
1057 3183
1057 3417
1057 3493
1057 3608
1057 3616
1057 3732
1057 4006
1057 4032
1057 4086
1057 4353
1057 4445
1057 4786
1058 1562
1058 1581
1058 1855
1058 1919
1058 1949
1058 2181
1058 2247
1058 2569
1058 2900
1058 3125
1058 3155
1058 3326
1058 3351
1058 3803
1058 3852
1058 3962
1058 4019
1058 4755
1058 4951
1059 1100
1059 1142
1059 1199
1059 1238
1059 1421
1059 1425
1059 1467
1059 1611
1059 1701
1059 1814
1059 1853
1059 1969
1059 1992
1059 2132
1059 2255
1059 2961
1059 3085
1059 3102
1059 3189
1059 3370
1059 3374
1059 3387
1059 3419
1059 3533
1059 3670
1059 3730
1059 3922
1059 3928
1059 4282
1059 4410
1059 4612
1059 4983
1059 4991
1060 1473
1060 1581
1060 1949
1060 2711
1060 2724
1060 3045
1060 3096
1060 3209
1060 3214
1060 3556
1060 3829
1060 4745
1060 4769
1060 4807
1061 1086
1061 1631
1061 1660
1061 2372
1061 2377
1061 2928
1061 3275
1061 3378
1061 3806
1061 3932
1061 3985
1061 4268
1061 4450
1061 4945
1062 1659
1062 2080
1062 2180
1062 2272
1062 2551
1062 2968
1062 3925
1062 4044
1062 4099
1062 4200
1062 4258
1062 4838
1063 1065
1063 1164
1063 1223
1063 1367
1063 1582
1063 1756
1063 1780
1063 1958
1063 2020
1063 2408
1063 2421
1063 2425
1063 2438
1063 2460
1063 2488
1063 2567
1063 2602
1063 2674
1063 2682
1063 2801
1063 3008
1063 3098
1063 3169
1063 3221
1063 3248
1063 3256
1063 3286
1063 3298
1063 3398
1063 3494
1063 3535
1063 3566
1063 3618
1063 3632
1063 3703
1063 4005
1063 4195
1063 4393
1063 4396
1063 4443
1063 4447
1063 4461
1063 4596
1063 4643
1063 4915
1063 4927
1063 4934
1063 4981
1064 1136
1064 1515
1064 1677
1064 1950
1064 1981
1064 2172
1064 2601
1064 2629
1064 3008
1064 3022
1064 3047
1064 3213
1064 3222
1064 3313
1064 3527
1064 3617
1064 3777
1064 3990
1064 4113
1064 4250
1064 4319
1064 4484
1064 4581
1064 4974
1065 1222
1065 2808
1065 4012
1065 4336
1065 4393
1065 4793
1066 1083
1066 1149
1066 1181
1066 1249
1066 1369
1066 1434
1066 1606
1066 1623
1066 1749
1066 1824
1066 1873
1066 2013
1066 2585
1066 2623
1066 2700
1066 2813
1066 3552
1066 3561
1066 3819
1066 3910
1066 3951
1066 4595
1066 4652
1066 4684
1066 4697
1066 4855
1066 4906
1066 4988
1067 1229
1067 1466
1067 1848
1067 1867
1067 2385
1067 2523
1067 2602
1067 2624
1067 2662
1067 2863
1067 2915
1067 2979
1067 3122
1067 3417
1067 3612
1067 3618
1067 3756
1067 4592
1067 4643
1067 4971
1067 4981
1068 1120
1068 1451
1068 1503
1068 2129
1068 2223
1068 2242
1068 2300
1068 2481
1068 2484
1068 2573
1068 2821
1068 2933
1068 2969
1068 2988
1068 3142
1068 3621
1068 4021
1068 4079
1068 4114
1068 4124
1068 4125
1068 4279
1068 4283
1068 4306
1068 4363
1069 1306
1069 1809
1069 1815
1069 1975
1069 2039
1069 2122
1069 2787
1069 2888
1069 2932
1069 3059
1069 3238
1069 3250
1069 3800
1069 3840
1069 3936
1069 3982
1069 4018
1069 4085
1069 4137
1069 4207
1069 4261
1069 4637
1069 4854
1069 4925
1069 4954
1069 4958
1070 1071
1070 1154
1070 1167
1070 1239
1070 1246
1070 1453
1070 1484
1070 1507
1070 1509
1070 1510
1070 1521
1070 1532
1070 1644
1070 1666
1070 1953
1070 2021
1070 2101
1070 2137
1070 2315
1070 2492
1070 2512
1070 2613
1070 2649
1070 2966
1070 2990
1070 3109
1070 3617
1070 3689
1070 3763
1070 3900
1070 4093
1070 4123
1070 4145
1070 4152
1070 4351
1070 4360
1070 4502
1070 4558
1070 4611
1070 4613
1070 4640
1070 4642
1070 4871
1071 1468
1071 1509
1071 1535
1071 1794
1071 2021
1071 2113
1071 2137
1071 2315
1071 2474
1071 2483
1071 2548
1071 2649
1071 3522
1071 3689
1071 4123
1071 4162
1071 4599
1071 4640
1072 1224
1072 1508
1072 1723
1072 1791
1072 1793
1072 1801
1072 1845
1072 1865
1072 1951
1072 2091
1072 2094
1072 2912
1072 2951
1072 3074
1072 3427
1072 3808
1072 3882
1072 4087
1072 4142
1072 4199
1072 4244
1072 4251
1072 4515
1072 4894
1073 1196
1073 1198
1073 1344
1073 1610
1073 1780
1073 2025
1073 2120
1073 2581
1073 3122
1073 3187
1073 3336
1073 3619
1073 3994
1073 4462
1073 4732
1073 4756
1073 4968
1074 1123
1074 1171
1074 1303
1074 1950
1074 1983
1074 1998
1074 2143
1074 2172
1074 2251
1074 2629
1074 3212
1074 3248
1074 3272
1074 3313
1074 3358
1074 3937
1074 4215
1074 4250
1074 4538
1074 4694
1074 4991
1075 1089
1075 1096
1075 1465
1075 1589
1075 1686
1075 1853
1075 3003
1075 3171
1075 3239
1075 3435
1075 3436
1075 3486
1075 3533
1075 3784
1075 3861
1075 4410
1075 4975
1076 1169
1076 1907
1076 2023
1076 2184
1076 2265
1076 2353
1076 2546
1076 2558
1076 3028
1076 3172
1076 3251
1076 3290
1076 3316
1076 3751
1076 3818
1076 3978
1076 4088
1076 4097
1076 4382
1076 4806
1076 4878
1077 1106
1077 1113
1077 1731
1077 1759
1077 1951
1077 2005
1077 2071
1077 2197
1077 2884
1077 2891
1077 2960
1077 3234
1077 3282
1077 3584
1077 3808
1077 4034
1077 4119
1078 1172
1078 2453
1078 2598
1078 2617
1078 2763
1078 3445
1078 3486
1078 4017
1078 4396
1079 1479
1079 2230
1079 2367
1079 3133
1079 3371
1079 3372
1079 3548
1079 3711
1079 3799
1079 3875
1079 3981
1079 4018
1079 4069
1079 4207
1079 4259
1079 4394
1079 4854
1079 4925
1079 4954
1079 4958
1080 1176
1080 1202
1080 1377
1080 1386
1080 1514
1080 1572
1080 1581
1080 2741
1080 2820
1080 2942
1080 3000
1080 3086
1080 3110
1080 3129
1080 3155
1080 3246
1080 3351
1080 3368
1080 3513
1080 3521
1080 3691
1080 3829
1080 3865
1080 3943
1080 3962
1080 3997
1080 4008
1080 4042
1080 4813
1081 1426
1081 1685
1081 1917
1081 2067
1081 2220
1081 2663
1081 2667
1081 2829
1081 3145
1081 3163
1081 3186
1081 3226
1081 3261
1081 3271
1081 3328
1081 3389
1081 3655
1081 3695
1081 3715
1081 3993
1081 4765
1081 4795
1081 4886
1081 4907
1082 1169
1082 1292
1082 1560
1082 1770
1082 1816
1082 1907
1082 1946
1082 2086
1082 2212
1082 2777
1082 2778
1082 2800
1082 2808
1082 2828
1082 2962
1082 2999
1082 3414
1082 3818
1082 4183
1082 4263
1082 4409
1082 4844
1082 4862
1082 4993
1083 1249
1083 1662
1083 1787
1083 1821
1083 1884
1083 1907
1083 2586
1083 2813
1083 2853
1083 3239
1083 3697
1083 3774
1083 4802
1083 4907
1083 4989
1084 1551
1084 2331
1084 2363
1084 2536
1084 2632
1084 3033
1084 3333
1084 3601
1084 3629
1084 4294
1084 4583
1084 4647
1084 4896
1085 1221
1085 1271
1085 1741
1085 1783
1085 1986
1085 2090
1085 2275
1085 2290
1085 3069
1085 3264
1085 3300
1085 3506
1085 3748
1085 3750
1085 3779
1085 4156
1085 4275
1085 4719
1085 4948
1086 1660
1086 1712
1086 1880
1086 2070
1086 2127
1086 2377
1086 2397
1086 2501
1086 2510
1086 3087
1086 4113
1086 4143
1086 4450
1086 4501
1087 1201
1087 1264
1087 1746
1087 1818
1087 2161
1087 2250
1087 2317
1087 2319
1087 2722
1087 2782
1087 3736
1087 3885
1087 4069
1087 4198
1087 4238
1087 4257
1087 4701
1087 4724
1087 4730
1087 4864
1088 1260
1088 1389
1088 1522
1088 1924
1088 2065
1088 2294
1088 2303
1088 2886
1088 3288
1088 3408
1088 3425
1088 3690
1088 3945
1088 4218
1088 4302
1088 4708
1089 1396
1089 1545
1089 1650
1089 1710
1089 1853
1089 2311
1089 2739
1089 2906
1089 3076
1089 3106
1089 3363
1089 3449
1089 3698
1089 4039
1089 4997
1090 1113
1090 1192
1090 1243
1090 1503
1090 1966
1090 2223
1090 2247
1090 2398
1090 2466
1090 2479
1090 2509
1090 2988
1090 3148
1090 3593
1090 3594
1090 4059
1090 4125
1090 4134
1090 4649
1090 4818
1091 1132
1091 1826
1091 2039
1091 2079
1091 2098
1091 2300
1091 2977
1091 3044
1091 3052
1091 3119
1091 3124
1091 3133
1091 3875
1091 3879
1091 4229
1091 4637
1091 4851
1092 1114
1092 1276
1092 1303
1092 1314
1092 1379
1092 1447
1092 1519
1092 1720
1092 1761
1092 1773
1092 1983
1092 2057
1092 2238
1092 2629
1092 3070
1092 3272
1092 4121
1093 1216
1093 1235
1093 1505
1093 1543
1093 1614
1093 1854
1093 1996
1093 2137
1093 2244
1093 2260
1093 2292
1093 3444
1093 3520
1093 4256
1093 4356
1093 4377
1093 4464
1093 4472
1093 4528
1093 4678
1094 1202
1094 1266
1094 1304
1094 1347
1094 1386
1094 1613
1094 1930
1094 2045
1094 2181
1094 2652
1094 2691
1094 2743
1094 2752
1094 2784
1094 2879
1094 2921
1094 3086
1094 3321
1094 3457
1094 3749
1094 3752
1094 3811
1094 3962
1094 4316
1094 4355
1094 4714
1094 4769
1094 4813
1094 4827
1094 4891
1095 1121
1095 1195
1095 1226
1095 1348
1095 1474
1095 1545
1095 1739
1095 1941
1095 2472
1095 3085
1095 3861
1095 3996
1095 4083
1095 4222
1095 4288
1096 1262
1096 1324
1096 1325
1096 1611
1096 1711
1096 2043
1096 2699
1096 2910
1096 2916
1096 2937
1096 3203
1096 3231
1096 3866
1096 4288
1096 4349
1096 4511
1096 4529
1096 4643
1096 4791
1096 4810
1097 1100
1097 1239
1097 1453
1097 1478
1097 1484
1097 1532
1097 1972
1097 2021
1097 2113
1097 2441
1097 2469
1097 2483
1097 2487
1097 2528
1097 2548
1097 3284
1097 3309
1097 3689
1097 4028
1097 4093
1097 4152
1097 4176
1097 4190
1097 4194
1097 4360
1097 4510
1097 4580
1097 4613
1097 4640
1097 4776
1098 1920
1098 2058
1098 2084
1098 2491
1098 2788
1098 2825
1098 3363
1098 3401
1098 3471
1098 3565
1098 4138
1098 4908
1099 1709
1099 1765
1099 1784
1099 1786
1099 1903
1099 2310
1099 2773
1099 3149
1099 3179
1099 3347
1099 3676
1099 3959
1099 3988
1099 4248
1099 4265
1099 4295
1099 4791
1099 4993
1100 1226
1100 1617
1100 1735
1100 2261
1100 2463
1100 2937
1100 2968
1100 3232
1100 3363
1100 3376
1100 3453
1100 3638
1100 3642
1100 3965
1100 4070
1100 4930
1101 1432
1101 1518
1101 1525
1101 1801
1101 2029
1101 2386
1101 2547
1101 2623
1101 2698
1101 2813
1101 3437
1101 3448
1101 3621
1101 3776
1101 3951
1101 3976
1101 4065
1101 4181
1101 4634
1101 4642
1101 4687
1101 4858
1101 4897
1101 4947
1102 1455
1102 1838
1102 1851
1102 2090
1102 2129
1102 2430
1102 2604
1102 2846
1102 3053
1102 3449
1102 3506
1102 3828
1102 3961
1102 4158
1102 4572
1102 4936
1103 1187
1103 1326
1103 1400
1103 1722
1103 1755
1103 2255
1103 2742
1103 3116
1103 3297
1103 3534
1103 4155
1103 4573
1103 4608
1103 4710
1103 4938
1104 1758
1104 2008
1104 2060
1104 2160
1104 2271
1104 2412
1104 2521
1104 3144
1104 4181
1104 4309
1104 4312
1104 4315
1104 4359
1104 4395
1104 4633
1104 4709
1105 1165
1105 1212
1105 1214
1105 1252
1105 1960
1105 2008
1105 2109
1105 2167
1105 2266
1105 2268
1105 2269
1105 2271
1105 2341
1105 2364
1105 2448
1105 2482
1105 3020
1105 3061
1105 3253
1105 3417
1105 3472
1105 4019
1105 4030
1105 4032
1105 4040
1105 4080
1105 4154
1105 4189
1105 4247
1105 4309
1105 4359
1105 4368
1105 4395
1105 4568
1105 4627
1105 4633
1105 4912
1105 4998
1106 1224
1106 1865
1106 2474
1106 2918
1106 2960
1106 3282
1106 3424
1106 3599
1106 3867
1106 3905
1106 4004
1106 4440
1106 4605
1106 4744
1106 4874
1106 4941
1107 1755
1107 2235
1107 2310
1107 3297
1107 3599
1107 3688
1107 4138
1107 4301
1107 4835
1107 4842
1108 1114
1108 1175
1108 1184
1108 1219
1108 1252
1108 1815
1108 2131
1108 2231
1108 2271
1108 2278
1108 2338
1108 2341
1108 2357
1108 2364
1108 2448
1108 2599
1108 3020
1108 3061
1108 3208
1108 3310
1108 3493
1108 4006
1108 4030
1108 4032
1108 4041
1108 4057
1108 4090
1108 4181
1108 4188
1108 4309
1108 4312
1108 4568
1108 4627
1108 4633
1108 4849
1109 1132
1109 1820
1109 1859
1109 2117
1109 2355
1109 2672
1109 2826
1109 2857
1109 2939
1109 2972
1109 3090
1109 3124
1109 3238
1109 3372
1109 3918
1109 4073
1109 4075
1109 4178
1109 4357
1109 4621
1109 4637
1109 4854
1109 4919
1109 4944
1110 1402
1110 1528
1110 1653
1110 1870
1110 2000
1110 2134
1110 2201
1110 2214
1110 2381
1110 2419
1110 2657
1110 2917
1110 3562
1110 4151
1110 4717
1110 4778
1110 4792
1110 4888
1111 1288
1111 1546
1111 1567
1111 1874
1111 2178
1111 2286
1111 2343
1111 2603
1111 2638
1111 2847
1111 2941
1111 3339
1111 3553
1111 3848
1111 4048
1111 4379
1111 4615
1111 4698
1111 4811
1112 1257
1112 1619
1112 1845
1112 1863
1112 1973
1112 2005
1112 2091
1112 2147
1112 2215
1112 2437
1112 2777
1112 2854
1112 2891
1112 3867
1112 4077
1112 4352
1112 4488
1113 1904
1113 2177
1113 2228
1113 2749
1113 2799
1113 2881
1113 2951
1113 2960
1113 3343
1113 3801
1113 3905
1113 4001
1114 1379
1114 1976
1114 2063
1114 2276
1114 2334
1114 2629
1114 3044
1114 3269
1114 3937
1114 4102
1114 4107
1114 4197
1114 4967
1115 1183
1115 1513
1115 1772
1115 1802
1115 1847
1115 2305
1115 2337
1115 2413
1115 2465
1115 2564
1115 2862
1115 3077
1115 3083
1115 3123
1115 3337
1115 3702
1115 3853
1115 4158
1115 4163
1115 4228
1115 4293
1115 4334
1115 4719
1115 4847
1115 4998
1116 1214
1116 1709
1116 1763
1116 1766
1116 1802
1116 1907
1116 2086
1116 2171
1116 2212
1116 2274
1116 2485
1116 2778
1116 2860
1116 2882
1116 3323
1116 3818
1116 4091
1116 4183
1116 4200
1116 4570
1116 4836
1116 4859
1117 1153
1117 1340
1117 1556
1117 1607
1117 1646
1117 1723
1117 1888
1117 1996
1117 2183
1117 2196
1117 2287
1117 2464
1117 2681
1117 2744
1117 2802
1117 3139
1117 3305
1117 3332
1117 3484
1117 3496
1117 3767
1117 3912
1117 3921
1117 4241
1117 4273
1117 4338
1117 4398
1117 4406
1117 4430
1117 4578
1117 4690
1117 4742
1118 1201
1118 2161
1118 2258
1118 2319
1118 2543
1118 2696
1118 3041
1118 3205
1118 3671
1118 3775
1118 3874
1118 4184
1118 4198
1118 4224
1118 4238
1118 4386
1118 4465
1118 4730
1118 4779
1118 4932
1119 1317
1119 1506
1119 1839
1119 1967
1119 2123
1119 2241
1119 2307
1119 2524
1119 2835
1119 3082
1119 3756
1119 3989
1119 4060
1119 4104
1119 4378
1119 4788
1119 4843
1119 4866
1120 1451
1120 2129
1120 2481
1120 2560
1120 2573
1120 2815
1120 2821
1120 3142
1120 3593
1120 3594
1120 3610
1120 3917
1120 4059
1120 4125
1120 4129
1120 4239
1120 4306
1120 4321
1120 4468
1120 4584
1120 4600
1120 4649
1120 4758
1121 1477
1121 1655
1121 1789
1121 2311
1121 3013
1121 3078
1121 3516
1121 3928
1121 4010
1121 4313
1121 4410
1121 4517
1121 4924
1122 1291
1122 1448
1122 1534
1122 1734
1122 1796
1122 1862
1122 1995
1122 2570
1122 2609
1122 2734
1122 2820
1122 2992
1122 3014
1122 3319
1122 3356
1122 3489
1122 3518
1122 3571
1122 3868
1122 3999
1122 4115
1122 4122
1122 4153
1122 4193
1122 4337
1122 4431
1122 4516
1122 4552
1122 4574
1122 4799
1122 4834
1122 4841
1122 4868
1123 1136
1123 1342
1123 1441
1123 1519
1123 1619
1123 1844
1123 1950
1123 1976
1123 2049
1123 2055
1123 2097
1123 2143
1123 2172
1123 2334
1123 2352
1123 2572
1123 2625
1123 2627
1123 2959
1123 3022
1123 3047
1123 3213
1123 3272
1123 3375
1123 4082
1123 4102
1123 4120
1123 4388
1123 4712
1123 4959
1123 4967
1123 4990
1123 4995
1124 1556
1124 1748
1124 1841
1124 2069
1124 2110
1124 2272
1124 2865
1124 3088
1124 3443
1124 3647
1124 3680
1124 4200
1124 4258
1124 4838
1124 4839
1124 4972
1125 1148
1125 1202
1125 1488
1125 1497
1125 1608
1125 1699
1125 1906
1125 1968
1125 2045
1125 2181
1125 2949
1125 3086
1125 3181
1125 3285
1125 3474
1125 3514
1125 3556
1125 3654
1125 3773
1125 3829
1125 3954
1125 4775
1125 4827
1125 4891
1125 4953
1126 1218
1126 1248
1126 1261
1126 1263
1126 1901
1126 2093
1126 2736
1126 3136
1126 3167
1126 3364
1126 3467
1126 4295
1127 1231
1127 1778
1127 1822
1127 1940
1127 1973
1127 2028
1127 2094
1127 2309
1127 2333
1127 2422
1127 2881
1127 2901
1127 2967
1127 3343
1127 3821
1127 4051
1127 4058
1127 4588
1128 1141
1128 1263
1128 1274
1128 1286
1128 1334
1128 1833
1128 2056
1128 2176
1128 2831
1128 2855
1128 2867
1128 3155
1128 3173
1128 3246
1128 3436
1128 3452
1128 3457
1128 3537
1128 3610
1128 3746
1128 3757
1128 3870
1128 3954
1128 4714
1128 4769
1128 4953
1128 4969
1129 1289
1129 1473
1129 1737
1129 2056
1129 2265
1129 2893
1129 2996
1129 3020
1129 3025
1129 3056
1129 3092
1129 3514
1129 3773
1129 3795
1129 4953
1130 1264
1130 1746
1130 1786
1130 2258
1130 2289
1130 2708
1130 3041
1130 3199
1130 3481
1130 3874
1130 3885
1130 4177
1130 4238
1131 1537
1131 1538
1131 2336
1131 2739
1131 3379
1131 3390
1131 3441
1131 3461
1131 4111
1131 4185
1131 4691
1131 4724
1132 1307
1132 1839
1132 1842
1132 1948
1132 1993
1132 2098
1132 2156
1132 2230
1132 2340
1132 2395
1132 2695
1132 2704
1132 2767
1132 2833
1132 2837
1132 2871
1132 2905
1132 2908
1132 3094
1132 3103
1132 3238
1132 3830
1132 3832
1132 3858
1132 3859
1132 3879
1132 3890
1132 3936
1132 3971
1132 4047
1132 4103
1132 4203
1132 4288
1132 4323
1132 4357
1132 4478
1132 4832
1132 4851
1132 4919
1133 1176
1133 1386
1133 1409
1133 1439
1133 1833
1133 1855
1133 1923
1133 2724
1133 2831
1133 2855
1133 3207
1133 3214
1133 3323
1133 3348
1133 3513
1133 3567
1133 3691
1133 3943
1133 4982
1134 1224
1134 1801
1134 1819
1134 1822
1134 1928
1134 2028
1134 2177
1134 2205
1134 2342
1134 2780
1134 2951
1134 2952
1134 3424
1134 3834
1134 3856
1134 4142
1134 4147
1134 4432
1134 4818
1134 4963
1134 4992
1135 1238
1135 1470
1135 1545
1135 1553
1135 1686
1135 2880
1135 3031
1135 3151
1135 3280
1135 3363
1135 3428
1135 3430
1135 3670
1135 3928
1135 4039
1135 4288
1135 4299
1135 4652
1136 1276
1136 1515
1136 2481
1136 2506
1136 2923
1136 2994
1136 3101
1136 3272
1136 3313
1136 3455
1136 3950
1136 3960
1136 4027
1136 4113
1136 4243
1136 4842
1136 4967
1137 1169
1137 1355
1137 1816
1137 1825
1137 1903
1137 2088
1137 2192
1137 2219
1137 2940
1137 2962
1137 2986
1137 3043
1137 3118
1137 3290
1137 4132
1137 4248
1137 4527
1137 4535
1137 4862
1138 1174
1138 1321
1138 1422
1138 1709
1138 1861
1138 2261
1138 2399
1138 2436
1138 2438
1138 2460
1138 2511
1138 2529
1138 2567
1138 2581
1138 2720
1138 2812
1138 3034
1138 3070
1138 3098
1138 3122
1138 3423
1138 3499
1138 3732
1138 3791
1138 3924
1138 4013
1138 4447
1138 4571
1138 4696
1138 4759
1138 4876
1139 1180
1139 1672
1139 1728
1139 1911
1139 1926
1139 2083
1139 2157
1139 2205
1139 2293
1139 2299
1139 2458
1139 2748
1139 2842
1139 3285
1139 3743
1139 3869
1139 4235
1139 4347
1139 4534
1139 4536
1139 4825
1139 4940
1140 1306
1140 1478
1140 1509
1140 1972
1140 2492
1140 2548
1140 2810
1140 3309
1140 3430
1140 3894
1140 4162
1140 4176
1140 4190
1140 4194
1140 4488
1140 4510
1140 4613
1140 4614
1140 4776
1141 1249
1141 1339
1141 1488
1141 1608
1141 1876
1141 2151
1141 2727
1141 2874
1141 3110
1141 3219
1141 3348
1141 3452
1141 3502
1141 3537
1141 3630
1141 3762
1141 3903
1141 3943
1141 4110
1141 4846
1141 4867
1142 2365
1142 2699
1142 2910
1142 3057
1142 3159
1142 3428
1142 3795
1142 3845
1142 4179
1142 4288
1142 4321
1143 1478
1143 1578
1143 1760
1143 2142
1143 2145
1143 2232
1143 2689
1143 3442
1143 4106
1144 1415
1144 1638
1144 1853
1144 1907
1144 2313
1144 2436
1144 2477
1144 2493
1144 2943
1144 2956
1144 2983
1144 3447
1145 1421
1145 2003
1145 2064
1145 2554
1145 2701
1145 3066
1145 3816
1145 3872
1145 4025
1145 4387
1145 4721
1145 4808
1145 4906
1145 4980
1146 1210
1146 1704
1146 1721
1146 1824
1146 2793
1146 2869
1146 2885
1146 3011
1146 3050
1146 3217
1146 3218
1146 3254
1146 3448
1146 3561
1146 3569
1146 3716
1146 3759
1146 3855
1146 3918
1146 3976
1146 4629
1146 4722
1146 4882
1146 4886
1146 4989
1147 1764
1147 1986
1147 2275
1147 2851
1147 2913
1147 3487
1147 3536
1147 3635
1147 3734
1147 3828
1147 4420
1147 4483
1147 4493
1147 4576
1147 4882
1148 1309
1148 1347
1148 1702
1148 1855
1148 1892
1148 1902
1148 1930
1148 2656
1148 2796
1148 2797
1148 2962
1148 3041
1148 3096
1148 3184
1148 3285
1148 3507
1148 3525
1148 3529
1148 3662
1148 3757
1148 3913
1148 4420
1148 4715
1148 4846
1148 4951
1149 1249
1149 1393
1149 1426
1149 1525
1149 2520
1149 3033
1149 3186
1149 3404
1149 3578
1149 3660
1149 3669
1149 4598
1149 4721
1149 4897
1150 1558
1150 1658
1150 1754
1150 1792
1150 2073
1150 2121
1150 2255
1150 2257
1150 2432
1150 2639
1150 2668
1150 2903
1150 3700
1150 3984
1150 4146
1150 4347
1150 4805
1151 1308
1151 1431
1151 1674
1151 1982
1151 1986
1151 2578
1151 2663
1151 2680
1151 2944
1151 3011
1151 3386
1151 3497
1151 3655
1151 3716
1151 3823
1151 4557
1152 1259
1152 1615
1152 1626
1152 1633
1152 1685
1152 1705
1152 1805
1152 2044
1152 2114
1152 2164
1152 2243
1152 2316
1152 2332
1152 2405
1152 2424
1152 2550
1152 2677
1152 2709
1152 3140
1152 3243
1152 3435
1152 3583
1152 3685
1152 3773
1152 3793
1152 3813
1152 3953
1152 4298
1152 4389
1152 4675
1152 4700
1152 4705
1152 4846
1153 1646
1153 1659
1153 2225
1153 2681
1153 2683
1153 2802
1153 3237
1153 3335
1153 3494
1153 4169
1153 4186
1153 4338
1154 1246
1154 1468
1154 1507
1154 2667
1154 3896
1154 4152
1154 4237
1154 4580
1155 1255
1155 1571
1155 2144
1155 2465
1155 2679
1155 3116
1155 3589
1155 4033
1155 4138
1155 4477
1156 1556
1156 1748
1156 1777
1156 1841
1156 2008
1156 2069
1156 2180
1156 2272
1156 2298
1156 2589
1156 2822
1156 3217
1156 3341
1156 4144
1156 4200
1156 4253
1156 4258
1156 4839
1157 1314
1157 1411
1157 1421
1157 1464
1157 1707
1157 1831
1157 1853
1157 1937
1157 1942
1157 2472
1157 2699
1157 2880
1157 2910
1157 3105
1157 3682
1157 3861
1157 3866
1157 3874
1157 3920
1157 4328
1157 4553
1157 4942
1158 1186
1158 1690
1158 1717
1158 1815
1158 1860
1158 2052
1158 2428
1158 2660
1158 4734
1159 1396
1159 1492
1159 2133
1159 2173
1159 2668
1159 4469
1159 4537
1159 4737
1159 4955
1160 1641
1160 1652
1160 1675
1160 1898
1160 2431
1160 2731
1160 3177
1160 3394
1160 3699
1160 3782
1160 3894
1160 4236
1160 4269
1160 4451
1160 4875
1161 1182
1161 1190
1161 1413
1161 1607
1161 1723
1161 1888
1161 1912
1161 2225
1161 2681
1161 2683
1161 2688
1161 2759
1161 3273
1161 3439
1161 3463
1161 3484
1161 3767
1161 4234
1161 4316
1161 4472
1161 4690
1161 4777
1161 4921
1162 1218
1162 1248
1162 1336
1162 1447
1162 1773
1162 1810
1162 1917
1162 2135
1162 2439
1162 2636
1162 2736
1162 2762
1162 2884
1162 3136
1162 3153
1162 3194
1162 3292
1162 3467
1162 4135
1162 4544
1163 1263
1163 1370
1163 1414
1163 1581
1163 1931
1163 2277
1163 2711
1163 2730
1163 2752
1163 2761
1163 2839
1163 2855
1163 3096
1163 3214
1163 3279
1163 3378
1163 3513
1163 3620
1163 3826
1163 3930
1163 3997
1163 4564
1164 1428
1164 2213
1164 2384
1164 2581
1164 2583
1164 3273
1164 3731
1164 3827
1164 4449
1164 4579
1164 4981
1165 1171
1165 1283
1165 1481
1165 1512
1165 1589
1165 1661
1165 2032
1165 2109
1165 2266
1165 2281
1165 2330
1165 2357
1165 2526
1165 2549
1165 2909
1165 3023
1165 3144
1165 4247
1165 4353
1165 4633
1165 4648
1165 4709
1165 4786
1166 1273
1166 1866
1166 2122
1166 2230
1166 2562
1166 2732
1166 2817
1166 2871
1166 2919
1166 2980
1166 3044
1166 3090
1166 3133
1166 3372
1166 3890
1166 3949
1166 3977
1166 3981
1166 3982
1166 4081
1166 4137
1166 4828
1166 4832
1166 4854
1166 4944
1167 1239
1167 1246
1167 1412
1167 1478
1167 1509
1167 1510
1167 1535
1167 2068
1167 2315
1167 2469
1167 2649
1167 2702
1167 3109
1167 3152
1167 3522
1167 3617
1167 3763
1167 3969
1167 4145
1167 4152
1167 4237
1167 4365
1167 4510
1167 4614
1167 4642
1167 4724
1167 4814
1167 4871
1168 1308
1168 1465
1168 2597
1168 2621
1168 2659
1168 2663
1168 2805
1168 3409
1168 4490
1168 4980
1169 1296
1169 1499
1169 1784
1169 2048
1169 2192
1169 2265
1169 2310
1169 2466
1169 2618
1169 2778
1169 2781
1169 2814
1169 2860
1169 2895
1169 2896
1169 2940
1169 2971
1169 2985
1169 2986
1169 3172
1169 3415
1169 3896
1169 3972
1169 3975
1169 4088
1169 4091
1169 4264
1169 4850
1169 4862
1169 4863
1169 4993
1170 1435
1170 1463
1170 1641
1170 1652
1170 1898
1170 2163
1170 2420
1170 2431
1170 2538
1170 3123
1170 3177
1170 3635
1170 3894
1170 4204
1170 4217
1170 4348
1170 4451
1170 4631
1171 1332
1171 1357
1171 1950
1171 1952
1171 2118
1171 2476
1171 3396
1171 3960
1171 4068
1171 4107
1171 4120
1171 4455
1171 4994
1172 1398
1172 1422
1172 1426
1172 1458
1172 2366
1172 2567
1172 2754
1172 2979
1172 3034
1172 3158
1172 3200
1172 3273
1172 3530
1172 3603
1172 3632
1172 3656
1172 3664
1172 3721
1172 3805
1172 3862
1172 4396
1172 4443
1172 4471
1172 4485
1172 4587
1172 4609
1172 4639
1172 4686
1172 4789
1172 4814
1172 4939
1173 1809
1173 1820
1173 1840
1173 1859
1173 2300
1173 2323
1173 2844
1173 2977
1173 2987
1173 3119
1173 3124
1173 3372
1173 3653
1173 3840
1173 4225
1173 4323
1173 4647
1173 4649
1173 4958
1174 1745
1174 2025
1174 2624
1174 2801
1174 3161
1174 3619
1174 3628
1174 4564
1174 4643
1174 4901
1174 4968
1174 4996
1175 1222
1175 1512
1175 2159
1175 2167
1175 2245
1175 2268
1175 2338
1175 2416
1175 2448
1175 2526
1175 2599
1175 2638
1175 2791
1175 3020
1175 3045
1175 3072
1175 3131
1175 3157
1175 3244
1175 3472
1175 4130
1175 4181
1175 4623
1175 4845
1175 4960
1176 1404
1176 1409
1176 2269
1176 2656
1176 2711
1176 2724
1176 2730
1176 2752
1176 2874
1176 3056
1176 3075
1176 3193
1176 3214
1176 3328
1176 3754
1176 4458
1176 4769
1177 1442
1177 1483
1177 2198
1177 2218
1177 2498
1177 2512
1177 2580
1177 2587
1177 2729
1178 1358
1178 1437
1178 1438
1178 1593
1178 1872
1178 1930
1178 2196
1178 2499
1178 2892
1178 2968
1178 3057
1178 3171
1178 3287
1178 3717
1178 3844
1178 3880
1178 3957
1178 4265
1178 4282
1178 4930
1178 4997
1179 1222
1179 2019
1179 2437
1179 2575
1179 2915
1179 3098
1179 3248
1179 3364
1179 3384
1179 3398
1179 3664
1179 4876
1180 1911
1180 2157
1180 2505
1180 3380
1180 3743
1180 3867
1180 4235
1180 4390
1180 4624
1180 4810
1181 1854
1181 2275
1181 2515
1181 2585
1181 3345
1181 3412
1181 3813
1181 4546
1181 4687
1181 4795
1181 4897
1181 4906
1181 4980
1182 1493
1182 1888
1182 1912
1182 3223
1182 3484
1182 3853
1182 4186
1182 4398
1182 4406
1182 4742
1182 4798
1183 1216
1183 1256
1183 1282
1183 1330
1183 1360
1183 1439
1183 1543
1183 1581
1183 2260
1183 2359
1183 2373
1183 2380
1183 2592
1183 2605
1183 2737
1183 3325
1183 3444
1183 3520
1183 3623
1183 3823
1183 4108
1183 4211
1183 4377
1183 4707
1184 1212
1184 1571
1184 2058
1184 2121
1184 2341
1184 3401
1184 3417
1184 3991
1184 4206
1185 1292
1185 1370
1185 1765
1185 1825
1185 1848
1185 1869
1185 1907
1185 2007
1185 2012
1185 2086
1185 2485
1185 2769
1185 2860
1185 2940
1185 3318
1185 3931
1185 4019
1185 4132
1185 4418
1185 4535
1185 4836
1185 4850
1185 4987
1186 1690
1186 1815
1186 1860
1186 1890
1186 1954
1186 2052
1186 2428
1186 2556
1186 2706
1186 3267
1186 3753
1186 4445
1186 4509
1186 4543
1186 4726
1187 1637
1187 1658
1187 2673
1187 3337
1187 3637
1187 3714
1187 3914
1187 4158
1187 4736
1188 1489
1188 1563
1188 2007
1188 2100
1188 2781
1188 2800
1188 3043
1188 3289
1188 3818
1188 3908
1188 4019
1188 4219
1188 4659
1188 4862
1188 4926
1189 2650
1189 2958
1189 4469
1189 4470
1189 4737
1189 4820
1190 1669
1190 2414
1190 2453
1190 3169
1190 3445
1190 4443
1190 4579
1190 4989
1190 4996
1191 1236
1191 1280
1191 1836
1191 2554
1191 2680
1191 2850
1191 3053
1191 3215
1191 3434
1191 4074
1191 4684
1191 4900
1192 2242
1192 2560
1192 2620
1192 3593
1192 3594
1192 4124
1192 4134
1192 4239
1192 4306
1192 4584
1192 4649
1192 4665
1192 4760
1193 1892
1193 2263
1193 3029
1193 3092
1193 3160
1193 3200
1193 4564
1194 1218
1194 1298
1194 1647
1194 1689
1194 2768
1194 2899
1194 3292
1194 3364
1194 3644
1194 3728
1194 4414
1195 1725
1195 1757
1195 1766
1195 1858
1195 1970
1195 2365
1195 2463
1195 2906
1195 2927
1195 3063
1195 3071
1195 3176
1195 3189
1195 3232
1195 3363
1195 3486
1195 3529
1195 3642
1195 3742
1195 3850
1195 3916
1195 3920
1195 3940
1195 3973
1195 4182
1195 4209
1195 4313
1195 4349
1195 4633
1195 4930
1195 4991
1196 1267
1196 1354
1196 1372
1196 1529
1196 1962
1196 2384
1196 2449
1196 2473
1196 2510
1196 2585
1196 2806
1196 3070
1196 3414
1196 3557
1196 3559
1196 3885
1196 4016
1196 4062
1196 4393
1196 4641
1196 4645
1196 4752
1196 4770
1196 4817
1197 1399
1197 1748
1197 2069
1197 2194
1197 2272
1197 2482
1197 2721
1197 3088
1197 3341
1197 3648
1197 3781
1197 4253
1197 4258
1197 4671
1197 4809
1197 4838
1197 4839
1198 1222
1198 1423
1198 1867
1198 2437
1198 2806
1198 2875
1198 3080
1198 3248
1198 3540
1198 3559
1198 3780
1198 4129
1198 4561
1199 1211
1199 1850
1199 2132
1199 2472
1199 2961
1199 3844
1199 3957
1199 4173
1199 4529
1199 4890
1199 4901
1199 4924
1199 4991
1200 1377
1200 1472
1200 1502
1200 1612
1200 2087
1200 2125
1200 2237
1200 2416
1200 2650
1200 2705
1200 2791
1200 3170
1200 3225
1200 3451
1200 3906
1200 4311
1200 4408
1200 4474
1200 4565
1200 4746
1201 1349
1201 1692
1201 1741
1201 1746
1201 1838
1201 2119
1201 2161
1201 2199
1201 2258
1201 2289
1201 2317
1201 2319
1201 2376
1201 2708
1201 2722
1201 2782
1201 2901
1201 3234
1201 3306
1201 3481
1201 3857
1201 3874
1201 4177
1201 4345
1201 4432
1201 4723
1201 4724
1201 4779
1201 4864
1201 4932
1202 1387
1202 1933
1202 2116
1202 2176
1202 2292
1202 2452
1202 2879
1202 3110
1202 3233
1202 3368
1202 3475
1202 3567
1202 3581
1202 3691
1202 3884
1202 4564
1202 4745
1203 1327
1203 1604
1203 1609
1203 2726
1203 2830
1203 3005
1203 3177
1203 3277
1203 3473
1203 3837
1203 4240
1203 4242
1203 4278
1203 4305
1204 1525
1204 1696
1204 1749
1204 1899
1204 2092
1204 2547
1204 3386
1204 3439
1204 3823
1204 4077
1204 4387
1204 4475
1204 4636
1204 4722
1204 4989
1205 1452
1205 1460
1205 1491
1205 1867
1205 1963
1205 2458
1205 2691
1205 2742
1205 2862
1205 3094
1205 3352
1205 3536
1205 3798
1205 3822
1205 4159
1205 4214
1205 4865
1206 1675
1206 1830
1206 2116
1206 2224
1206 2698
1206 3708
1206 3894
1206 4269
1206 4451
1206 4700
1206 4702
1206 4875
1207 1637
1207 1679
1207 1874
1207 2138
1207 2337
1207 2555
1207 2564
1207 2765
1207 3577
1207 4331
1207 4699
1208 1654
1208 1662
1208 1787
1208 2585
1208 2623
1208 2637
1208 3024
1208 3469
1208 3660
1208 3842
1208 3976
1208 4267
1208 4689
1208 4947
1208 4989
1209 1371
1209 1624
1209 2175
1209 2262
1209 2394
1209 3115
1209 3379
1209 3789
1209 4112
1209 4735
1210 1531
1210 1787
1210 1824
1210 2540
1210 2615
1210 2753
1210 3011
1210 3053
1210 3470
1210 3534
1210 3624
1210 3697
1210 3872
1210 4321
1211 1253
1211 1356
1211 1397
1211 1421
1211 1498
1211 1545
1211 1557
1211 1589
1211 1655
1211 1678
1211 1725
1211 1735
1211 1945
1211 2043
1211 2365
1211 2415
1211 2471
1211 2472
1211 2699
1211 2710
1211 2894
1211 3151
1211 3231
1211 3308
1211 3422
1211 3533
1211 3844
1211 3861
1211 4209
1211 4350
1211 4465
1211 4508
1212 1219
1212 1221
1212 1661
1212 1964
1212 2167
1212 2195
1212 2245
1212 2271
1212 2348
1212 2357
1212 2364
1212 2537
1212 2859
1212 2909
1212 3131
1212 3192
1212 3317
1212 3387
1212 3625
1212 4006
1212 4024
1212 4040
1212 4130
1212 4154
1212 4277
1212 4353
1212 4359
1212 4368
1212 4395
1212 4568
1212 4623
1213 1250
1213 1288
1213 1567
1213 2106
1213 2178
1213 2286
1213 2343
1213 3006
1213 3299
1213 3365
1213 3521
1213 3848
1213 4562
1213 4673
1214 1481
1214 2109
1214 2131
1214 2278
1214 2549
1214 3244
1214 3317
1214 3447
1214 3724
1214 4006
1214 4041
1214 4130
1214 4403
1214 4623
1215 1245
1215 2534
1215 2775
1215 2832
1215 2885
1215 3733
1215 3819
1215 3921
1215 4387
1215 4567
1215 4577
1215 4683
1215 4897
1215 4898
1215 4922
1216 1718
1216 2276
1216 2292
1216 2359
1216 2373
1216 2497
1216 2605
1216 3327
1216 3520
1216 4262
1216 4320
1216 4678
1216 4862
1217 2311
1217 2314
1217 2356
1217 2916
1217 2927
1217 3280
1217 3335
1217 3395
1217 3758
1217 3844
1217 4313
1217 4553
1217 4924
1217 4942
1218 1241
1218 1336
1218 1647
1218 1773
1218 2093
1218 2229
1218 2736
1218 2762
1218 3153
1218 3194
1218 3722
1218 3833
1218 4200
1218 4656
1218 4811
1218 4826
1219 1405
1219 1954
1219 2109
1219 2269
1219 2278
1219 2387
1219 3040
1219 3574
1219 4030
1219 4960
1219 4967
1220 1852
1220 2092
1220 2421
1220 2498
1220 2729
1220 3560
1220 3894
1220 4166
1220 4465
1220 4629
1221 1282
1221 1818
1221 2204
1221 2260
1221 2292
1221 2361
1221 2398
1221 2735
1221 3218
1221 3520
1221 4377
1221 4464
1222 1354
1222 1633
1222 1780
1222 1861
1222 2425
1222 3019
1222 3114
1222 3124
1222 3221
1222 3235
1222 3336
1222 3559
1222 3632
1222 4442
1222 4752
1223 1247
1223 1745
1223 1867
1223 2384
1223 2553
1223 3034
1223 3109
1223 3156
1223 3221
1223 3357
1223 3559
1223 3612
1223 4706
1224 1726
1224 1904
1224 2071
1224 2186
1224 2654
1224 2770
1224 2952
1224 3074
1224 3780
1224 3821
1224 4147
1224 4286
1225 1226
1225 1319
1225 1424
1225 1611
1225 1872
1225 1970
1225 2699
1225 2877
1225 3054
1225 3189
1225 3203
1225 3224
1225 3287
1225 3638
1225 3698
1225 3717
1225 3909
1225 4046
1225 4288
1225 4473
1225 4612
1225 4942
1226 1253
1226 1396
1226 1536
1226 1545
1226 1686
1226 1710
1226 1858
1226 2279
1226 2311
1226 3057
1226 3078
1226 3189
1226 3231
1226 3308
1226 3435
1226 3638
1226 3844
1226 4015
1226 4731
1226 4930
1227 1745
1227 2014
1227 2806
1227 3221
1227 3248
1227 3275
1227 3398
1227 3472
1227 3986
1227 4055
1227 4561
1228 1898
1228 2041
1228 2126
1228 2200
1228 2295
1228 2474
1228 2973
1228 3227
1228 3894
1228 4204
1228 4451
1228 4875
1228 4892
1229 1247
1229 1530
1229 1574
1229 2384
1229 2456
1229 2581
1229 2583
1229 2975
1229 3334
1229 3504
1229 3559
1229 3632
1229 3831
1229 4129
1229 4449
1230 1348
1230 1467
1230 1469
1230 1678
1230 1858
1230 1969
1230 2585
1230 3239
1230 3257
1230 3266
1230 3545
1230 3682
1230 3844
1230 4044
1231 1305
1231 1791
1231 1882
1231 1951
1231 1961
1231 1970
1231 2016
1231 2177
1231 2228
1231 2780
1231 2824
1231 2951
1231 3366
1231 3424
1231 3631
1231 3856
1231 3968
1231 4147
1231 4352
1232 1282
1232 1310
1232 1343
1232 1449
1232 2204
1232 2239
1232 2257
1232 2276
1232 2369
1232 2446
1232 2606
1232 3327
1232 3520
1232 3602
1232 3623
1232 4267
1232 4292
1232 4320
1232 4333
1232 4356
1232 4377
1232 4453
1232 4676
1233 1379
1233 1891
1233 1921
1233 2176
1233 2252
1233 2874
1233 3160
1233 3207
1233 3246
1233 3312
1233 3407
1233 3706
1233 3915
1233 4775
1233 4891
1234 1463
1234 1671
1234 2104
1234 2208
1234 2675
1234 2830
1234 2931
1234 3426
1234 3721
1234 4002
1234 4674
1234 4694
1234 4705
1235 1275
1235 1310
1235 1343
1235 1360
1235 1392
1235 1487
1235 1539
1235 1549
1235 2221
1235 2737
1235 3042
1235 3245
1235 3597
1235 3623
1235 3672
1235 4108
1235 4143
1235 4199
1235 4267
1235 4292
1235 4370
1235 4377
1235 4518
1235 4528
1236 1288
1236 1301
1236 1432
1236 1681
1236 1826
1236 1854
1236 1862
1236 2064
1236 2585
1236 2621
1236 2651
1236 2680
1236 2701
1236 2811
1236 2813
1236 2885
1236 2982
1236 2991
1236 3066
1236 3186
1236 3271
1236 3316
1236 3389
1236 3406
1236 3463
1236 3500
1236 3624
1236 3669
1236 4111
1236 4670
1236 4721
1236 4741
1236 4758
1236 4782
1236 4787
1236 4858
1236 4882
1236 4900
1236 4988
1236 4989
1237 1404
1237 1475
1237 1581
1237 1710
1237 1923
1237 2056
1237 2126
1237 2128
1237 2252
1237 2529
1237 2711
1237 2797
1237 2834
1237 3092
1237 3160
1237 3513
1237 4332
1237 4757
1237 4891
1238 1493
1238 1545
1238 1635
1238 1814
1238 1941
1238 1945
1238 2176
1238 2336
1238 2472
1238 2968
1238 2993
1238 3057
1238 3076
1238 3100
1238 3280
1238 3363
1238 3428
1238 3449
1238 3698
1238 3940
1238 4017
1238 4943
1239 1510
1239 1535
1239 1644
1239 2113
1239 2474
1239 3152
1239 3319
1239 4152
1239 4176
1239 4424
1240 1615
1240 1626
1240 1664
1240 1671
1240 2044
1240 2104
1240 2316
1240 2445
1240 2528
1240 2841
1240 3009
1240 3426
1240 3575
1240 3712
1241 1345
1241 1689
1241 1773
1241 2647
1241 2699
1241 2768
1241 3136
1241 3364
1241 3467
1241 3728
1241 4656
1241 4733
1241 4748
1241 4838
1242 1419
1242 2275
1242 2346
1242 2444
1242 2720
1242 2851
1242 2890
1242 3037
1242 3421
1242 3485
1242 3796
1242 3801
1242 4182
1242 4220
1242 4301
1242 4573
1242 4718
1242 4736
1242 4743
1242 4812
1242 4893
1243 1451
1243 2129
1243 2242
1243 2306
1243 2481
1243 2509
1243 2518
1243 2573
1243 2608
1243 2732
1243 3142
1243 3184
1243 3515
1243 3593
1243 3594
1243 3621
1243 4454
1243 4468
1243 4584
1243 4600
1243 4649
1243 4665
1243 4689
1243 4797
1244 1261
1244 1390
1244 1455
1244 1529
1244 1745
1244 1900
1244 2449
1244 2473
1244 2487
1244 2510
1244 2581
1244 2674
1244 2685
1244 2772
1244 2897
1244 2915
1244 3019
1244 3070
1244 3080
1244 3122
1244 3275
1244 3494
1244 3495
1244 3628
1244 3632
1244 3636
1244 3643
1244 3732
1244 3779
1244 4005
1244 4152
1244 4481
1244 4604
1244 4968
1245 1301
1245 1465
1245 1643
1245 1654
1245 1680
1245 1681
1245 1700
1245 1873
1245 2003
1245 2017
1245 2446
1245 2585
1245 2586
1245 2588
1245 2694
1245 2700
1245 2819
1245 2850
1245 2858
1245 2923
1245 3009
1245 3050
1245 3060
1245 3217
1245 3220
1245 3254
1245 3418
1245 3469
1245 3686
1245 3729
1245 3774
1245 3787
1245 3887
1245 3910
1245 4387
1245 4557
1245 4683
1245 4689
1245 4697
1245 4723
1245 4787
1245 4861
1245 4907
1246 1579
1246 1860
1246 1972
1246 2101
1246 2441
1246 2474
1246 2548
1246 3248
1246 3617
1246 3763
1246 3992
1246 4123
1246 4624
1246 4871
1247 1449
1247 1476
1247 1529
1247 1610
1247 1794
1247 1987
1247 2366
1247 2399
1247 2915
1247 3116
1247 3174
1247 3296
1247 3559
1247 3822
1247 3889
1247 3917
1247 4398
1247 4876
1247 4981
1248 1261
1248 1298
1248 1336
1248 1447
1248 1885
1248 2093
1248 2096
1248 2135
1248 2190
1248 2191
1248 2274
1248 2636
1248 2647
1248 2762
1248 3194
1248 3292
1248 3484
1248 3644
1248 3722
1248 3728
1249 1295
1249 1352
1249 1426
1249 1465
1249 1496
1249 1518
1249 1550
1249 1597
1249 1826
1249 1836
1249 2067
1249 2085
1249 2423
1249 2465
1249 2515
1249 2574
1249 2584
1249 2615
1249 2663
1249 2694
1249 2805
1249 3009
1249 3046
1249 3053
1249 3121
1249 3180
1249 3218
1249 3322
1249 3385
1249 3404
1249 3469
1249 3470
1249 3476
1249 3478
1249 3613
1249 3695
1249 3701
1249 3718
1249 3720
1249 3774
1249 3787
1249 3881
1249 3951
1249 3993
1249 4577
1249 4634
1249 4762
1249 4802
1249 4803
1249 4882
1249 4897
1249 4907
1249 4914
1249 4922
1249 4964
1249 4980
1249 4999
1250 2099
1250 2178
1250 2847
1250 3299
1250 3838
1250 3848
1250 4195
1250 4562
1250 4615
1250 4811
1251 1874
1251 2132
1251 2361
1251 2607
1251 2679
1251 3378
1251 3534
1251 3635
1251 3646
1251 3751
1251 3798
1251 4163
1251 4353
1251 4412
1252 1317
1252 1964
1252 2026
1252 2109
1252 2159
1252 2216
1252 2271
1252 3035
1252 3724
1252 3863
1252 4080
1252 4309
1252 4315
1252 4506
1252 4633
1253 1457
1253 1467
1253 1605
1253 1635
1253 1695
1253 1705
1253 1706
1253 1707
1253 1814
1253 1932
1253 1937
1253 2261
1253 2558
1253 2710
1253 2978
1253 3435
1253 3449
1253 3477
1253 3486
1253 3663
1253 3824
1253 3861
1253 3940
1253 4010
1253 4039
1253 4299
1253 4350
1253 4720
1253 4930
1254 2070
1254 2161
1254 2258
1254 2562
1254 2708
1254 2722
1254 3105
1254 3671
1254 4345
1254 4386
1254 4724
1254 4779
1255 1288
1255 2193
1255 2312
1255 2391
1255 2582
1255 2899
1255 3089
1255 3440
1255 4071
1255 4077
1255 4210
1255 4412
1255 4477
1255 4483
1255 4736
1256 1269
1256 1330
1256 2061
1256 2199
1256 2221
1256 2276
1256 2301
1256 2402
1256 2469
1256 3520
1256 4148
1256 4377
1256 4521
1256 4688
1256 4703
1257 1619
1257 1878
1257 1908
1257 2049
1257 2205
1257 3599
1257 3867
1257 3898
1257 4058
1257 4094
1257 4199
1257 4381
1258 1566
1258 1595
1258 1905
1258 2153
1258 2358
1258 2521
1258 2733
1258 2822
1258 2945
1258 2991
1258 3049
1258 3547
1259 1615
1259 1929
1259 2164
1259 4167
1259 4674
1259 4675
1259 4690
1259 4780
1260 1346
1260 1378
1260 1522
1260 2065
1260 2111
1260 2166
1260 2436
1260 2637
1260 2886
1260 3408
1260 4708
1260 4813
1261 1298
1261 1336
1261 1711
1261 1917
1261 2135
1261 2558
1261 2647
1261 2736
1261 2762
1261 2768
1261 2889
1261 3136
1261 3153
1261 3194
1261 3292
1261 3364
1261 3467
1261 3644
1261 3722
1261 4135
1261 4414
1261 4456
1261 4656
1261 4748
1262 1306
1262 1363
1262 1437
1262 1711
1262 1730
1262 1757
1262 2194
1262 2472
1262 2710
1262 2858
1262 2873
1262 3151
1262 3343
1262 3458
1262 3513
1262 3638
1262 3717
1262 3758
1262 3844
1262 3928
1262 3965
1262 4056
1262 4070
1262 4159
1262 4282
1262 4288
1262 4349
1262 4410
1262 4417
1262 4553
1262 4612
1262 4933
1263 1266
1263 1309
1263 1540
1263 1857
1263 1896
1263 1902
1263 1949
1263 2181
1263 2673
1263 2752
1263 2831
1263 3110
1263 3184
1263 3193
1263 3320
1263 3393
1263 3513
1263 3521
1263 3567
1263 3915
1263 3925
1263 3929
1263 3962
1263 4007
1263 4008
1263 4040
1263 4074
1264 1349
1264 1838
1264 2108
1264 2161
1264 2376
1264 2578
1264 2782
1264 2989
1264 3199
1264 3306
1264 3707
1264 3736
1264 4061
1264 4345
1264 4723
1264 4861
1265 1297
1265 1551
1265 2331
1265 2536
1265 2590
1265 2632
1265 3868
1265 4277
1265 4583
1265 4591
1265 4647
1266 1370
1266 1380
1266 1409
1266 2126
1266 2181
1266 2678
1266 2867
1266 3104
1266 3110
1266 3125
1266 3181
1266 3513
1266 3514
1266 3529
1266 3556
1266 3683
1266 3773
1266 3900
1266 4813
1266 4917
1267 1344
1267 1608
1267 1625
1267 2421
1267 2530
1267 2575
1267 2616
1267 2863
1267 2878
1267 3021
1267 3174
1267 3336
1267 3475
1267 3530
1267 3632
1267 3889
1267 3955
1267 4000
1267 4402
1267 4497
1267 4648
1267 4817
1267 4842
1268 1700
1268 2790
1268 3110
1268 3426
1268 3524
1268 3565
1268 3590
1268 4296
1268 4603
1269 1275
1269 1312
1269 1343
1269 1392
1269 1410
1269 1439
1269 1487
1269 1520
1269 2085
1269 2221
1269 2324
1269 2328
1269 2359
1269 2369
1269 2446
1269 2606
1269 2735
1269 2792
1269 3088
1269 3236
1269 3302
1269 3325
1269 3400
1269 3444
1269 3520
1269 3643
1269 3671
1269 4333
1269 4370
1269 4377
1269 4406
1269 4528
1269 4746
1269 4934
1270 2438
1270 2480
1270 2529
1270 2875
1270 2975
1270 2981
1270 3248
1270 3273
1270 3443
1270 3571
1270 3664
1270 3768
1270 3995
1271 1285
1271 2249
1271 2519
1271 2846
1271 3421
1271 4293
1271 4330
1271 4342
1272 1386
1272 2255
1272 2403
1272 2418
1272 2442
1272 2583
1272 3433
1272 3587
1272 4071
1272 4220
1272 4255
1273 1306
1273 1679
1273 1680
1273 2270
1273 2300
1273 2977
1273 2998
1273 3227
1273 3929
1273 4018
1273 4096
1273 4394
1273 4954
1274 1713
1274 2264
1274 3177
1274 3249
1274 3862
1274 4204
1274 4340
1274 4348
1274 4451
1274 4680
1274 4793
1274 4875
1275 1312
1275 2260
1275 2276
1275 2359
1275 2539
1275 2605
1275 2610
1275 3236
1275 4262
1275 4320
1275 4377
1275 4453
1275 4893
1276 1564
1276 1936
1276 1981
1276 2000
1276 2021
1276 2097
1276 2282
1276 3024
1276 3396
1276 4113
1276 4319
1276 4401
1276 4785
1276 4974
1277 1558
1277 1744
1277 1755
1277 2217
1277 2411
1277 2444
1277 3245
1277 3508
1277 4182
1277 4301
1277 4619
1277 4775
1277 4783
1278 1285
1278 1491
1278 1606
1278 2208
1278 2375
1278 2607
1278 2705
1278 3558
1278 3723
1278 4342
1278 4653
1279 1353
1279 1559
1279 1693
1279 2077
1279 2120
1279 2211
1279 2411
1279 2679
1279 3077
1279 3416
1279 3534
1279 3723
1279 4101
1279 4310
1279 4513
1279 4719
1279 4805
1279 4931
1280 1614
1280 1628
1280 1749
1280 1771
1280 1884
1280 2209
1280 2715
1280 2885
1280 2991
1280 3121
1280 3145
1280 3163
1280 3180
1280 3613
1280 3695
1280 3951
1280 4878
1280 4889
1281 1470
1281 1575
1281 1604
1281 2329
1281 2467
1281 3277
1281 4053
1281 4256
1281 4278
1281 4305
1281 4617
1281 4774
1282 1543
1282 1614
1282 2085
1282 2204
1282 2244
1282 2359
1282 2446
1282 2539
1282 2605
1282 3089
1282 3154
1282 3176
1282 3444
1282 3454
1282 3637
1282 3870
1282 4267
1282 4320
1282 4333
1282 4356
1282 4377
1282 4464
1282 4663
1282 4848
1283 1685
1283 2271
1283 2278
1283 2412
1283 2794
1283 2909
1283 3007
1283 3220
1283 3226
1283 3367
1283 3417
1283 3673
1283 4006
1283 4080
1283 4130
1283 4251
1283 4353
1283 4633
1283 4786
1284 1674
1284 1841
1284 2069
1284 2080
1284 2194
1284 2427
1284 2530
1284 2589
1284 2666
1284 2822
1284 2865
1284 3058
1284 3222
1284 4099
1284 4175
1284 4356
1284 4839
1284 4887
1284 4972
1285 1479
1285 1697
1285 1754
1285 2346
1285 2450
1285 2516
1285 2758
1285 2985
1285 3112
1285 3173
1285 3337
1285 3506
1285 3665
1285 4078
1285 4156
1285 4158
1285 4214
1285 4216
1285 4330
1285 4331
1285 4334
1285 4444
1285 4500
1285 4569
1285 4617
1285 4725
1286 1381
1286 1514
1286 1581
1286 1651
1286 1923
1286 2035
1286 2684
1286 2844
1286 2855
1286 2974
1286 3209
1286 3373
1286 3581
1286 3870
1286 4126
1287 1341
1287 1354
1287 1440
1287 1459
1287 1935
1287 2308
1287 2563
1287 2861
1287 3240
1287 3353
1287 3611
1287 3797
1287 3943
1287 3979
1287 4133
1287 4158
1287 4783
1288 1315
1288 1546
1288 1567
1288 2099
1288 2106
1288 2178
1288 2236
1288 2253
1288 2286
1288 2343
1288 2414
1288 2603
1288 2847
1288 3006
1288 3139
1288 3299
1288 3339
1288 3362
1288 3553
1288 4048
1288 4136
1288 4180
1288 4195
1288 4384
1288 4546
1288 4560
1288 4562
1288 4597
1288 4615
1288 4673
1288 4681
1288 4698
1288 4811
1289 1372
1289 1401
1289 1574
1289 1745
1289 2499
1289 2772
1289 2806
1289 2887
1289 3048
1289 3334
1289 3445
1289 4129
1290 1615
1290 1626
1290 1636
1290 1685
1290 1805
1290 2104
1290 2235
1290 2243
1290 2291
1290 2312
1290 2550
1290 2830
1290 3140
1290 3583
1290 3651
1290 3953
1290 4150
1290 4167
1290 4261
1290 4674
1290 4675
1290 4705
1291 1448
1291 1716
1291 1812
1291 2609
1291 2969
1291 3376
1291 3489
1291 3571
1291 3868
1291 4029
1291 4077
1291 4134
1291 4314
1291 4431
1291 4834
1291 4841
1291 4868
1291 4950
1292 1355
1292 1720
1292 1788
1292 1790
1292 1802
1292 1871
1292 1879
1292 1893
1292 1903
1292 1996
1292 2012
1292 2047
1292 2086
1292 2100
1292 2184
1292 2212
1292 2236
1292 2265
1292 2318
1292 2390
1292 2401
1292 2466
1292 2760
1292 2800
1292 2836
1292 2882
1292 2895
1292 2940
1292 3003
1292 3084
1292 3118
1292 3289
1292 3293
1292 3329
1292 3415
1292 3471
1292 3652
1292 3766
1292 3891
1292 3896
1292 3899
1292 3972
1292 3975
1292 4019
1292 4132
1292 4254
1292 4264
1292 4577
1292 4824
1292 4863
1292 4993
1293 1437
1293 2460
1293 2652
1293 2876
1293 3248
1293 3466
1293 3557
1293 3559
1293 3917
1293 4402
1293 4461
1293 4639
1294 2021
1294 2067
1294 2534
1294 2637
1294 2694
1294 2715
1294 2829
1294 3060
1294 3855
1294 4025
1294 4557
1294 4713
1295 1308
1295 1606
1295 1662
1295 1691
1295 2034
1295 2579
1295 2610
1295 2715
1295 2813
1295 2991
1295 3060
1295 3404
1295 3761
1295 3855
1295 3910
1295 3918
1295 4298
1295 4886
1296 1489
1296 1766
1296 1840
1296 1990
1296 2086
1296 2198
1296 2323
1296 2335
1296 2485
1296 2882
1296 2926
1296 2962
1296 2999
1296 3149
1296 3172
1296 3251
1296 3289
1296 3751
1296 3818
1296 3903
1296 4236
1296 4526
1296 4613
1296 4861
1296 4862
1297 1366
1297 1551
1297 1776
1297 2331
1297 2363
1297 2517
1297 2591
1297 2632
1297 3290
1297 3331
1297 3842
1297 4583
1297 4591
1298 2647
1298 2736
1298 3722
1298 4168
1298 4295
1298 4329
1299 1449
1299 1618
1299 1899
1299 2249
1299 2812
1299 2887
1299 2990
1299 3358
1299 4095
1299 4521
1299 4592
1300 1737
1300 1819
1300 2000
1300 2116
1300 3025
1300 3096
1300 3749
1300 3811
1300 3829
1300 4715
1300 4755
1300 4813
1301 1674
1301 1787
1301 2386
1301 2584
1301 2694
1301 3217
1301 3271
1301 3550
1301 3918
1301 4636
1301 4870
1302 1405
1302 2060
1302 2109
1302 2121
1302 2271
1302 2448
1302 2502
1302 2532
1302 3192
1302 3625
1302 4122
1302 4181
1302 4247
1302 4627
1302 4849
1303 1617
1303 1952
1303 2923
1303 3047
1303 3272
1303 3313
1303 3342
1303 4068
1303 4263
1303 4319
1304 1597
1304 2615
1304 2623
1304 3011
1304 3025
1304 3046
1304 3094
1304 3254
1304 3733
1304 4387
1304 4762
1304 4904
1305 1769
1305 1822
1305 2435
1305 2812
1305 3151
1305 3599
1305 3801
1305 3876
1305 3882
1305 4097
1305 4576
1305 4664
1306 1364
1306 1410
1306 1844
1306 1866
1306 1948
1306 1993
1306 2006
1306 2062
1306 2300
1306 2320
1306 2367
1306 2374
1306 2562
1306 2713
1306 2783
1306 2817
1306 2857
1306 2866
1306 2871
1306 2889
1306 2908
1306 2929
1306 2972
1306 2980
1306 2996
1306 3002
1306 3032
1306 3044
1306 3090
1306 3102
1306 3103
1306 3119
1306 3124
1306 3133
1306 3227
1306 3250
1306 3355
1306 3372
1306 3548
1306 3675
1306 3800
1306 3832
1306 3938
1306 3982
1306 4009
1306 4011
1306 4075
1306 4103
1306 4137
1306 4165
1306 4203
1306 4357
1306 4637
1306 4653
1306 4822
1306 4832
1306 4833
1306 4843
1306 4851
1306 4854
1306 4903
1306 4919
1306 4925
1306 4958
1307 1796
1307 1820
1307 1993
1307 2759
1307 2767
1307 2866
1307 3119
1307 3133
1307 3711
1307 4069
1308 1465
1308 1674
1308 1721
1308 1850
1308 2003
1308 2013
1308 2402
1308 2585
1308 2813
1308 2982
1308 3066
1308 3221
1308 3569
1308 3776
1308 3951
1308 4135
1308 4567
1308 4684
1308 4782
1308 4855
1308 4897
1309 1957
1309 2126
1309 2855
1309 3075
1309 3110
1309 3125
1309 3328
1309 3749
1309 3852
1309 4263
1309 4720
1309 4755
1310 1632
1310 2292
1310 2349
1310 2435
1310 3312
1310 3369
1310 3937
1310 4377
1310 4530
1311 1834
1311 2345
1311 2648
1311 2916
1311 3429
1311 3471
1311 3482
1311 3591
1311 3740
1311 3946
1311 4369
1311 4372
1311 4514
1311 4646
1311 4754
1312 1487
1312 2061
1312 2204
1312 2260
1312 2276
1312 2359
1312 2380
1312 2698
1312 2779
1312 3157
1312 3302
1312 3444
1312 4320
1312 4377
1312 4530
1312 4688
1313 1604
1313 1609
1313 2162
1313 2197
1313 2545
1313 2948
1313 3734
1313 3840
1313 4240
1313 4271
1313 4364
1313 4436
1313 4590
1313 4774
1314 1594
1314 1787
1314 1798
1314 1971
1314 2311
1314 3106
1314 3159
1314 3758
1314 4013
1314 4015
1314 4035
1314 4265
1314 4933
1315 1546
1315 2050
1315 2099
1315 2106
1315 2178
1315 2494
1315 2552
1315 3024
1315 3321
1315 4384
1315 4560
1315 4562
1315 4615
1315 4681
1315 4811
1316 1967
1316 2117
1316 2307
1316 2524
1316 3110
1316 3465
1316 3756
1316 4101
1316 4378
1316 4788
1316 4843
1316 4866
1317 1506
1317 1967
1317 2241
1317 2307
1317 2524
1317 2548
1317 3082
1317 3465
1317 3957
1317 4060
1317 4104
1317 4317
1317 4378
1317 4662
1317 4866
1318 1362
1318 2087
1318 2125
1318 2344
1318 2416
1318 2705
1318 3170
1318 3249
1318 4228
1318 4232
1318 4474
1318 4746
1318 4761
1319 1545
1319 1735
1319 1798
1319 1853
1319 1872
1319 2246
1319 2283
1319 2311
1319 2507
1319 2916
1319 3141
1319 3171
1319 3189
1319 3274
1319 3476
1319 3533
1319 3663
1319 3928
1319 3965
1319 4288
1319 4313
1320 2536
1320 2632
1320 3033
1320 3331
1320 3601
1320 4138
1320 4366
1320 4647
1320 4845
1320 4896
1321 1344
1321 1523
1321 1529
1321 1610
1321 1794
1321 1904
1321 2372
1321 2581
1321 3070
1321 3494
1321 3732
1321 3792
1321 3878
1321 4462
1321 4876
1321 4939
1322 2174
1322 2305
1322 2324
1322 2970
1322 3281
1322 3377
1322 3722
1322 3786
1322 3934
1322 4280
1322 4310
1322 4342
1322 4376
1322 4412
1322 4569
1322 4847
1323 1915
1323 2048
1323 2053
1323 2058
1323 2241
1323 2491
1323 2525
1323 2788
1323 2790
1323 2825
1323 3232
1323 3401
1323 3524
1323 3565
1323 3824
1323 4061
1323 4308
1323 4976
1324 1411
1324 2263
1324 2531
1324 2558
1324 2892
1324 2906
1324 2916
1324 2927
1324 2937
1324 3345
1324 3545
1324 3784
1324 3957
1324 4010
1324 4070
1324 4180
1324 4282
1325 1635
1325 1701
1325 1725
1325 1730
1325 1941
1325 1945
1325 2365
1325 2750
1325 3202
1325 3288
1325 4265
1325 4288
1325 4321
1325 4508
1326 1658
1326 1927
1326 1995
1326 2018
1326 2293
1326 2305
1326 2375
1326 2432
1326 2519
1326 2720
1326 2728
1326 2964
1326 3077
1326 3254
1326 3264
1326 3421
1326 3503
1326 3534
1326 3563
1326 3568
1326 3570
1326 3688
1326 3764
1326 3779
1326 4163
1326 4174
1326 4214
1326 4354
1326 4356
1326 4407
1326 4593
1326 4618
1326 4710
1326 4812
1326 4860
1326 4925
1327 2181
1327 2354
1327 2716
1327 2878
1327 3160
1327 3456
1327 3620
1327 3712
1327 3997
1327 4332
1327 4720
1327 4775
1327 4969
1328 1495
1328 1537
1328 1538
1328 1624
1328 1668
1328 2175
1328 2953
1328 3012
1328 4021
1328 4111
1328 4230
1328 4416
1328 4421
1328 4503
1328 4735
1329 1922
1329 2144
1329 2417
1329 2955
1329 3124
1329 3137
1329 3427
1329 3747
1329 4397
1329 4399
1329 4905
1329 4923
1330 1359
1330 1392
1330 1520
1330 2085
1330 2349
1330 2359
1330 2369
1330 2446
1330 2671
1330 3400
1330 3602
1330 4256
1330 4320
1330 4377
1330 4453
1331 2787
1331 3045
1331 3137
1331 3336
1331 3460
1331 4447
1331 4981
1332 1983
1332 2063
1332 2210
1332 2565
1332 2629
1332 3722
1332 3941
1332 4102
1332 4159
1332 4250
1332 4322
1332 4449
1333 1394
1333 1440
1333 1456
1333 1697
1333 2208
1333 2444
1333 2607
1333 2765
1333 2928
1333 3264
1333 3281
1333 3452
1333 3558
1333 3689
1333 3807
1333 3822
1333 4033
1333 4327
1333 4330
1333 4457
1333 4608
1333 4744
1333 4998
1334 1817
1334 1919
1334 1933
1334 2452
1334 2719
1334 2730
1334 3214
1334 3431
1334 3513
1334 3620
1334 4775
1335 1403
1335 1433
1335 1538
1335 1616
1335 1668
1335 1981
1335 2175
1335 2429
1335 2739
1335 3091
1335 3382
1335 4149
1335 4503
1336 1773
1336 1885
1336 1901
1336 2093
1336 2647
1336 2669
1336 2984
1336 3167
1336 3292
1336 3467
1336 3550
1336 4078
1336 4168
1336 4748
1336 4790
1337 1350
1337 1382
1337 1409
1337 1957
1337 2126
1337 2176
1337 2716
1337 2848
1337 2893
1337 2921
1337 3155
1337 3181
1337 3200
1337 3348
1337 3436
1337 3456
1337 3514
1337 3610
1337 3634
1337 3650
1337 3943
1337 4043
1338 1420
1338 1832
1338 2443
1338 2575
1338 2581
1338 3221
1338 3296
1338 3580
1338 3656
1338 3786
1338 3843
1338 3927
1339 1387
1339 1473
1339 1670
1339 1902
1339 2241
1339 2672
1339 3086
1339 3110
1339 3160
1339 3190
1339 3214
1339 3219
1339 3513
1339 3528
1339 3609
1339 3650
1339 4751
1339 4920
1340 1723
1340 1888
1340 2688
1340 3418
1340 3463
1340 3472
1340 4169
1340 4196
1340 4375
1340 4398
1340 4742
1341 1440
1341 1459
1341 1537
1341 1586
1341 1935
1341 2845
1341 3099
1341 3353
1341 3388
1341 3611
1341 4133
1341 4499
1342 1798
1342 2699
1342 2877
1342 2906
1342 3013
1342 3100
1342 3239
1342 3280
1342 3431
1342 3435
1342 3458
1342 3758
1342 3922
1342 4321
1342 4523
1343 1359
1343 1614
1343 2239
1343 2259
1343 2260
1343 2349
1343 2398
1343 2446
1343 2592
1343 2596
1343 2606
1343 3312
1343 3444
1343 4518
1343 4621
1343 4709
1344 1529
1344 1784
1344 1807
1344 2043
1344 2488
1344 2550
1344 2674
1344 2812
1344 3298
1344 3864
1344 4331
1344 4402
1344 4672
1345 1426
1345 1432
1345 1550
1345 1606
1345 1854
1345 3497
1345 3855
1345 4634
1345 4989
1346 1389
1346 1522
1346 1802
1346 1924
1346 2111
1346 2166
1346 2294
1346 2303
1346 2446
1346 2886
1346 3425
1346 3690
1346 3768
1346 3945
1347 1350
1347 1381
1347 1892
1347 1957
1347 1991
1347 2092
1347 2176
1347 2252
1347 2719
1347 2727
1347 2839
1347 3015
1347 3155
1347 3200
1347 3214
1347 3360
1347 3368
1347 3411
1347 3432
1347 3496
1347 3514
1347 3803
1347 3900
1347 3943
1347 4054
1347 4128
1347 4455
1347 4714
1347 4775
1347 4837
1347 4891
1347 4951
1347 4982
1348 1375
1348 1739
1348 1814
1348 1937
1348 2634
1348 2699
1348 3059
1348 3166
1348 3345
1348 3861
1348 4115
1348 4288
1348 4531
1348 4991
1349 2161
1349 2199
1349 2227
1349 2258
1349 2319
1349 2586
1349 2695
1349 3237
1349 3498
1349 3775
1349 4730
1349 4880
1350 1581
1350 1687
1350 1698
1350 2742
1350 2761
1350 3496
1350 3662
1350 4564
1350 4769
1350 4775
1350 4786
1351 1362
1351 1377
1351 2125
1351 2187
1351 2255
1351 2471
1351 2646
1351 2685
1351 3168
1351 3225
1351 3451
1351 3673
1351 4480
1351 4668
1351 4761
1352 1679
1352 2032
1352 2809
1352 3060
1352 3186
1352 3386
1352 3399
1352 3557
1352 3655
1352 3759
1352 3819
1352 3823
1352 3859
1352 3929
1352 4051
1352 4081
1352 4762
1352 4815
1352 4989
1353 1907
1353 2318
1353 2500
1353 2819
1353 2882
1353 2940
1353 3043
1353 3149
1353 3771
1353 3818
1353 4380
1353 4507
1354 2014
1354 2449
1354 2624
1354 2772
1354 2812
1354 2816
1354 3034
1354 3156
1354 3398
1354 3504
1354 3559
1354 3877
1354 4347
1355 1489
1355 1744
1355 1832
1355 2100
1355 2546
1355 2694
1355 4264
1355 4409
1355 4791
1355 4836
1355 4861
1355 4987
1355 4993
1356 1424
1356 1545
1356 1971
1356 2419
1356 2916
1356 3057
1356 3730
1356 4371
1356 4384
1356 4511
1356 4789
1356 4933
1357 1379
1357 2066
1357 2072
1357 2118
1357 2143
1357 2297
1357 2352
1357 2560
1357 2616
1357 2629
1357 3022
1357 3120
1357 3165
1358 1750
1358 2080
1358 2095
1358 2272
1358 2466
1358 2490
1358 2551
1358 2589
1358 2959
1358 3058
1358 3088
1358 3647
1358 3716
1358 3828
1358 4099
1358 4838
1359 1718
1359 2085
1359 2257
1359 2260
1359 2328
1359 2359
1359 2361
1359 2446
1359 2761
1360 1410
1360 1443
1360 2259
1360 2260
1360 2301
1360 2349
1360 2735
1360 3307
1360 3325
1360 3454
1360 3520
1360 3568
1360 3939
1360 4404
1360 4435
1360 4676
1361 1713
1361 1909
1361 2394
1361 2429
1361 2508
1361 3055
1361 3379
1361 3510
1361 4111
1361 4230
1361 4416
1361 4426
1361 4503
1361 4620
1361 4981
1362 1391
1362 1612
1362 1620
1362 2087
1362 2093
1362 2125
1362 2416
1362 2423
1362 2471
1362 2705
1362 3168
1362 4232
1362 4311
1362 4474
1362 4480
1362 4519
1362 4746
1363 1493
1363 1655
1363 1657
1363 1701
1363 1722
1363 1917
1363 2472
1363 2910
1363 3287
1363 3989
1363 4120
1363 4164
1363 4265
1363 4321
1363 4529
1364 1844
1364 1866
1364 1975
1364 2929
1364 3016
1364 3334
1364 3371
1364 3548
1364 3799
1364 3924
1364 3938
1364 3977
1364 4009
1364 4085
1364 4137
1364 4621
1364 4854
1364 4944
1365 1428
1365 1466
1365 2087
1365 2581
1365 2772
1365 3098
1365 3336
1365 3445
1365 3540
1365 3877
1365 4402
1366 2325
1366 2363
1366 2590
1366 2632
1366 3033
1366 3331
1366 3333
1366 4343
1366 4591
1366 4647
1366 4728
1366 4896
1367 1591
1367 1974
1367 3097
1367 3129
1367 3286
1367 3445
1367 3530
1367 3927
1367 4604
1367 4891
1367 4915
1367 4996
1368 1804
1368 2127
1368 2291
1368 2382
1368 3124
1368 3758
1368 3985
1368 4143
1369 1518
1369 1824
1369 2010
1369 2067
1369 2579
1369 2701
1369 2850
1369 3418
1369 3469
1369 3709
1369 3723
1369 4557
1369 4858
1369 4906
1370 2176
1370 2741
1370 3373
1370 3803
1370 3811
1370 3915
1370 3962
1370 4008
1370 4205
1370 4426
1370 4675
1370 4867
1371 1403
1371 2226
1371 3012
1371 3379
1371 3388
1371 3441
1371 4098
1371 4111
1371 4185
1371 4416
1371 4842
1372 1420
1372 2581
1372 2602
1372 2617
1372 2633
1372 2652
1372 2887
1372 3107
1372 3235
1372 3710
1372 4078
1372 4099
1372 4116
1372 4443
1372 4599
1372 4672
1372 4781
1372 4934
1373 2438
1373 2480
1373 2488
1373 2662
1373 2806
1373 2816
1373 3138
1373 3169
1373 3248
1373 3398
1373 3430
1373 3877
1373 4039
1373 4752
1373 4927
1374 1628
1374 1754
1374 1755
1374 2091
1374 2409
1374 2655
1374 2742
1374 2794
1374 2937
1374 3175
1374 3421
1374 4138
1374 4146
1374 4618
1374 4682
1374 4836
1375 1545
1375 1707
1375 1789
1375 1798
1375 1942
1375 2168
1375 2261
1375 2463
1375 2531
1375 2533
1375 2699
1375 2877
1375 2968
1375 3151
1375 3201
1375 3266
1375 3734
1375 3784
1375 3853
1375 3866
1375 3906
1375 3922
1375 4313
1375 4328
1375 4368
1375 4511
1375 4899
1375 4942
1376 1744
1376 2293
1376 2305
1376 2607
1376 2840
1376 3095
1376 3416
1376 4033
1376 4330
1376 4412
1376 4583
1377 1391
1377 1472
1377 1584
1377 1585
1377 1612
1377 2087
1377 2344
1377 2362
1377 2471
1377 2685
1377 3135
1377 3155
1377 3168
1377 4232
1377 4311
1377 4408
1377 4474
1377 4519
1377 4668
1378 1389
1378 2111
1378 2166
1378 2303
1378 2759
1378 2886
1378 3425
1378 3519
1378 3690
1378 3945
1379 1515
1379 1950
1379 2055
1379 2143
1379 2172
1379 2189
1379 2297
1379 2601
1379 2627
1379 2923
1379 2947
1379 3037
1379 3101
1379 3165
1379 3233
1379 3272
1379 3313
1379 3364
1379 3396
1379 3788
1379 4026
1379 4068
1379 4102
1379 4107
1379 4113
1379 4127
1379 4294
1379 4326
1379 4401
1379 4466
1379 4538
1379 4564
1379 4594
1379 4967
1379 4979
1379 4990
1380 2631
1380 2678
1380 2684
1380 3029
1380 3092
1380 3328
1380 3373
1380 4769
1380 4982
1381 1408
1381 1473
1381 1726
1381 1889
1381 1957
1381 2176
1381 2684
1381 2761
1381 2855
1381 3075
1381 3096
1381 3110
1381 3160
1381 3303
1381 3407
1381 3446
1381 3484
1381 3513
1381 3514
1381 3525
1381 3650
1381 3662
1381 3674
1381 3679
1381 3712
1381 3811
1381 3865
1381 3884
1381 3997
1381 4006
1381 4680
1382 1535
1382 1855
1382 1876
1382 2049
1382 2126
1382 2149
1382 2252
1382 3026
1382 3155
1382 3219
1382 3246
1382 3320
1382 3360
1382 3592
1382 3650
1382 3904
1382 3943
1382 4332
1382 4846
1382 4880
1382 4917
1382 4953
1383 1387
1383 2403
1383 2418
1383 3433
1383 3841
1383 4220
1383 4222
1383 4486
1384 2689
1384 2862
1384 3127
1384 3378
1384 3807
1384 3926
1384 4163
1384 4341
1384 4710
1385 1431
1385 1473
1385 1654
1385 2098
1385 2209
1385 2386
1385 2637
1385 2811
1385 2991
1385 3217
1385 3478
1385 3823
1385 4925
1386 1497
1386 2181
1386 2252
1386 2924
1386 3092
1386 3110
1386 3209
1386 3267
1386 3308
1386 3368
1386 3610
1386 3639
1386 3870
1386 4332
1387 1473
1387 1601
1387 2354
1387 2784
1387 3514
1387 3610
1387 4827
1387 4891
1388 1777
1388 2069
1388 2080
1388 2180
1388 2272
1388 2551
1388 2690
1388 3088
1388 3614
1388 4175
1388 4182
1388 4671
1388 4839
1389 1924
1389 2065
1389 4708
1390 1529
1390 2575
1390 2602
1390 2816
1390 3559
1390 3632
1390 3994
1390 4470
1390 4554
1390 4616
1391 1620
1391 2087
1391 2125
1391 2145
1391 2336
1391 2416
1391 2471
1391 2705
1391 3297
1391 3451
1391 4232
1391 4441
1391 4748
1392 1443
1392 2204
1392 2359
1392 2361
1392 2492
1392 3265
1392 4303
1392 4377
1392 4820
1393 2209
1393 2272
1393 2534
1393 3011
1393 3060
1393 3386
1393 3836
1393 3851
1393 4567
1394 1494
1394 1634
1394 1781
1394 1851
1394 2100
1394 2758
1394 3828
1394 4138
1394 4182
1394 4391
1394 4498
1394 4602
1394 4865
1395 1797
1395 1903
1395 2314
1395 2703
1395 4287
1395 4451
1395 4512
1395 4848
1396 1650
1396 1799
1396 1969
1396 2311
1396 2521
1396 3202
1396 3545
1396 3861
1396 3897
1396 3928
1396 4265
1396 4553
1397 1604
1397 2937
1397 2978
1397 3363
1397 3588
1397 3682
1397 3698
1397 4288
1397 4942
1397 4991
1398 1621
1398 1794
1398 2684
1398 2806
1398 2923
1398 3019
1398 4423
1398 4601
1398 4643
1398 4719
1398 4817
1399 1618
1399 1806
1399 2602
1399 2624
1399 4497
1399 4561
1399 4616
1399 4696
1399 4842
1400 1411
1400 1460
1400 1774
1400 2444
1400 2655
1400 2890
1400 3822
1400 4014
1400 4101
1400 4139
1400 4354
1400 4413
1400 4736
1401 1958
1401 1974
1401 1997
1401 2259
1401 2452
1401 2480
1401 2529
1401 2633
1401 2806
1401 2816
1401 3298
1401 3494
1401 3535
1401 3559
1401 3632
1401 3877
1401 4055
1401 4443
1401 4449
1401 4661
1401 4804
1401 4876
1401 4921
1402 1528
1402 1914
1402 2115
1402 2134
1402 2214
1402 2381
1402 2419
1402 2641
1402 2692
1402 2917
1402 3188
1402 3370
1402 3562
1402 3849
1402 4151
1402 4717
1402 4800
1402 4888
1403 1616
1403 1624
1403 1909
1403 2141
1403 2429
1403 2664
1403 2740
1403 3441
1403 3904
1403 4111
1403 4187
1404 1663
1404 1699
1404 1833
1404 1892
1404 2149
1404 2252
1404 2351
1404 2730
1404 2844
1404 3452
1404 3529
1404 3962
1404 4064
1404 4217
1404 4564
1404 4676
1404 4775
1404 4810
1405 1661
1405 2008
1405 2109
1405 2160
1405 2271
1405 2348
1405 2909
1405 3020
1405 3299
1405 3589
1405 4154
1405 4206
1405 4503
1405 4603
1405 4895
1406 2189
1406 2206
1406 2210
1406 2276
1406 2282
1406 2963
1406 3165
1406 4102
1406 4325
1406 4984
1407 2991
1407 3218
1407 3540
1407 3645
1407 3918
1407 4016
1407 4198
1407 4284
1407 4387
1407 4504
1407 4557
1407 4598
1407 4722
1407 4782
1407 4858
1408 1624
1408 2171
1408 2175
1408 2394
1408 2429
1408 2953
1408 3382
1408 3807
1408 4185
1408 4226
1408 4638
1409 1562
1409 1754
1409 1871
1409 1889
1409 2277
1409 2662
1409 2672
1409 2719
1409 3017
1409 3056
1409 3155
1409 3214
1409 3267
1409 3620
1409 3954
1409 3997
1409 4332
1409 4671
1409 4837
1410 1539
1410 2085
1410 2239
1410 2260
1410 2446
1410 3369
1410 3454
1410 3520
1410 3862
1410 4356
1410 4370
1410 4528
1411 1701
1411 2311
1411 2699
1411 2937
1411 2961
1411 3461
1411 3539
1411 3663
1411 3698
1411 3742
1411 3861
1411 3897
1411 3922
1411 4288
1411 4455
1411 4924
1412 1644
1412 2109
1412 2474
1412 2743
1412 3152
1412 3253
1412 3398
1412 4152
1412 4190
1412 4614
1412 4624
1413 1638
1413 1695
1413 1908
1413 2477
1413 2593
1413 3391
1413 3744
1413 4307
1413 4492
1414 1663
1414 1699
1414 1804
1414 1892
1414 1930
1414 1957
1414 2116
1414 2656
1414 2719
1414 2743
1414 2778
1414 3110
1414 3160
1414 3279
1414 3320
1414 3634
1414 3641
1414 3972
1414 4042
1414 4751
1415 1445
1415 2313
1415 2426
1415 2477
1415 2569
1415 2593
1415 4232
1415 4307
1415 4740
1416 1581
1416 1880
1416 2719
1416 2724
1416 2743
1416 2831
1416 2848
1416 3630
1416 4891
1416 4961
1417 2090
1417 2402
1417 2586
1417 2757
1417 3163
1417 3823
1417 4061
1417 4557
1417 4809
1417 4882
1417 4906
1417 4914
1418 1444
1418 1502
1418 2133
1418 2136
1418 2173
1418 2233
1418 2668
1418 2958
1418 3738
1418 4434
1418 4469
1418 4504
1418 4737
1418 4955
1419 1604
1419 1696
1419 1999
1419 2002
1419 2277
1419 2554
1419 2740
1419 2885
1419 3307
1419 3624
1419 3816
1419 4758
1419 4765
1419 4795
1419 4980
1420 2598
1420 2878
1420 3019
1420 3212
1420 3398
1420 3636
1420 3930
1420 4138
1420 4425
1420 4485
1420 4592
1420 4616
1421 1437
1421 1545
1421 1617
1421 1748
1421 1872
1421 1970
1421 2472
1421 2499
1421 2873
1421 2935
1421 3387
1421 3504
1421 3533
1421 3973
1421 4585
1421 4924
1421 4933
1421 4975
1422 1807
1422 2377
1422 2898
1422 3488
1422 4393
1422 4402
1422 4443
1422 4679
1422 4796
1423 1733
1423 2488
1423 2674
1423 2898
1423 2990
1423 3215
1423 3228
1423 3483
1423 3557
1423 3664
1423 4246
1423 4396
1423 4423
1423 4660
1423 4934
1424 1589
1424 1686
1424 1735
1424 2032
1424 2499
1424 2606
1424 3363
1424 3419
1424 3715
1424 4288
1424 4946
1425 1589
1425 1650
1425 1799
1425 2022
1425 2132
1425 2279
1425 2968
1425 3240
1425 3280
1425 3533
1425 3553
1425 3851
1425 3965
1425 4508
1425 4934
1426 1504
1426 1600
1426 1721
1426 1894
1426 1903
1426 1987
1426 2574
1426 2579
1426 2586
1426 2626
1426 2659
1426 2774
1426 2850
1426 2859
1426 2869
1426 3050
1426 3105
1426 3159
1426 3261
1426 3469
1426 3655
1426 3701
1426 3816
1426 3951
1426 4025
1426 4567
1426 4595
1426 4684
1426 4722
1426 4809
1426 4858
1426 4907
1427 1630
1427 2108
1427 2403
1427 2415
1427 2505
1427 2635
1427 2969
1427 3301
1427 3397
1427 3516
1427 4249
1427 4289
1427 4324
1427 4459
1427 4806
1427 4853
1427 4937
1427 4964
1428 2009
1428 2043
1428 3169
1428 3491
1428 4471
1428 4547
1428 4679
1428 4732
1429 2284
1429 2795
1429 2815
1429 3121
1429 3191
1429 3354
1429 3579
1429 3585
1429 3706
1429 3721
1429 3727
1429 3765
1429 4157
1429 4291
1429 4300
1429 4361
1429 4549
1429 4589
1429 4850
1430 1538
1430 1708
1430 2175
1430 2400
1430 2664
1430 3012
1430 3272
1430 3395
1430 3477
1430 4098
1430 4111
1430 4374
1430 4416
1431 1555
1431 1873
1431 2078
1431 2574
1431 2579
1431 2586
1431 2621
1431 2667
1431 2738
1431 2805
1431 3046
1431 3065
1431 3066
1431 3386
1431 3500
1431 3552
1431 3716
1431 3816
1431 3823
1431 3910
1431 4387
1431 4721
1431 4764
1431 4989
1432 2386
1432 2805
1432 3751
1432 3804
1432 4762
1432 4849
1432 4907
1433 1538
1433 2175
1433 2400
1433 3379
1433 3789
1433 4111
1433 4465
1433 4550
1434 1615
1434 1836
1434 2663
1434 2715
1434 2991
1434 3105
1434 3389
1434 3761
1434 4023
1434 4167
1434 4687
1434 4721
1434 4762
1434 4907
1435 1450
1435 1898
1435 1908
1435 2698
1435 3123
1435 3294
1435 4451
1435 4848
1435 4875
1436 1572
1436 1580
1436 1586
1436 2262
1436 2864
1436 3026
1436 3067
1436 3381
1436 3615
1436 3640
1436 4110
1436 4415
1436 4956
1437 1545
1437 1605
1437 1650
1437 1735
1437 1968
1437 1969
1437 2115
1437 2724
1437 2937
1437 2978
1437 3345
1437 3374
1437 3432
1437 3435
1437 3539
1437 3704
1437 4056
1437 4321
1437 4388
1437 4930
1438 1553
1438 1710
1438 1858
1438 1937
1438 1945
1438 2261
1438 2558
1438 2927
1438 3106
1438 3151
1438 3176
1438 3197
1438 3435
1438 4056
1438 4067
1438 4299
1438 4377
1438 4612
1438 4924
1438 4983
1438 4991
1439 2260
1439 2276
1439 2292
1439 2328
1439 2359
1439 2393
1439 2592
1439 3236
1439 3347
1439 3369
1439 3623
1439 4108
1439 4204
1439 4303
1439 4333
1439 4676
1439 4703
1440 1459
1440 1586
1440 1594
1440 1602
1440 1935
1440 1963
1440 2246
1440 2563
1440 2611
1440 2623
1440 2845
1440 2861
1440 3099
1440 3240
1440 3353
1440 3611
1440 3797
1440 4133
1440 4499
1440 4916
1441 1460
1441 1611
1441 1941
1441 2251
1441 2282
1441 2994
1441 3008
1441 3937
1441 4107
1441 4326
1441 4491
1441 4712
1442 1471
1442 1485
1442 1486
1442 1915
1442 2051
1442 2092
1442 2103
1442 2580
1442 2587
1442 2610
1442 2633
1442 2712
1442 2740
1442 2933
1442 3498
1442 3532
1442 3554
1442 3555
1442 3560
1442 3604
1442 3713
1442 3938
1442 4045
1442 4161
1442 4297
1442 4336
1442 4479
1442 4482
1442 4494
1442 4525
1442 4542
1442 4566
1442 4611
1443 1718
1443 2259
1443 2260
1443 2328
1443 3918
1443 4176
1443 4262
1443 4377
1443 4678
1443 4707
1444 1492
1444 1656
1444 2133
1444 2136
1444 2179
1444 2367
1444 2478
1444 2482
1444 2565
1444 2660
1444 2668
1444 2725
1444 3385
1444 3402
1444 3818
1444 4469
1444 4820
1445 2426
1445 2436
1445 2477
1445 2486
1445 2593
1445 2626
1445 2671
1445 2717
1445 3426
1445 3447
1445 3482
1445 4075
1445 4225
1445 4795
1445 4928
1446 1482
1446 1610
1446 1861
1446 3296
1446 3324
1446 3629
1446 4449
1446 4461
1446 4582
1446 4596
1447 2096
1447 2418
1447 2736
1447 2768
1447 3136
1447 3153
1447 3217
1447 3467
1447 3644
1447 3745
1447 4295
1447 4748
1447 4897
1447 4908
1448 1516
1448 1534
1448 1716
1448 1812
1448 2570
1448 2609
1448 2832
1448 3356
1448 3487
1448 3489
1448 3571
1448 3863
1448 3999
1448 4029
1448 4077
1448 4386
1448 4431
1448 4574
1448 4799
1448 4834
1448 4950
1449 1608
1449 1610
1449 1806
1449 2421
1449 2460
1449 2487
1449 2598
1449 2979
1449 3094
1449 3475
1449 4471
1449 4996
1450 1576
1450 1864
1450 2350
1450 2461
1450 2614
1450 2628
1450 2723
1450 2907
1450 2934
1450 2988
1450 2995
1450 3274
1450 4140
1450 4683
1451 2242
1451 2620
1451 3505
1451 3594
1451 3719
1451 4239
1451 4306
1451 4649
1451 4706
1452 1455
1452 1687
1452 2358
1452 2519
1452 2671
1452 2693
1452 3025
1452 3359
1452 3577
1452 4214
1452 4489
1452 4743
1453 2068
1453 2474
1453 2492
1453 2806
1453 3617
1453 3733
1453 4152
1453 4190
1453 4512
1453 4580
1454 1547
1454 1718
1454 3177
1454 3894
1454 4348
1454 4451
1454 4517
1454 4793
1454 4848
1454 4875
1455 1754
1455 1838
1455 2120
1455 2193
1455 2305
1455 2582
1455 2846
1455 3421
1455 4310
1455 4444
1455 4744
1455 4812
1456 1479
1456 1513
1456 1753
1456 2433
1456 2698
1456 2721
1456 2742
1456 2859
1456 2985
1456 3245
1456 3378
1456 3485
1456 3506
1456 3549
1456 3635
1456 3786
1456 3868
1456 4139
1456 4324
1456 4330
1456 4412
1456 4444
1456 4548
1456 4608
1456 4772
1456 4865
1457 1650
1457 1707
1457 1969
1457 2288
1457 2699
1457 2910
1457 2916
1457 2927
1457 3224
1457 3431
1457 3734
1457 3824
1457 3844
1457 3957
1457 4209
1457 4288
1457 4299
1457 4531
1458 1893
1458 2453
1458 2602
1458 2682
1458 2754
1458 2875
1458 3293
1458 3298
1458 3383
1458 3661
1458 3683
1458 4361
1458 4396
1458 4481
1458 4934
1458 4971
1459 1586
1459 1594
1459 1602
1459 2308
1459 2611
1459 2845
1459 3099
1459 3240
1459 3353
1459 3515
1459 3611
1459 3797
1459 3833
1459 4133
1459 4499
1459 4916
1460 2234
1460 2504
1460 2564
1460 2693
1460 3560
1460 4264
1460 4301
1460 4342
1460 4692
1460 4812
1461 2068
1461 2528
1461 2613
1461 3109
1461 4152
1461 4162
1461 4459
1461 4484
1461 4580
1461 4614
1461 4624
1462 2220
1462 2585
1462 2659
1462 2663
1462 3367
1462 3546
1462 3569
1462 4409
1462 4684
1462 4689
1462 4815
1463 1615
1463 1626
1463 2139
1463 2164
1463 2830
1463 3169
1463 3426
1463 4694
1463 4879
1464 1467
1464 1545
1464 1655
1464 1722
1464 2089
1464 2243
1464 2499
1464 3284
1464 3638
1464 3704
1464 3758
1464 3851
1464 4010
1464 4044
1464 4083
1464 4603
1464 4991
1465 1826
1465 1936
1465 1982
1465 2017
1465 2402
1465 2774
1465 2811
1465 3147
1465 3289
1465 3385
1465 3420
1465 3437
1465 3512
1465 4697
1465 4840
1465 4988
1466 1568
1466 2438
1466 2581
1466 2645
1466 2662
1466 3603
1466 3683
1466 4017
1466 4449
1466 4597
1466 4934
1466 4981
1467 1722
1467 2430
1467 2499
1467 2558
1467 3057
1467 3486
1467 4265
1468 1478
1468 1644
1468 1890
1468 1972
1468 2187
1468 2474
1468 2810
1468 3152
1468 3681
1468 4057
1468 4123
1468 4351
1468 4580
1468 4877
1469 2311
1469 3013
1469 3217
1469 3409
1469 3928
1469 4029
1469 4209
1469 4299
1469 4349
1469 4851
1469 4997
1470 1575
1470 1604
1470 2197
1470 2385
1470 2785
1470 2948
1470 3473
1470 3775
1470 4053
1470 4240
1470 4271
1470 4290
1470 4318
1470 4590
1470 4774
1471 1485
1471 2103
1471 2729
1471 2933
1471 3498
1471 3560
1471 3915
1471 4045
1471 4611
1471 4622
1472 1612
1472 2087
1472 2125
1472 2416
1472 2423
1472 2453
1472 2685
1472 3170
1472 4746
1473 1753
1473 1846
1473 1979
1473 2031
1473 2035
1473 3160
1473 3207
1473 3514
1473 3674
1473 3712
1473 3969
1473 4720
1473 4769
1473 4917
1473 4953
1474 1545
1474 1549
1474 1694
1474 1725
1474 1799
1474 1824
1474 1942
1474 1943
1474 1970
1474 2043
1474 2132
1474 2311
1474 2463
1474 2916
1474 3057
1474 3078
1474 3182
1474 3239
1474 3280
1474 3288
1474 3330
1474 3335
1474 3409
1474 3422
1474 3545
1474 3588
1474 3600
1474 3649
1474 3717
1474 3742
1474 3755
1474 3850
1474 3906
1474 3989
1474 4066
1474 4258
1474 4515
1474 4523
1474 4942
1475 1757
1475 1933
1475 2116
1475 2126
1475 2517
1475 2615
1475 3092
1475 3160
1475 3630
1475 3749
1475 3877
1475 4332
1475 4564
1475 4775
1476 1981
1476 2057
1476 2476
1476 2629
1476 3165
1476 3272
1476 3313
1476 3855
1476 3937
1476 3993
1476 4121
1476 4326
1476 4581
1477 1589
1477 1941
1477 2077
1477 2618
1477 2710
1477 3000
1477 3682
1477 3758
1477 3844
1477 3861
1477 4765
1477 4924
1477 4943
1478 1644
1478 2078
1478 2469
1478 2474
1478 2613
1478 2716
1478 2804
1478 3004
1478 3152
1478 3565
1478 3713
1478 4028
1478 4123
1478 4190
1478 4324
1478 4341
1478 4614
1478 4624
1478 4871
1479 2170
1479 2280
1479 2450
1479 2519
1479 2555
1479 2691
1479 3120
1479 3300
1479 3486
1479 4330
1479 4354
1480 2096
1480 2228
1480 3130
1480 3254
1480 3278
1480 3816
1480 3951
1480 4387
1480 4684
1480 4782
1480 4802
1481 1642
1481 2060
1481 2109
1481 2271
1481 2278
1481 2301
1481 2357
1481 3417
1481 3536
1481 3666
1481 4006
1481 4154
1481 4633
1481 4786
1482 1756
1482 2617
1482 2887
1482 3036
1482 3174
1482 3349
1482 3559
1482 3710
1482 4592
1482 4641
1483 1856
1483 2050
1483 2151
1483 2580
1483 2729
1483 2875
1483 2933
1483 3132
1483 3604
1483 4045
1483 4161
1483 4166
1483 4542
1483 4611
1483 4622
1483 4666
1484 1644
1484 2315
1484 2474
1484 2548
1484 2804
1484 3109
1484 3689
1484 3897
1484 4123
1484 4152
1484 4305
1485 1838
1485 2004
1485 2050
1485 2092
1485 2218
1485 2667
1485 2729
1485 2740
1485 2852
1485 2933
1485 3498
1485 3555
1485 3560
1485 3963
1485 4045
1485 4218
1485 4284
1485 4479
1485 4482
1485 4525
1485 4566
1485 4622
1485 4629
1485 4666
1485 4693
1485 4880
1486 1649
1486 1820
1486 2092
1486 2218
1486 2576
1486 2712
1486 2729
1486 2933
1486 3112
1486 3545
1486 3555
1486 3604
1486 3963
1486 4218
1486 4479
1486 4556
1486 4611
1486 4622
1486 4693
1487 1775
1487 2085
1487 2276
1487 2546
1487 3270
1487 3307
1487 3312
1487 3327
1487 4262
1487 4303
1487 4333
1487 4356
1487 4528
1487 4635
1487 4676
1487 4707
1488 1670
1488 2056
1488 2181
1488 2672
1488 2752
1488 3513
1488 3691
1488 3962
1488 4545
1488 4598
1489 1567
1489 1720
1489 1802
1489 1848
1489 1893
1489 1965
1489 2007
1489 2039
1489 2086
1489 2184
1489 2198
1489 2310
1489 2437
1489 2546
1489 2760
1489 2773
1489 2836
1489 2911
1489 2926
1489 2940
1489 2962
1489 2971
1489 2974
1489 3084
1489 3101
1489 3149
1489 3172
1489 3318
1489 3902
1489 3947
1489 4020
1489 4155
1489 4263
1489 4264
1489 4507
1489 4535
1489 4625
1489 4791
1489 4844
1489 4862
1489 4993
1490 2462
1490 2469
1490 2617
1490 2662
1490 2835
1490 2979
1490 3456
1490 3661
1490 4318
1490 4579
1490 4616
1491 1560
1491 1599
1491 1744
1491 2181
1491 2862
1491 3035
1491 3300
1491 3359
1491 3508
1491 3534
1491 3624
1491 3870
1491 3992
1491 4033
1491 4163
1491 4210
1491 4330
1491 4617
1492 2304
1492 2668
1492 3625
1492 4231
1492 4504
1492 4737
1492 4820
1493 1701
1493 1722
1493 1941
1493 2043
1493 2311
1493 2463
1493 2472
1493 2499
1493 2511
1493 2877
1493 3189
1493 3957
1493 4044
1493 4164
1493 4288
1493 4321
1493 4553
1493 4718
1493 4997
1494 1747
1494 1754
1494 2073
1494 2249
1494 2428
1494 2432
1494 2444
1494 3763
1494 4710
1494 4736
1494 4763
1494 4772
1495 1909
1495 2390
1495 2435
1495 2519
1495 3254
1495 3379
1495 3789
1495 4111
1495 4424
1495 4465
1496 1749
1496 1854
1496 1994
1496 2402
1496 2585
1496 3217
1496 3261
1496 3309
1496 3546
1496 3624
1496 3689
1496 3855
1496 4023
1496 4739
1496 4782
1497 1804
1497 2252
1497 2724
1497 2976
1497 3368
1497 3457
1497 3513
1497 3650
1497 4715
1498 2248
1498 2499
1498 2619
1498 2894
1498 2961
1498 3046
1498 3166
1498 3189
1498 3850
1498 3851
1498 3965
1498 4508
1498 4983
1499 2127
1499 2314
1499 3123
1499 4231
1499 4287
1499 4348
1499 4451
1499 4793
1499 4848
1500 1571
1500 1755
1500 2305
1500 2321
1500 2454
1500 2604
1500 2746
1500 2862
1500 3119
1500 3127
1500 3201
1500 3577
1500 3786
1500 3807
1500 4783
1501 1743
1501 1796
1501 1874
1501 2234
1501 2356
1501 2454
1501 2582
1501 2693
1501 2743
1501 3352
1501 3764
1501 3779
1501 3914
1501 4022
1501 4038
1501 4174
1501 4210
1501 4413
1501 4653
1502 1977
1502 2079
1502 2098
1502 2117
1502 2300
1502 2519
1502 2987
1502 2991
1502 3361
1503 2129
1503 2242
1503 2306
1503 2608
1503 2707
1503 3505
1503 3594
1503 3970
1503 4021
1503 4079
1503 4125
1503 4468
1503 4649
1503 4665
1504 1894
1504 2515
1504 2659
1504 2663
1504 2793
1504 2849
1504 2885
1504 3046
1504 3145
1504 3367
1504 4068
1504 4200
1504 4803
1504 4886
1504 4897
1504 4989
1505 2221
1505 2244
1505 2260
1505 2276
1505 2340
1505 2359
1505 2605
1505 2635
1505 3270
1505 3648
1505 4377
1505 4678
1506 1642
1506 1935
1506 2123
1506 2296
1506 2307
1506 3465
1506 4060
1506 4677
1506 4788
1507 1509
1507 2483
1507 4360
1507 4580
1507 4614
1507 4633
1508 1588
1508 1769
1508 1813
1508 1819
1508 1908
1508 2071
1508 2091
1508 2094
1508 2749
1508 2780
1508 2904
1508 2918
1508 2951
1508 2952
1508 2960
1508 2997
1508 3074
1508 3083
1508 3211
1508 3599
1508 3769
1508 4001
1508 4058
1508 4119
1508 4199
1508 4357
1508 4515
1508 4552
1508 4605
1508 4664
1508 4973
1508 4992
1509 1953
1509 2151
1509 2649
1509 2999
1509 3763
1509 4028
1509 4152
1509 4351
1509 4484
1509 4613
1509 4614
1509 4642
1509 4668
1510 2113
1510 2474
1510 2548
1510 2998
1510 3109
1510 3641
1510 3681
1510 4190
1510 4365
1510 4871
1511 1606
1511 1854
1511 2584
1511 2626
1511 3011
1511 3065
1511 3152
1511 3217
1511 3759
1511 3920
1511 3951
1511 4684
1511 4722
1512 1642
1512 1691
1512 2008
1512 2130
1512 2271
1512 3150
1512 3874
1512 4006
1512 4080
1512 4335
1512 4353
1512 4423
1512 4496
1513 1792
1513 1913
1513 1927
1513 2090
1513 2391
1513 2671
1513 3262
1513 3645
1513 4228
1513 4293
1513 4420
1513 4812
1514 1687
1514 2858
1514 3096
1514 3474
1514 3513
1514 3650
1514 3698
1514 4751
1514 4846
1515 1950
1515 1983
1515 2118
1515 2334
1515 2339
1515 2584
1515 2629
1515 2923
1515 3342
1515 4107
1515 4192
1515 4294
1515 4538
1515 4581
1516 1533
1516 1577
1516 1660
1516 2501
1516 2619
1516 3001
1516 3079
1516 3889
1516 3948
1516 3985
1516 4501
1516 4771
1517 1824
1517 2552
1517 2626
1517 2853
1517 3060
1517 3065
1517 3546
1517 3951
1517 3978
1517 4687
1517 4689
1517 4989
1518 1900
1518 2054
1518 2508
1518 2579
1518 2597
1518 2811
1518 2989
1518 3217
1518 3226
1518 3586
1518 3774
1518 3856
1518 3951
1518 3987
1518 4257
1518 4636
1518 4988
1519 1602
1519 1677
1519 1981
1519 2036
1519 2057
1519 2118
1519 2143
1519 2238
1519 2282
1519 2297
1519 2950
1519 2959
1519 2994
1519 3101
1519 3172
1519 3212
1519 3527
1519 3952
1519 4049
1519 4197
1519 4215
1519 4319
1519 4367
1519 4388
1519 4452
1519 4491
1519 4979
1520 1549
1520 1718
1520 2061
1520 2091
1520 2204
1520 2257
1520 2259
1520 2276
1520 2328
1520 2349
1520 2359
1520 2369
1520 2398
1520 2606
1520 2718
1520 3307
1520 3327
1520 3369
1520 3939
1520 4292
1520 4331
1520 4333
1520 4370
1520 4435
1520 4464
1520 4518
1520 4530
1521 2021
1521 2158
1521 2315
1521 2548
1521 3532
1521 3689
1521 4123
1521 4152
1521 4190
1521 4365
1521 4642
1522 2696
1522 2952
1522 3408
1522 3425
1522 3945
1523 1574
1523 2014
1523 2581
1523 2583
1523 2965
1523 3070
1523 3122
1523 3445
1523 3557
1523 3612
1523 3643
1523 3710
1523 3742
1523 3927
1523 3955
1523 4251
1524 1895
1524 1950
1524 2189
1524 2476
1524 2595
1524 2601
1524 2629
1524 2756
1524 3313
1524 3342
1524 3937
1524 3952
1524 4082
1524 4102
1524 4401
1524 4556
1524 4959
1524 4993
1525 1775
1525 1854
1525 2209
1525 2515
1525 2554
1525 2637
1525 2663
1525 3180
1525 3217
1525 3255
1525 3261
1525 3610
1525 4697
1525 4787
1525 4977
1526 1847
1526 2082
1526 2397
1526 2532
1526 2619
1526 3064
1526 3726
1526 3806
1526 4268
1526 4450
1527 1604
1527 1783
1527 2197
1527 3005
1527 3277
1527 3426
1527 3473
1527 3511
1527 4240
1527 4271
1527 4290
1527 4305
1527 4774
1528 1653
1528 1785
1528 1870
1528 1914
1528 2201
1528 2214
1528 2631
1528 2651
1528 2917
1528 3246
1528 3480
1528 4071
1528 4788
1529 1591
1529 1610
1529 2014
1529 2366
1529 2438
1529 2772
1529 2800
1529 2806
1529 2863
1529 2883
1529 2887
1529 3175
1529 3334
1529 3438
1529 3443
1529 3504
1529 4031
1529 4140
1529 4142
1529 4393
1529 4449
1529 4462
1529 4501
1529 4585
1529 4609
1529 4657
1529 4940
1530 1832
1530 1880
1530 3079
1530 3855
1530 3935
1530 3948
1530 4771
1531 1645
1531 1826
1531 1854
1531 2013
1531 2020
1531 2054
1531 2663
1531 2850
1531 2991
1531 3226
1531 3669
1531 3761
1531 3922
1531 4387
1531 4557
1531 4741
1531 4795
1531 4886
1531 4985
1532 1644
1532 2021
1532 2158
1532 2474
1532 2492
1532 4176
1532 4351
1532 4502
1532 4614
1532 4642
1533 1631
1533 2127
1533 2406
1533 2451
1533 2460
1533 2619
1533 2654
1533 2705
1533 3935
1533 4475
1533 4771
1534 1911
1534 3467
1534 3489
1534 3571
1534 3868
1534 3999
1534 4115
1534 4868
1535 2101
1535 2151
1535 2315
1535 2528
1535 2548
1535 3193
1535 3992
1535 4145
1535 4152
1535 4162
1535 4484
1535 4502
1535 4580
1535 4591
1536 1545
1536 1583
1536 1617
1536 1657
1536 1739
1536 1799
1536 1814
1536 2580
1536 2618
1536 2910
1536 3071
1536 3076
1536 3078
1536 3203
1536 3419
1536 3682
1536 4035
1536 4044
1536 4127
1536 4209
1536 4477
1536 4511
1536 4933
1536 4983
1537 1715
1537 1999
1537 2119
1537 2141
1537 2175
1537 2199
1537 2226
1537 2394
1537 2429
1537 2568
1537 2953
1537 3091
1537 3441
1537 3461
1537 3510
1537 3582
1537 3904
1537 3998
1537 4098
1537 4112
1537 4185
1537 4405
1537 4416
1537 4470
1537 4620
1537 4638
1537 4747
1538 1708
1538 2188
1538 2211
1538 2390
1538 2452
1538 2503
1538 2568
1538 2643
1538 2739
1538 3278
1538 3573
1538 4080
1538 4098
1538 4111
1538 4149
1538 4167
1538 4230
1538 4416
1538 4426
1538 4500
1538 4503
1538 4654
1539 2239
1539 2244
1539 2260
1539 2605
1539 2792
1539 3325
1539 3730
1539 3939
1539 4267
1539 4320
1539 4518
1539 4663
1539 4678
1539 4703
1540 2878
1540 3029
1540 3110
1540 3214
1540 3246
1540 3348
1540 3528
1540 4567
1540 4837
1541 2146
1541 2219
1541 2450
1541 2851
1541 3605
1541 4033
1541 4272
1541 4413
1541 4744
1542 1736
1542 2311
1542 2367
1542 2477
1542 2486
1542 2569
1542 2593
1542 2720
1542 2943
1542 2956
1542 2983
1542 3391
1542 3578
1542 4225
1542 4928
1543 1623
1543 2239
1543 2359
1543 2384
1543 2446
1543 2596
1543 3154
1543 3378
1543 3444
1543 3454
1543 3520
1543 3866
1544 1920
1544 2048
1544 2053
1544 2058
1544 2790
1544 2836
1544 3338
1544 3376
1544 3468
1544 3565
1544 4296
1544 4308
1544 4603
1544 4976
1545 1694
1545 1701
1545 1707
1545 1710
1545 1711
1545 1730
1545 1798
1545 1814
1545 1932
1545 1969
1545 1971
1545 2265
1545 2443
1545 2489
1545 2623
1545 2826
1545 2916
1545 2968
1545 3171
1545 3189
1545 3203
1545 3231
1545 3239
1545 3280
1545 3320
1545 3387
1545 3409
1545 3419
1545 3449
1545 3607
1545 3663
1545 3682
1545 3704
1545 3778
1545 3957
1545 4046
1545 4070
1545 4209
1545 4321
1545 4371
1545 4470
1545 4529
1545 4594
1545 4943
1546 2106
1546 2178
1546 2286
1546 2374
1546 2552
1546 2847
1546 3024
1546 3848
1546 4180
1546 4195
1546 4384
1546 4597
1546 4698
1546 4811
1547 1830
1547 2382
1547 2872
1547 3123
1547 4217
1547 4451
1547 4512
1548 1556
1548 1748
1548 1750
1548 1777
1548 2095
1548 2272
1548 2666
1548 2865
1548 3341
1548 4099
1548 4144
1548 4175
1548 4907
1549 2259
1549 2276
1549 2393
1549 2605
1549 2737
1549 3302
1549 3520
1549 3830
1549 4267
1549 4333
1550 1654
1550 1696
1550 2194
1550 2574
1550 2623
1550 3065
1550 3163
1550 3344
1550 3345
1550 3406
1550 3469
1550 3624
1550 3842
1550 3856
1550 3872
1550 3918
1550 4065
1550 4298
1550 4467
1550 4634
1550 4721
1550 4855
1550 4886
1551 1771
1551 1776
1551 2325
1551 2331
1551 2387
1551 2517
1551 2536
1551 2632
1551 3033
1551 3331
1551 3471
1551 4366
1551 4583
1551 4591
1551 4647
1552 1705
1552 1909
1552 2390
1552 2429
1552 2435
1552 2485
1552 2568
1552 2830
1552 3115
1552 3395
1552 3627
1552 3659
1552 3998
1552 4465
1552 4620
1553 1596
1553 1617
1553 1635
1553 1686
1553 1881
1553 2968
1553 3106
1553 3202
1553 3231
1553 3287
1553 3435
1553 3567
1553 3670
1553 3698
1553 3706
1553 3794
1553 3928
1553 4010
1553 4201
1553 4983
1554 1589
1554 1831
1554 1872
1554 2161
1554 3076
1554 3100
1554 3280
1554 3431
1554 3458
1554 3600
1554 3645
1554 3715
1554 3854
1554 4288
1554 4416
1554 4924
1554 4976
1555 1607
1555 1824
1555 2109
1555 2597
1555 2697
1555 2700
1555 2705
1555 2869
1555 3011
1555 3217
1555 3226
1555 3255
1555 3367
1555 3632
1555 3709
1555 3916
1555 3951
1555 3955
1555 4768
1556 1693
1556 1750
1556 1777
1556 2075
1556 2080
1556 2095
1556 2176
1556 2194
1556 2272
1556 2298
1556 2427
1556 3058
1556 3088
1556 3222
1556 3341
1556 3614
1556 3647
1556 3781
1556 3966
1556 4099
1556 4144
1556 4175
1556 4258
1556 4671
1556 4729
1556 4782
1556 4839
1557 1589
1557 1710
1557 2910
1557 3284
1557 3288
1557 3458
1557 4046
1557 4265
1557 4529
1557 4924
1558 1747
1558 1754
1558 1781
1558 1910
1558 2234
1558 2256
1558 3095
1558 3352
1558 3459
1558 3637
1558 3677
1558 3688
1558 4081
1558 4214
1558 4593
1558 4736
1558 4812
1559 1634
1559 1693
1559 1747
1559 1823
1559 1834
1559 2516
1559 2571
1559 2604
1559 2985
1559 3082
1559 3967
1559 4412
1559 4460
1559 4617
1559 4719
1559 4744
1559 4767
1559 4847
1560 2354
1560 3241
1560 3351
1560 3496
1560 3513
1560 3528
1560 3746
1560 4141
1560 4714
1560 4846
1560 4953
1561 1566
1561 1667
1561 1761
1561 2521
1561 2733
1561 2931
1561 2945
1561 3189
1561 3547
1561 4191
1561 4310
1561 4651
1561 4889
1562 1673
1562 1902
1562 2116
1562 2438
1562 2893
1562 3056
1562 3214
1562 3348
1562 3597
1562 3650
1562 3758
1562 3962
1562 4146
1562 4827
1563 1635
1563 1666
1563 1824
1563 1826
1563 2318
1563 2637
1563 2991
1563 3060
1563 3448
1563 4388
1563 4989
1564 2049
1564 2072
1564 2982
1564 3269
1564 3272
1564 4121
1564 4221
1565 1573
1565 1828
1565 2187
1565 2273
1565 2704
1565 3543
1565 3793
1565 4131
1565 4276
1565 4628
1565 4631
1565 4661
1566 1595
1566 1667
1566 1761
1566 1905
1566 2153
1566 2521
1566 2733
1566 2931
1566 2945
1566 2973
1566 3049
1566 3547
1566 3868
1566 4191
1566 4651
1566 4889
1567 2040
1567 2099
1567 2106
1567 2178
1567 2253
1567 2552
1567 3189
1567 3321
1567 3339
1567 3365
1567 3553
1567 3848
1567 4010
1567 4562
1567 4681
1568 1780
1568 2211
1568 2396
1568 2490
1568 2863
1568 2886
1568 3336
1568 3423
1568 3559
1568 3628
1568 4449
1568 4497
1568 4517
1568 4796
1568 4901
1569 1570
1569 1877
1569 1938
1569 2165
1569 3134
1569 3657
1569 3658
1569 3962
1569 4118
1569 4417
1569 4476
1569 4544
1569 4655
1569 4887
1569 4929
1570 1877
1570 2074
1570 2081
1570 2139
1570 2165
1570 2447
1570 3134
1570 3137
1570 3622
1570 3657
1570 4118
1570 4128
1570 4211
1570 4227
1570 4655
1570 4766
1570 4978
1571 1622
1571 1658
1571 1754
1571 1774
1571 1785
1571 2249
1571 2255
1571 2275
1571 2356
1571 2430
1571 2432
1571 2444
1571 2514
1571 2559
1571 2582
1571 2777
1571 2856
1571 2899
1571 2907
1571 3089
1571 3429
1571 3508
1571 3536
1571 3577
1571 3714
1571 3779
1571 3814
1571 3817
1571 3934
1571 4014
1571 4092
1571 4192
1571 4228
1571 4272
1571 4310
1571 4330
1571 4334
1571 4354
1571 4404
1571 4413
1571 4573
1571 4691
1571 4743
1571 4784
1571 4805
1571 4893
1571 4929
1571 4931
1572 2042
1572 2648
1572 2864
1572 3315
1572 3381
1572 3873
1572 4072
1572 4110
1572 4152
1572 4385
1572 4411
1572 4415
1572 4433
1572 4751
1572 4956
1573 2577
1573 2704
1573 3543
1573 3931
1573 4022
1573 4131
1573 4179
1573 4628
1573 4631
1573 4661
1574 2449
1574 2473
1574 2530
1574 3042
1574 3383
1574 3514
1574 3636
1574 3710
1574 3924
1574 4133
1574 4246
1574 4471
1574 4579
1574 4686
1574 4934
1575 1604
1575 2038
1575 2189
1575 2533
1575 2545
1575 2948
1575 3277
1575 3473
1575 3511
1575 3837
1575 4053
1575 4240
1575 4290
1575 4305
1575 4774
1576 1864
1576 2018
1576 2350
1576 2614
1576 2723
1576 2944
1576 2995
1576 3169
1576 3308
1576 3901
1576 4037
1576 4545
1576 4658
1576 4899
1577 1660
1577 2070
1577 2372
1577 3079
1577 3806
1577 3935
1577 4268
1577 4475
1577 4644
1577 4957
1578 1703
1578 1760
1578 2142
1578 2145
1578 2232
1578 2459
1578 2786
1578 3378
1578 3442
1578 4106
1578 4463
1578 4821
1579 1586
1579 1935
1579 2611
1579 2845
1579 2962
1579 3240
1579 3353
1579 3611
1579 4133
1579 4916
1580 2455
1580 2864
1580 3026
1580 3246
1580 3374
1580 3520
1580 3873
1580 4072
1580 4385
1580 4410
1580 4411
1580 4415
1581 1663
1581 1673
1581 1902
1581 1906
1581 1919
1581 1979
1581 2149
1581 2252
1581 2673
1581 2844
1581 3075
1581 3214
1581 3246
1581 3450
1581 3513
1581 3596
1581 3620
1581 3712
1581 3773
1581 3913
1581 4054
1581 4126
1581 4328
1581 4340
1581 4458
1581 4769
1581 4775
1582 1621
1582 2388
1582 3215
1582 3235
1582 3283
1582 3298
1582 3334
1582 3398
1582 3580
1582 4005
1582 4016
1582 4115
1582 4389
1582 4497
1582 4596
1582 4599
1582 4672
1582 4732
1582 4842
1582 4852
1583 1617
1583 1655
1583 1700
1583 1872
1583 2311
1583 2699
1583 2969
1583 2978
1583 3013
1583 3076
1583 3166
1583 3280
1583 3698
1583 3704
1583 3844
1583 3854
1583 3866
1583 4164
1583 4299
1583 4328
1584 1585
1584 1666
1584 2087
1584 2125
1584 2362
1584 2423
1584 2471
1584 2608
1584 2705
1584 2791
1584 3073
1584 3135
1584 3168
1584 3170
1584 3671
1584 4232
1584 4480
1584 4565
1584 4590
1584 4746
1585 1612
1585 2087
1585 2125
1585 2362
1585 2685
1585 2705
1585 3168
1585 4310
1585 4408
1585 4480
1585 4746
1586 1594
1586 1935
1586 2308
1586 2611
1586 2845
1586 3099
1586 3240
1586 3611
1586 4133
1587 2176
1587 2354
1587 2711
1587 2784
1587 2797
1587 2848
1587 2878
1587 2879
1587 3160
1587 3214
1587 3373
1587 3691
1587 4960
1588 1649
1588 1853
1588 2144
1588 2855
1588 2955
1588 3427
1588 4202
1588 4667
1588 4749
1588 4905
1589 1605
1589 1655
1589 1694
1589 1799
1589 1831
1589 1843
1589 1850
1589 1969
1589 2261
1589 2311
1589 2604
1589 2689
1589 2699
1589 2880
1589 2919
1589 2978
1589 3076
1589 3100
1589 3166
1589 3176
1589 3203
1589 3266
1589 3287
1589 3328
1589 3374
1589 3428
1589 3435
1589 3576
1589 3698
1589 3866
1589 3940
1589 3989
1589 4067
1589 4257
1589 4313
1589 4371
1589 4523
1589 4930
1590 1607
1590 1646
1590 1888
1590 2183
1590 2225
1590 2283
1590 2287
1590 2642
1590 2681
1590 3223
1590 3242
1590 3484
1590 3578
1590 3635
1590 4169
1590 4196
1590 4273
1590 4316
1590 4472
1590 4798
1591 2438
1591 3169
1591 3192
1591 3559
1591 3619
1591 4403
1591 4447
1591 4585
1591 4927
1592 2206
1592 2360
1592 2468
1592 2600
1592 2759
1592 3117
1592 4117
1592 4159
1593 1867
1593 1872
1593 2261
1593 2499
1593 2968
1593 3151
1593 3576
1593 3909
1593 3928
1593 3957
1593 4288
1593 4991
1594 1935
1594 2563
1594 2861
1594 3099
1594 3240
1594 3338
1594 3611
1594 3797
1594 4133
1594 4137
1594 4916
1595 1667
1595 1761
1595 1905
1595 2153
1595 2292
1595 2521
1595 2945
1595 2973
1595 3049
1595 3547
1595 4889
1596 1872
1596 2311
1596 2463
1596 2699
1596 2968
1596 3078
1596 3638
1596 3698
1596 3757
1596 4975
1596 4997
1597 2209
1597 2585
1597 2694
1597 2715
1597 3147
1597 3226
1597 3453
1597 3550
1597 3892
1597 4020
1597 4387
1597 4922
1597 4937
1598 1934
1598 2061
1598 2221
1598 2239
1598 2276
1598 2446
1598 2635
1598 3270
1598 3520
1598 3672
1598 3939
1599 2146
1599 2607
1599 2816
1599 3300
1599 3352
1599 3359
1599 3509
1599 3550
1599 3695
1599 3773
1599 3807
1599 4330
1599 4391
1600 1769
1600 2579
1600 2586
1600 2651
1600 2682
1600 2694
1600 2809
1600 2848
1600 3019
1600 3226
1600 3354
1600 3823
1600 3855
1600 3976
1600 4598
1600 4631
1600 4858
1600 4906
1600 4922
1601 2131
1601 2159
1601 2278
1601 2341
1601 3244
1601 4154
1601 4189
1601 4312
1601 4660
1602 1935
1602 2845
1602 2861
1602 3353
1602 4019
1602 4133
1602 4499
1603 1687
1603 2056
1603 2784
1603 2815
1603 3017
1603 3160
1603 3184
1603 3348
1603 3491
1603 3514
1603 3525
1603 3610
1603 4054
1603 4455
1603 4491
1603 4775
1603 4891
1604 1609
1604 1830
1604 2038
1604 2197
1604 2254
1604 2329
1604 2467
1604 2533
1604 2545
1604 2726
1604 2764
1604 2785
1604 2948
1604 3005
1604 3258
1604 3277
1604 3314
1604 3473
1604 3478
1604 3511
1604 3613
1604 3760
1604 3837
1604 3991
1604 4053
1604 4240
1604 4242
1604 4271
1604 4278
1604 4290
1604 4305
1604 4318
1604 4389
1604 4436
1604 4522
1604 4590
1604 4774
1605 1831
1605 2113
1605 2499
1605 3166
1605 3409
1605 3922
1605 3928
1605 4179
1605 4290
1605 4350
1606 1720
1606 1787
1606 2402
1606 2584
1606 2590
1606 2663
1606 2680
1606 2805
1606 3060
1606 3218
1606 3448
1606 3613
1606 3720
1606 3855
1606 4061
1606 4803
1606 4808
1606 4907
1607 1888
1607 2169
1607 2287
1607 2802
1607 3463
1607 3484
1607 3912
1607 3952
1607 4169
1607 4186
1607 4430
1607 4704
1608 1875
1608 1921
1608 2045
1608 2181
1608 2483
1608 2784
1608 2879
1608 3193
1608 3502
1608 3581
1608 3620
1608 3770
1608 3884
1608 4000
1608 4891
1609 2329
1609 2764
1609 2785
1609 3005
1609 3511
1609 3620
1609 3837
1609 4240
1609 4271
1609 4278
1609 4290
1609 4305
1609 4774
1609 4901
1610 1958
1610 2014
1610 2224
1610 2384
1610 2670
1610 3215
1610 3273
1610 3296
1610 3349
1610 3526
1610 3664
1610 3805
1610 3888
1610 3924
1610 4481
1610 4554
1610 4590
1610 4610
1610 4616
1610 4773
1610 4876
1610 4934
1611 1617
1611 1795
1611 1872
1611 1942
1611 2279
1611 2365
1611 2499
1611 2531
1611 2608
1611 3031
1611 3159
1611 3189
1611 3363
1611 3794
1611 3866
1611 4529
1611 4612
1611 4924
1612 1882
1612 1971
1612 2036
1612 2087
1612 2125
1612 2423
1612 2471
1612 3673
1612 4311
1612 4668
1612 4910
1612 4921
1613 1781
1613 1847
1613 2255
1613 2337
1613 2433
1613 2555
1613 2559
1613 2693
1613 2714
1613 2840
1613 2998
1613 3069
1613 3129
1613 3132
1613 3354
1613 3558
1613 3568
1613 3605
1613 3814
1613 3961
1613 3970
1613 3984
1613 4028
1613 4158
1613 4275
1613 4331
1613 4354
1613 4489
1613 4569
1613 4593
1613 4618
1613 4736
1613 4744
1613 4890
1613 4994
1614 2061
1614 2221
1614 2276
1614 2324
1614 2497
1614 3282
1614 3444
1614 3672
1614 4345
1614 4377
1614 4528
1615 1626
1615 1633
1615 1671
1615 1685
1615 1805
1615 1837
1615 1929
1615 2104
1615 2114
1615 2164
1615 2182
1615 2185
1615 2235
1615 2243
1615 2316
1615 2327
1615 2332
1615 2405
1615 2424
1615 2550
1615 2675
1615 2677
1615 2830
1615 2986
1615 3140
1615 3243
1615 3375
1615 3426
1615 3574
1615 3583
1615 3651
1615 3685
1615 3721
1615 3793
1615 3813
1615 3825
1615 3882
1615 3953
1615 4150
1615 4261
1615 4389
1615 4582
1615 4674
1615 4675
1615 4694
1615 4700
1615 4705
1615 4780
1615 4787
1615 4879
1616 1708
1616 2392
1616 2508
1616 2568
1616 2771
1616 2888
1616 3012
1616 3382
1616 3461
1616 3627
1616 4230
1616 4424
1616 4620
1617 1789
1617 1814
1617 2022
1617 2166
1617 2365
1617 2443
1617 2927
1617 3078
1617 3287
1617 3458
1617 3588
1617 3861
1617 3897
1617 3909
1617 3922
1617 4410
1617 4511
1617 4924
1618 1800
1618 2438
1618 2652
1618 2698
1618 3145
1618 3336
1618 3414
1618 3612
1618 3636
1618 3664
1618 4332
1618 4443
1618 4587
1619 1759
1619 1882
1619 1961
1619 2005
1619 2028
1619 2071
1619 2094
1619 2102
1619 2147
1619 2186
1619 2215
1619 2324
1619 2770
1619 2854
1619 2891
1619 2912
1619 2951
1619 2967
1619 3599
1619 3763
1619 3790
1619 3969
1619 3977
1619 4002
1619 4094
1619 4119
1619 4632
1619 4643
1619 4818
1619 4883
1619 4973
1619 4992
1620 2125
1620 2362
1620 2423
1620 2471
1620 3168
1620 3469
1620 4223
1620 4311
1620 4441
1620 4474
1620 4519
1620 4739
1621 1680
1621 1755
1621 2480
1621 2806
1621 2863
1621 3042
1621 3864
1621 4934
1622 2670
1622 2711
1622 2990
1622 3504
1622 3632
1622 3732
1622 4017
1622 4592
1622 4996
1623 1626
1623 1645
1623 2597
1623 2701
1623 2715
1623 2834
1623 3669
1623 4765
1623 4826
1623 4882
1623 4906
1623 4989
1624 2175
1624 2226
1624 2953
1624 3390
1624 3395
1624 3492
1624 3627
1624 4230
1624 4416
1624 4437
1624 4465
1624 4573
1624 4771
1625 1836
1625 2456
1625 2480
1625 2594
1625 3122
1625 3438
1625 3445
1625 3827
1625 4129
1625 4447
1625 4639
1625 4752
1626 1636
1626 1929
1626 2104
1626 2114
1626 2182
1626 2185
1626 2235
1626 2273
1626 2316
1626 2327
1626 2424
1626 2550
1626 2675
1626 2709
1626 3140
1626 3204
1626 3340
1626 3375
1626 3519
1626 3527
1626 3583
1626 3598
1626 3651
1626 3721
1626 3815
1626 4150
1626 4261
1626 4582
1626 4674
1626 4675
1626 4705
1626 4780
1626 4794
1627 2077
1627 2174
1627 2219
1627 2370
1627 2432
1627 3037
1627 3300
1627 3558
1627 3764
1627 4252
1627 4457
1627 4617
1627 4719
1628 1630
1628 1698
1628 1755
1628 1796
1628 2140
1628 2270
1628 2293
1628 2346
1628 2356
1628 2465
1628 2571
1628 2862
1628 2970
1628 3185
1628 3300
1628 3421
1628 3454
1628 3460
1628 3786
1628 4301
1628 4310
1628 4710
1628 4823
1629 2384
1629 2438
1629 2583
1629 2662
1629 4055
1629 4116
1629 4246
1629 4770
1629 4965
1630 1779
1630 2108
1630 2128
1630 2415
1630 2969
1630 3301
1630 3397
1630 3516
1630 3605
1630 3909
1630 4249
1630 4343
1630 4459
1630 4853
1630 4937
1631 1880
1631 2291
1631 2532
1631 2762
1631 3935
1631 4268
1631 4370
1631 4475
1631 4551
1632 1920
1632 2048
1632 2058
1632 2084
1632 3436
1632 3565
1632 3590
1632 4138
1632 4583
1632 4603
1633 1636
1633 1664
1633 1671
1633 2104
1633 2243
1633 2375
1633 2677
1633 3340
1633 3445
1633 3716
1633 4582
1633 4700
1633 4879
1634 1818
1634 2234
1634 2282
1634 2430
1634 2519
1634 2559
1634 2575
1634 2913
1634 3094
1634 3297
1634 3460
1634 3536
1634 3570
1634 3779
1634 4138
1634 4310
1634 4460
1634 4593
1634 4806
1634 4952
1635 1792
1635 1970
1635 2499
1635 3387
1635 3409
1635 3545
1635 3844
1635 4179
1635 4288
1635 4328
1635 4531
1636 1664
1636 1805
1636 2182
1636 2243
1636 2405
1636 2479
1636 2675
1636 3243
1636 3426
1636 3685
1636 4694
1636 4700
1636 4818
1637 1755
1637 1785
1637 1792
1637 2090
1637 2275
1637 2293
1637 2321
1637 2391
1637 2444
1637 2555
1637 2818
1637 3245
1637 3347
1637 3461
1637 3506
1637 3645
1637 4112
1637 4139
1637 4159
1637 4310
1637 4412
1637 4444
1637 4532
1637 4573
1637 4576
1637 4865
1637 4998
1638 2105
1638 2313
1638 2402
1638 2436
1638 2477
1638 2486
1638 2593
1638 2703
1638 2841
1638 2943
1638 2949
1638 3464
1638 3918
1638 3928
1638 4100
1638 4225
1638 4307
1638 4492
1638 4740
1639 2443
1639 2581
1639 2806
1639 3122
1639 3133
1639 3235
1639 3927
1639 4423
1639 4485
1639 4618
1639 4801
1640 2206
1640 2281
1640 2360
1640 2468
1640 2513
1640 3117
1640 4696
1641 1675
1641 1797
1641 1898
1641 2264
1641 2519
1641 2698
1641 2833
1641 4287
1641 4319
1641 4348
1641 4451
1641 4680
1641 4812
1641 4848
1641 4875
1641 4957
1642 1964
1642 2109
1642 2121
1642 2160
1642 2231
1642 2412
1642 3061
1642 3157
1642 3216
1642 4154
1642 4353
1642 4363
1642 4652
1642 4709
1642 4786
1642 4849
1643 1813
1643 2386
1643 2773
1643 2811
1643 3011
1643 3271
1643 3546
1643 3569
1643 4922
1643 4989
1644 1862
1644 1972
1644 2101
1644 2474
1644 2492
1644 2528
1644 2810
1644 3152
1644 3309
1644 3471
1644 3689
1644 3763
1644 4123
1644 4145
1644 4152
1644 4162
1644 4190
1644 4194
1644 4360
1644 4558
1644 4580
1644 4776
1644 4877
1645 1721
1645 1837
1645 2064
1645 2597
1645 3322
1645 3412
1645 3477
1645 3488
1645 3546
1645 3669
1645 3893
1645 4322
1645 4635
1645 4684
1645 4773
1645 4803
1645 4855
1645 4882
1645 4907
1646 1888
1646 2495
1646 2802
1646 2946
1646 3190
1646 3223
1646 3237
1646 3484
1646 4398
1646 4430
1646 4488
1646 4490
1646 4838
1647 1810
1647 2636
1647 2647
1647 3292
1647 3644
1647 3769
1647 4135
1647 4168
1647 4414
1647 4456
1647 4742
1647 4790
1648 2054
1648 2623
1648 2694
1648 2774
1648 2838
1648 2991
1648 3217
1648 3271
1648 3910
1648 3993
1648 4687
1648 4803
1649 2144
1649 2222
1649 2330
1649 2417
1649 2612
1649 2663
1649 2887
1649 4172
1649 4329
1649 4383
1649 4645
1649 4905
1649 4923
1650 1941
1650 1954
1650 3050
1650 3121
1650 3419
1650 3431
1650 3698
1650 3778
1650 3850
1650 3957
1650 3989
1650 4179
1650 4288
1650 4942
1651 1979
1651 2719
1651 2784
1651 2834
1651 3017
1651 3096
1651 3155
1651 3200
1651 3592
1651 3620
1651 3985
1651 4355
1652 1753
1652 2200
1652 3123
1652 3268
1652 3708
1652 3913
1652 4136
1652 4204
1652 4217
1652 4236
1652 4269
1652 4793
1652 4848
1653 1914
1653 2148
1653 2419
1653 2917
1653 3188
1653 3562
1653 3694
1653 3849
1653 4151
1653 4472
1653 4792
1653 4881
1654 1672
1654 2584
1654 2597
1654 2715
1654 2793
1654 3046
1654 3469
1654 3709
1654 4253
1654 4684
1654 4768
1654 4862
1655 1725
1655 2552
1655 2910
1655 2972
1655 3063
1655 3078
1655 3151
1655 3224
1655 3409
1655 3435
1655 3778
1655 3794
1655 3839
1655 3844
1655 3989
1655 4066
1655 4067
1655 4321
1655 4349
1655 4410
1655 4778
1655 4930
1655 4991
1656 2173
1656 2660
1656 2725
1656 3402
1656 3637
1656 3851
1656 4231
1656 4469
1657 1811
1657 1990
1657 2311
1657 2499
1657 2699
1657 3057
1657 3642
1657 4288
1658 2090
1658 2337
1658 3485
1658 3807
1658 4229
1658 4354
1658 4572
1658 4736
1658 4805
1659 2047
1659 2225
1659 2240
1659 2495
1659 2554
1659 2683
1659 2802
1659 3237
1659 3332
1659 3403
1659 3462
1659 3490
1659 3767
1659 4234
1659 4430
1659 4578
1659 4921
1660 2082
1660 2344
1660 2397
1660 3948
1660 3998
1660 4268
1661 2266
1661 2271
1661 3317
1661 4006
1661 4206
1661 4353
1661 4496
1661 4623
1661 4709
1662 2402
1662 2520
1662 2597
1662 2659
1662 2944
1662 3121
1662 4298
1662 4636
1662 4904
1662 4906
1663 1911
1663 1933
1663 2693
1663 2741
1663 2855
1663 3092
1663 3096
1663 3110
1663 3241
1663 3279
1663 3290
1663 3525
1663 3581
1663 3592
1663 3597
1663 3634
1663 3741
1663 3749
1663 3803
1663 3884
1663 4000
1663 4064
1663 4126
1663 4720
1663 4751
1663 4757
1663 4775
1663 4807
1663 4880
1664 1671
1664 1675
1664 1685
1664 2104
1664 2116
1664 2185
1664 2405
1664 2445
1664 2675
1664 2677
1664 2709
1664 2830
1664 3583
1664 3651
1664 3685
1664 3813
1664 4167
1664 4369
1664 4582
1664 4674
1664 4675
1664 4700
1664 4794
1664 4879
1664 4901
1665 2035
1665 2715
1665 2741
1665 2784
1665 2862
1665 3110
1665 3514
1665 3597
1665 3997
1665 4966
1666 2078
1666 2233
1666 2492
1666 2804
1666 3004
1666 3452
1666 3522
1666 4076
1666 4624
1666 4642
1666 4776
1667 2153
1667 2733
1667 2938
1667 2945
1667 2973
1667 3049
1667 3547
1667 4651
1667 4889
1668 2119
1668 2175
1668 2211
1668 2400
1668 2664
1668 3461
1668 3659
1668 4062
1668 4111
1668 4187
1668 4465
1668 4503
1668 4620
1668 4638
1669 1702
1669 1736
1669 2149
1669 2684
1669 2727
1669 2784
1669 2879
1669 3160
1669 3514
1669 3581
1669 4715
1669 4778
1669 4814
1669 4891
1670 1923
1670 1968
1670 2149
1670 2354
1670 2751
1670 2848
1670 3567
1670 3620
1670 3737
1670 3892
1670 4171
1670 4394
1670 4916
1670 4920
1671 1813
1671 2044
1671 2114
1671 2164
1671 2182
1671 2235
1671 2243
1671 2316
1671 2332
1671 2723
1671 3026
1671 3272
1671 3375
1671 3583
1671 3685
1671 3953
1671 4261
1671 4389
1671 4582
1671 4675
1671 4705
1672 1911
1672 1926
1672 1934
1672 2083
1672 2157
1672 2299
1672 2458
1672 2586
1672 3295
1672 3380
1672 3528
1672 3978
1672 4234
1672 4347
1672 4359
1672 4534
1672 4825
1673 2148
1673 2227
1673 2354
1673 2743
1673 2796
1673 3207
1673 3241
1673 3452
1673 3892
1673 4205
1674 1854
1674 2002
1674 2209
1674 2220
1674 2515
1674 2539
1674 2637
1674 3729
1674 3819
1674 4025
1674 4061
1674 4117
1674 4557
1674 4882
1674 4892
1675 1830
1675 1898
1675 2169
1675 2420
1675 2872
1675 4204
1675 4348
1675 4451
1675 4668
1675 4848
1675 4875
1675 4957
1676 2143
1676 2536
1676 2629
1676 3022
1676 3252
1676 3269
1676 3272
1676 4322
1676 4358
1676 4538
1677 2118
1677 2162
1677 2189
1677 2506
1677 2959
1677 3233
1677 3269
1677 3313
1677 3937
1677 4072
1677 4102
1677 4113
1677 4197
1677 4243
1677 4316
1677 4325
1678 1754
1678 1814
1678 2261
1678 2311
1678 2558
1678 3100
1678 3576
1678 3704
1678 3844
1678 3957
1678 4265
1678 4977
1679 1700
1679 1721
1679 2002
1679 2515
1679 2621
1679 2738
1679 2809
1679 2989
1679 3271
1679 3887
1679 4765
1679 4802
1680 2118
1680 2637
1680 3053
1680 3060
1680 3448
1680 3660
1680 3729
1680 4858
1680 4897
1680 4989
1681 2615
1681 2637
1681 3060
1681 3163
1681 3186
1681 3226
1681 3399
1681 3951
1681 4233
1682 2357
1682 2421
1682 2772
1682 2921
1682 2975
1682 3000
1682 4585
1682 4609
1682 4842
1683 1781
1683 1852
1683 1856
1683 2050
1683 2092
1683 2576
1683 2580
1683 2852
1683 3498
1683 3555
1683 4166
1683 4240
1684 1830
1684 1898
1684 2224
1684 2314
1684 2703
1684 2731
1684 2935
1684 3123
1684 3294
1684 3308
1684 3708
1684 3830
1684 3942
1684 4188
1684 4269
1684 4512
1684 4680
1684 4793
1684 4966
1685 2164
1685 2445
1685 2709
1685 3140
1685 3793
1685 4169
1685 4582
1685 4675
1686 1992
1686 2115
1686 2132
1686 2404
1686 2624
1686 3013
1686 3106
1686 3141
1686 3189
1686 3284
1686 3419
1686 3431
1686 3435
1686 3542
1686 3730
1686 3880
1686 4010
1686 4044
1686 4066
1686 4209
1686 4313
1686 4553
1687 1773
1687 2116
1687 2395
1687 2711
1687 2820
1687 2844
1687 3056
1687 3207
1687 3219
1687 3393
1687 3507
1687 3620
1687 3741
1687 3846
1687 3892
1687 4305
1688 1939
1688 2171
1688 2407
1688 2438
1688 2522
1688 2687
1688 2695
1688 2718
1688 2936
1688 3036
1688 3544
1688 3667
1688 3871
1688 4173
1688 4201
1688 4630
1688 4829
1688 4890
1688 4912
1688 4970
1689 1885
1689 1917
1689 2096
1689 2647
1689 2736
1689 3071
1689 3167
1689 3194
1689 3292
1689 3364
1689 3722
1689 3833
1689 4168
1689 4295
1689 4733
1690 1740
1690 1815
1690 1860
1690 2428
1690 2556
1690 2706
1690 4445
1690 4509
1690 4543
1690 4557
1690 4726
1691 1775
1691 2386
1691 2402
1691 2694
1691 2765
1691 3009
1691 3163
1691 3550
1691 3586
1691 3695
1691 3759
1691 3855
1691 4809
1691 4886
1691 4906
1692 2150
1692 2250
1692 2258
1692 2319
1692 2722
1692 3027
1692 3306
1692 3481
1692 3687
1692 3707
1692 3736
1692 3885
1692 4198
1692 4224
1692 4345
1692 4386
1693 1781
1693 2275
1693 2564
1693 3359
1693 3646
1693 3678
1693 3786
1693 4052
1693 4146
1693 4158
1693 4527
1693 4540
1693 4710
1693 4719
1693 4865
1693 4893
1694 2311
1694 2640
1694 2880
1694 3670
1694 3698
1694 3928
1694 4070
1694 4288
1694 4924
1694 4991
1695 2313
1695 2426
1695 2436
1695 2477
1695 2717
1695 2943
1695 2983
1695 3447
1695 3744
1695 4100
1695 4406
1695 4736
1695 4740
1695 4928
1696 2663
1696 2715
1696 2738
1696 3147
1696 3872
1696 4906
1697 1754
1697 2014
1697 2249
1697 2691
1697 2742
1697 3065
1697 3073
1697 3359
1697 3568
1697 3726
1697 3967
1697 4156
1697 4327
1697 4719
1697 4736
1698 2582
1698 2846
1698 3616
1698 3725
1698 4301
1698 4460
1698 4736
1698 4932
1699 1876
1699 1933
1699 2672
1699 3168
1699 3521
1699 3596
1699 4714
1699 4775
1699 4953
1700 2697
1700 2793
1700 2944
1700 3060
1700 3186
1700 3217
1700 4922
1700 4989
1701 1730
1701 1757
1701 1945
1701 1954
1701 2265
1701 2699
1701 2949
1701 3704
1701 3928
1701 4010
1701 4164
1702 1889
1702 1892
1702 1923
1702 2056
1702 2201
1702 2252
1702 2534
1702 2727
1702 2784
1702 2839
1702 3008
1702 3096
1702 3155
1702 3193
1702 3214
1702 3219
1702 3243
1702 3514
1702 3634
1702 3865
1702 3962
1703 1760
1703 2232
1703 3442
1703 3597
1703 3803
1703 4106
1703 4463
1703 4821
1704 2584
1704 3217
1704 3488
1704 3550
1704 4467
1705 1941
1705 2365
1705 3013
1705 3486
1705 3792
1705 3973
1705 4321
1705 4933
1706 2255
1706 2299
1706 2567
1706 3506
1706 4139
1706 4163
1706 4341
1706 4572
1706 4608
1706 4931
1707 2463
1707 2472
1707 2582
1707 2717
1707 3076
1707 3166
1707 3287
1707 3576
1707 3794
1707 3854
1707 3859
1707 4101
1707 4553
1708 2226
1708 2643
1708 2807
1708 3012
1708 3115
1708 3395
1708 3492
1708 3582
1708 4226
1708 4374
1708 4416
1708 4437
1709 1784
1709 1786
1709 1907
1709 2086
1709 2354
1709 2485
1709 2755
1709 2836
1709 2882
1709 2920
1709 2940
1709 3118
1709 3149
1709 3751
1709 3770
1709 3777
1709 3908
1709 4088
1709 4219
1709 4291
1709 4473
1709 4878
1709 4993
1710 2489
1710 2892
1710 3159
1710 3189
1710 3203
1710 3232
1710 3257
1710 3533
1710 3650
1710 3851
1710 4015
1710 4026
1710 4209
1710 4265
1710 4802
1710 4924
1711 1757
1711 2311
1711 4039
1711 4044
1711 4056
1711 4612
1711 4930
1711 4942
1712 2421
1712 2511
1712 2544
1712 2941
1712 3045
1712 3336
1712 3559
1712 4752
1713 1753
1713 1795
1713 1830
1713 2224
1713 2731
1713 3708
1713 3812
1713 3909
1713 4204
1713 4340
1713 4451
1713 4848
1713 4875
1714 1990
1714 2012
1714 2051
1714 2086
1714 2212
1714 2320
1714 2537
1714 2750
1714 2882
1714 3818
1714 3907
1714 4473
1714 4844
1714 4861
1714 4863
1715 2175
1715 2211
1715 2508
1715 2758
1715 3178
1715 4111
1715 4416
1715 4424
1715 4735
1716 1734
1716 1812
1716 2152
1716 2229
1716 2370
1716 2486
1716 2570
1716 2811
1716 2816
1716 2832
1716 2992
1716 3014
1716 3319
1716 3356
1716 3518
1716 3571
1716 3684
1716 3743
1716 3863
1716 3893
1716 3954
1716 3999
1716 4029
1716 4077
1716 4115
1716 4153
1716 4193
1716 4314
1716 4337
1716 4339
1716 4431
1716 4552
1716 4650
1716 4655
1716 4834
1716 4868
1716 4950
1717 1740
1717 1860
1717 2052
1717 2277
1717 2706
1717 4445
1717 4726
1717 4893
1718 2061
1718 2359
1718 2539
1718 3236
1718 3327
1718 3465
1718 3602
1718 4333
1718 4356
1718 4453
1719 1893
1719 1945
1719 2086
1719 2335
1719 2485
1719 2537
1719 2880
1719 3303
1719 3318
1719 4155
1719 4836
1720 1766
1720 1768
1720 1802
1720 1848
1720 1893
1720 1918
1720 2076
1720 2100
1720 2265
1720 2274
1720 2310
1720 2411
1720 2537
1720 2760
1720 2808
1720 2867
1720 2882
1720 2896
1720 2920
1720 2986
1720 3149
1720 3179
1720 3251
1720 3293
1720 3323
1720 3796
1720 3818
1720 3899
1720 3902
1720 3908
1720 3975
1720 4071
1720 4088
1720 4211
1720 4409
1720 4535
1720 4836
1720 4863
1720 4884
1720 4949
1720 4987
1721 1749
1721 1787
1721 1873
1721 2094
1721 2209
1721 2402
1721 2534
1721 2597
1721 2615
1721 2739
1721 2813
1721 2869
1721 3046
1721 3163
1721 3218
1721 3478
1721 3761
1721 3819
1721 3978
1721 4216
1721 4387
1721 4721
1721 4820
1722 1897
1722 2492
1722 2699
1722 3159
1722 3284
1722 3285
1722 3533
1722 3807
1722 3839
1722 3861
1722 3928
1722 4010
1722 4079
1722 4164
1723 1767
1723 2275
1723 2759
1723 3237
1723 3484
1723 3767
1723 3884
1723 3915
1723 4119
1723 4375
1724 1791
1724 1813
1724 1882
1724 2102
1724 2891
1724 2952
1724 3722
1724 4004
1724 4011
1724 4094
1724 4442
1724 4819
1725 2489
1725 3121
1725 3224
1725 3302
1725 3486
1725 3704
1725 3957
1725 4553
1726 1928
1726 1973
1726 2005
1726 2089
1726 2091
1726 2107
1726 2228
1726 2904
1726 3041
1726 3067
1726 3093
1726 3234
1726 3282
1726 3343
1726 3481
1726 3599
1726 3769
1726 3834
1726 3958
1726 4002
1726 4011
1726 4051
1726 4094
1726 4142
1726 4352
1726 4520
1726 4883
1727 1899
1727 2161
1727 3205
1727 3306
1727 3707
1727 4345
1727 4723
1727 4724
1727 4779
1727 4864
1727 4991
1728 1911
1728 2842
1728 3380
1728 3743
1728 3869
1728 3978
1729 1861
1729 2490
1729 2529
1729 2583
1729 2806
1729 3504
1729 3559
1729 3564
1729 3661
1729 3693
1729 4449
1729 4571
1729 4996
1730 2894
1730 2968
1730 3545
1730 3567
1730 3928
1730 4046
1730 4508
1730 4924
1731 1751
1731 1813
1731 2094
1731 2147
1731 2590
1731 2881
1731 3074
1731 3366
1731 3599
1731 3882
1731 4266
1731 4515
1731 4520
1731 4874
1732 1869
1732 1893
1732 1903
1732 2184
1732 2318
1732 2657
1732 2750
1732 2778
1732 2882
1732 3179
1732 3293
1732 4071
1732 4353
1732 4659
1732 4836
1732 4861
1732 4862
1732 4993
1733 1756
1733 2594
1733 3161
1733 3272
1733 3414
1733 3619
1733 3732
1733 4461
1733 4481
1733 4592
1733 4753
1734 2112
1734 3209
1734 3863
1734 3868
1734 4254
1735 1757
1735 2037
1735 2311
1735 2402
1735 2499
1735 2894
1735 3085
1735 3458
1735 3922
1735 4288
1735 4943
1736 2486
1736 2569
1736 2943
1736 3464
1736 4225
1736 4492
1737 1871
1737 1956
1737 2727
1737 2784
1737 3373
1737 3514
1737 3650
1737 3915
1737 4359
1737 4775
1737 4846
1738 2387
1738 2536
1738 3033
1738 3331
1738 4088
1738 4126
1738 4343
1738 4591
1738 4647
1738 4896
1739 1876
1739 1943
1739 1945
1739 3076
1739 3280
1739 3638
1739 3730
1739 4010
1739 4044
1739 4265
1739 4321
1739 4328
1740 1815
1740 2428
1740 3081
1740 3358
1740 4273
1740 4445
1740 4734
1741 2150
1741 2199
1741 2317
1741 2708
1741 3132
1741 3434
1741 3687
1741 3707
1741 3736
1741 4730
1742 1839
1742 2214
1742 2663
1742 2715
1742 2849
1742 2869
1742 2982
1742 4652
1742 4764
1742 4907
1743 1813
1743 2102
1743 2951
1743 3074
1743 3210
1743 3263
1743 3769
1743 4053
1743 4982
1744 1955
1744 2185
1744 2728
1744 2862
1744 3359
1744 3725
1744 3745
1744 3779
1744 3917
1744 4229
1744 4483
1744 4725
1744 4753
1745 2019
1745 2027
1745 2388
1745 2449
1745 2460
1745 2473
1745 2480
1745 2595
1745 2624
1745 3070
1745 3215
1745 3283
1745 3423
1745 3434
1745 3559
1745 3612
1745 3618
1745 3632
1745 3847
1745 3994
1745 4423
1745 4449
1745 4461
1745 4521
1745 4561
1745 4660
1745 4781
1745 4796
1745 4804
1745 4876
1746 1838
1746 2161
1746 2289
1746 2345
1746 2368
1746 2376
1746 2695
1746 3199
1746 3671
1746 3874
1746 3904
1746 3993
1746 4224
1746 4297
1746 4345
1746 4622
1746 4701
1746 4730
1746 4779
1746 4864
1746 4932
1747 2383
1747 2607
1747 3463
1747 3828
1747 4342
1747 4445
1747 4812
1748 1777
1748 1841
1748 2180
1748 2272
1748 2585
1748 2666
1748 3222
1748 3675
1748 4200
1748 4253
1748 4258
1748 4972
1749 1821
1749 1842
1749 2402
1749 2547
1749 2694
1749 2825
1749 2880
1749 2989
1749 3046
1749 3060
1749 3255
1749 3695
1749 3733
1749 3810
1749 3843
1749 3951
1749 4025
1749 4387
1749 4670
1749 4741
1749 4906
1749 4989
1749 4999
1750 2075
1750 2180
1750 2272
1750 2427
1750 2589
1750 2822
1750 3341
1750 3614
1750 4200
1750 4838
1750 4839
1750 4972
1751 1793
1751 2089
1751 2094
1751 2205
1751 2297
1751 2359
1751 2854
1751 4381
1751 4874
1751 4909
1752 1847
1752 2555
1752 2559
1752 3123
1752 3508
1752 3817
1752 4138
1752 4182
1752 4404
1752 4537
1753 1830
1753 1898
1753 2698
1753 2746
1753 2909
1753 4287
1753 4379
1753 4451
1753 4793
1754 1764
1754 1782
1754 1783
1754 1785
1754 1803
1754 1851
1754 2066
1754 2090
1754 2432
1754 2465
1754 2559
1754 2566
1754 2634
1754 2720
1754 2794
1754 2846
1754 2903
1754 2948
1754 2985
1754 2993
1754 3233
1754 3240
1754 3337
1754 3563
1754 3589
1754 3676
1754 3677
1754 3783
1754 3786
1754 3814
1754 4022
1754 4033
1754 4038
1754 4045
1754 4138
1754 4139
1754 4216
1754 4228
1754 4272
1754 4301
1754 4354
1754 4376
1754 4420
1754 4489
1754 4537
1754 4540
1754 4608
1754 4719
1754 4743
1754 4835
1755 1774
1755 1913
1755 1955
1755 2120
1755 2174
1755 2275
1755 2383
1755 2391
1755 2409
1755 2566
1755 2671
1755 2714
1755 2720
1755 2742
1755 2765
1755 2814
1755 2840
1755 2862
1755 2985
1755 3077
1755 3095
1755 3129
1755 3173
1755 3245
1755 3291
1755 3377
1755 3421
1755 3506
1755 3566
1755 3568
1755 3735
1755 3745
1755 3822
1755 3934
1755 3941
1755 3974
1755 4014
1755 4026
1755 4038
1755 4139
1755 4158
1755 4174
1755 4229
1755 4295
1755 4376
1755 4483
1755 4569
1755 4576
1755 4608
1755 4618
1755 4692
1755 4743
1755 4744
1755 4767
1755 4847
1756 2453
1756 2487
1756 2514
1756 2602
1756 2875
1756 3169
1756 3248
1756 3398
1756 3831
1756 4012
1756 4367
1756 4609
1756 4648
1756 4877
1756 4927
1757 1814
1757 2077
1757 2346
1757 2499
1757 2663
1757 2906
1757 3106
1757 3189
1757 3284
1757 3287
1757 3435
1757 3638
1757 3715
1757 3717
1757 3784
1757 3880
1757 4070
1758 1989
1758 2162
1758 2177
1758 2918
1758 2951
1758 3083
1758 3539
1758 3599
1758 3790
1758 3876
1758 3968
1758 4011
1758 4251
1758 4515
1758 4559
1758 4818
1759 1845
1759 1878
1759 2089
1759 2094
1759 2418
1759 2749
1759 2824
1759 2891
1759 3054
1759 3093
1759 3227
1759 3802
1759 4515
1759 4949
1759 4992
1760 2232
1760 3055
1760 4259
1760 4463
1761 2521
1761 2733
1761 3547
1761 4191
1761 4889
1762 2438
1762 2456
1762 2480
1762 2806
1762 2941
1762 3070
1762 3200
1762 3248
1762 3286
1762 3336
1762 3414
1762 4116
1762 4554
1763 2012
1763 2265
1763 2318
1763 2492
1763 2507
1763 2778
1763 2902
1763 3028
1763 3118
1763 3323
1763 3751
1763 3818
1763 4904
1764 1781
1764 2120
1764 2321
1764 3281
1764 3807
1764 4327
1764 4569
1764 4618
1764 4710
1765 1825
1765 2088
1765 2198
1765 2202
1765 2233
1765 2265
1765 2596
1765 2808
1765 3003
1765 3039
1765 3440
1765 3841
1765 3842
1765 4019
1765 4239
1765 4254
1765 4377
1766 1879
1766 1893
1766 1990
1766 2116
1766 2265
1766 2409
1766 2781
1766 2920
1766 3001
1766 3277
1766 3771
1766 3783
1766 4319
1766 4526
1767 1888
1767 2183
1767 2683
1767 2688
1767 4234
1767 4430
1767 4462
1767 4716
1767 4738
1767 4798
1768 2750
1768 2755
1768 2814
1768 2836
1768 2868
1768 2940
1768 3796
1768 3818
1768 4248
1768 4281
1768 4473
1768 4527
1768 4714
1769 2071
1769 2147
1769 2177
1769 2881
1769 2891
1769 3074
1769 3083
1769 3958
1769 4367
1769 4520
1769 4605
1769 4818
1770 1784
1770 1903
1770 2807
1770 2882
1770 2899
1770 3289
1770 3841
1770 4248
1770 4473
1770 4651
1770 4861
1771 2331
1771 2517
1771 2536
1771 2590
1771 3033
1771 3506
1771 4366
1771 4724
1772 2090
1772 2275
1772 2293
1772 3116
1772 3129
1772 3359
1772 3378
1772 3508
1772 3549
1772 4228
1772 4284
1772 4540
1772 4598
1772 4692
1772 4736
1773 1872
1773 2093
1773 2439
1773 2636
1773 2768
1773 3136
1773 3292
1773 4456
1773 4656
1774 1781
1774 2077
1774 2090
1774 2120
1774 2550
1774 2702
1774 2794
1774 2824
1774 2862
1774 2913
1774 2970
1774 3264
1774 3410
1774 3534
1774 4101
1774 4301
1774 4362
1774 4966
1775 1965
1775 1982
1775 1988
1775 1994
1775 2022
1775 2429
1775 2597
1775 2623
1775 2774
1775 2809
1775 2853
1775 2869
1775 2991
1775 3217
1775 3218
1775 3413
1775 3469
1775 3476
1775 3478
1775 3552
1775 3561
1775 3578
1775 3613
1775 3696
1775 3776
1775 4023
1775 4032
1775 4074
1775 4467
1775 4634
1775 4858
1775 4897
1776 2325
1776 2517
1776 2632
1776 2736
1776 3033
1776 3331
1776 3333
1777 2069
1777 2110
1777 2180
1777 2272
1777 2589
1777 2666
1777 3058
1777 3126
1777 3222
1777 3296
1777 3781
1777 4175
1777 4364
1777 4702
1777 4839
1778 1813
1778 2071
1778 2186
1778 2770
1778 3083
1778 3282
1778 4097
1778 4588
1779 2108
1779 2128
1779 2395
1779 2969
1779 3397
1779 3555
1779 3577
1779 4251
1779 4289
1779 4324
1779 4853
1779 4937
1780 2328
1780 2414
1780 2473
1780 2633
1780 2645
1780 3139
1780 3261
1780 3304
1780 4616
1780 4934
1781 1792
1781 1847
1781 1851
1781 2050
1781 2090
1781 2255
1781 2290
1781 2504
1781 2519
1781 2566
1781 2571
1781 2634
1781 2673
1781 2722
1781 2728
1781 2851
1781 2886
1781 3108
1781 3442
1781 3549
1781 3563
1781 3677
1781 3725
1781 3735
1781 3974
1781 4228
1781 4310
1781 4354
1781 4400
1781 4460
1781 4532
1781 4540
1781 4653
1781 4691
1781 4948
1782 1847
1782 2217
1782 2582
1782 3236
1782 3359
1782 3678
1782 3970
1782 4228
1782 4272
1782 4341
1783 2249
1783 2256
1783 2290
1783 2465
1783 2607
1783 2671
1783 2818
1783 4332
1783 4457
1784 1816
1784 1903
1784 2042
1784 2076
1784 2086
1784 2184
1784 2781
1784 2882
1784 2940
1784 3290
1784 3421
1784 4132
1784 4155
1784 4987
1784 4993
1785 2193
1785 2607
1785 2862
1785 3460
1785 3824
1785 4174
1785 4362
1785 4554
1785 4865
1785 4918
1785 4998
1786 1816
1786 1843
1786 1938
1786 2184
1786 2198
1786 2318
1786 2901
1786 2911
1786 2946
1786 2974
1786 2984
1786 3051
1786 3415
1786 3777
1786 3818
1786 3845
1786 3866
1786 4019
1786 4050
1786 4409
1786 4861
1786 4993
1787 1836
1787 1988
1787 1994
1787 1999
1787 2034
1787 2623
1787 2809
1787 2811
1787 2829
1787 3011
1787 3066
1787 3105
1787 3271
1787 3344
1787 3410
1787 3470
1787 3488
1787 3613
1787 3624
1787 3669
1787 3716
1787 4403
1787 4577
1787 4683
1787 4713
1787 4773
1787 4897
1787 4930
1788 1893
1788 2138
1788 2265
1788 2675
1788 3293
1788 3415
1788 3488
1788 3959
1788 4183
1788 4473
1788 4811
1789 1808
1789 2247
1789 2894
1789 2927
1789 3078
1789 3231
1789 3533
1789 3649
1789 3670
1789 4010
1789 4179
1789 4983
1790 1802
1790 1990
1790 2012
1790 2318
1790 2748
1790 2769
1790 2808
1790 2882
1790 3028
1790 3293
1790 3766
1790 4380
1791 1819
1791 1845
1791 1863
1791 1932
1791 1951
1791 1961
1791 2091
1791 2094
1791 2147
1791 2215
1791 2891
1791 3167
1791 3211
1791 3584
1791 3867
1791 4051
1791 4212
1791 4245
1791 4367
1791 4421
1791 4541
1791 4559
1791 4605
1791 4807
1792 1818
1792 2693
1792 3037
1792 3506
1792 3970
1792 4138
1792 4310
1793 1863
1793 2091
1793 2094
1793 2205
1793 2215
1793 2309
1793 3905
1793 4541
1794 1800
1794 1861
1794 2094
1794 2200
1794 2529
1794 2598
1794 2624
1794 2662
1794 2747
1794 2806
1794 2990
1794 3164
1794 3275
1794 3466
1794 3611
1794 3655
1794 3800
1794 3827
1794 3924
1794 3980
1794 4031
1794 4425
1794 4601
1794 4901
1795 2109
1795 2509
1795 2573
1795 2707
1795 3148
1795 3505
1795 3594
1795 4141
1795 4557
1795 4797
1796 2249
1796 2444
1796 2970
1796 3037
1796 3779
1796 4052
1796 4138
1796 4252
1796 4293
1796 4493
1796 4619
1796 4744
1797 1898
1797 1960
1797 2288
1797 2295
1797 2314
1797 2347
1797 3177
1797 3265
1797 3294
1797 3782
1797 4287
1797 4451
1797 4705
1798 1858
1798 1924
1798 1971
1798 2261
1798 2968
1798 3100
1798 3231
1798 3965
1798 4010
1798 4353
1799 2892
1799 3794
1799 4010
1799 4164
1799 4179
1799 4209
1799 4350
1800 2385
1800 2414
1800 2488
1800 2583
1800 2598
1800 2875
1800 3243
1800 4111
1800 4402
1800 4561
1801 1878
1801 2094
1801 2211
1801 2770
1801 2881
1801 2891
1801 2967
1801 3780
1801 3801
1801 3856
1801 3867
1801 3882
1801 4097
1801 4142
1801 4352
1801 4559
1801 4664
1801 4818
1801 4874
1801 4973
1802 1938
1802 2485
1802 2507
1802 2750
1802 2769
1802 2777
1802 2781
1802 3001
1802 3028
1802 3149
1802 3290
1802 3466
1802 3796
1802 3902
1802 3907
1802 3959
1802 4050
1802 4091
1802 4132
1802 4155
1802 4263
1802 4409
1802 4691
1802 4836
1802 4863
1803 2432
1803 2564
1803 2693
1803 3030
1803 4138
1803 4293
1803 4301
1803 4330
1803 4460
1804 2126
1804 2610
1804 2656
1804 2796
1804 2879
1804 3160
1804 3207
1804 3457
1804 3712
1804 3913
1804 3962
1804 4074
1804 4775
1804 4951
1805 2164
1805 2185
1805 2550
1805 2675
1805 3119
1805 3140
1805 3351
1805 4150
1805 4582
1805 4700
1806 1984
1806 2014
1806 2019
1806 2594
1806 2682
1806 3048
1806 3077
1806 3169
1806 3296
1806 3398
1806 4423
1806 4521
1806 4696
1807 2174
1807 2438
1807 3275
1807 3466
1807 3661
1807 3831
1807 4449
1807 4601
1807 4753
1808 2429
1808 2961
1808 3100
1808 3284
1808 3824
1808 3922
1808 3989
1808 4015
1808 4120
1808 4349
1808 4991
1809 1839
1809 1849
1809 1975
1809 1976
1809 2117
1809 2203
1809 2367
1809 2972
1809 2987
1809 2998
1809 3002
1809 3124
1809 3361
1809 3372
1809 3505
1809 3949
1809 4518
1809 4822
1809 4925
1810 1917
1810 2093
1810 2647
1810 2736
1810 3292
1810 3722
1810 4748
1810 4886
1811 2217
1811 2714
1811 2864
1811 2890
1811 3127
1811 3421
1811 3460
1811 3631
1811 3735
1811 4101
1811 4252
1811 4412
1811 4460
1811 4532
1811 4537
1811 4772
1812 2112
1812 2653
1812 3571
1812 3999
1812 4035
1812 4115
1812 4193
1812 4669
1812 4834
1812 4841
1812 4868
1813 1845
1813 1926
1813 1940
1813 1973
1813 2107
1813 2686
1813 2904
1813 2951
1813 3093
1813 3102
1813 3343
1813 3584
1813 3632
1813 3808
1813 3816
1813 4011
1813 4097
1813 4147
1813 4199
1813 4244
1813 4245
1813 4588
1813 4744
1813 4894
1813 4909
1813 4963
1814 1970
1814 2444
1814 2531
1814 2699
1814 2873
1814 3078
1814 3085
1814 3159
1814 3176
1814 3189
1814 3784
1814 3794
1814 3844
1814 3909
1814 4511
1814 4531
1815 1860
1815 2428
1815 2556
1815 3753
1815 4445
1815 4509
1815 4543
1815 4726
1815 4734
1815 4951
1816 2184
1816 2335
1816 2401
1816 2750
1816 2882
1816 3818
1816 4263
1817 2277
1817 3029
1817 3045
1817 3062
1817 3184
1817 3977
1817 4688
1817 4775
1818 2138
1818 2193
1818 2507
1818 2519
1818 2689
1818 2720
1818 2742
1818 2846
1818 3232
1818 3509
1818 4036
1818 4158
1818 4293
1818 4342
1818 4537
1818 4575
1818 4718
1819 1928
1819 1940
1819 2186
1819 2912
1819 2922
1819 2951
1819 3083
1819 3424
1819 3821
1819 3944
1819 4199
1819 4541
1819 4632
1819 4909
1819 4963
1820 1868
1820 1944
1820 1977
1820 1983
1820 2006
1820 2024
1820 2039
1820 2062
1820 2079
1820 2200
1820 2230
1820 2450
1820 2787
1820 2932
1820 2977
1820 2980
1820 3002
1820 3103
1820 3119
1820 3250
1820 3355
1820 3512
1820 3548
1820 3711
1820 3800
1820 3859
1820 3879
1820 3949
1820 3982
1820 4085
1820 4103
1820 4105
1820 4208
1820 4240
1820 4394
1820 4522
1820 4547
1820 4832
1821 1903
1821 1916
1821 1946
1821 1996
1821 2088
1821 2318
1821 2860
1821 2882
1821 3043
1821 3084
1821 3290
1821 3318
1821 3329
1821 3766
1821 3841
1821 3845
1821 4048
1821 4264
1821 4372
1821 4743
1821 4861
1821 4878
1822 1908
1822 2005
1822 2771
1822 2951
1822 2952
1822 3211
1822 3809
1822 3968
1822 4002
1822 4212
1822 4355
1822 4610
1822 4664
1822 4973
1823 2253
1823 2255
1823 2564
1823 2746
1823 2890
1823 3297
1823 3336
1823 3421
1823 4275
1823 4354
1823 4483
1823 4524
1823 4763
1824 2064
1824 2275
1824 2386
1824 2402
1824 2520
1824 2540
1824 2547
1824 2586
1824 2774
1824 3718
1824 4284
1824 4683
1824 4741
1824 4870
1824 4897
1825 2012
1825 2042
1825 2183
1825 2537
1825 2808
1825 2836
1825 2882
1825 2926
1825 3028
1825 3526
1825 3770
1825 4248
1825 4263
1825 4633
1825 4902
1826 1842
1826 2540
1826 2615
1826 3311
1826 3774
1826 4233
1826 4284
1826 4782
1827 2006
1827 2079
1827 2098
1827 2270
1827 2300
1827 2367
1827 2837
1827 2914
1827 2987
1827 3052
1827 3068
1827 3227
1827 3371
1827 3859
1827 3860
1827 4069
1827 4096
1827 4103
1827 4207
1827 4232
1827 4302
1827 4340
1827 4816
1827 4857
1827 4944
1828 2198
1828 2577
1828 2704
1828 3561
1828 3680
1828 4131
1828 4628
1828 4631
1829 1902
1829 2307
1829 2399
1829 2408
1829 2530
1829 2602
1829 2747
1829 3461
1829 4055
1829 4449
1829 4462
1830 1898
1830 2041
1830 2169
1830 2224
1830 2264
1830 2314
1830 2538
1830 2738
1830 2935
1830 2960
1830 3249
1830 3265
1830 3474
1830 3782
1830 3942
1830 4204
1830 4236
1830 4287
1830 4328
1830 4517
1830 4848
1831 1941
1831 2248
1831 2291
1831 2534
1831 2880
1831 2916
1831 3171
1831 3176
1831 3189
1831 3231
1831 3284
1831 3458
1831 3717
1831 3844
1831 3851
1831 3880
1831 3897
1831 4083
1831 4111
1831 4523
1831 4975
1832 1840
1832 2328
1832 2507
1832 2940
1832 4204
1832 4263
1832 4380
1832 4791
1833 1902
1833 2257
1833 2351
1833 2878
1833 3195
1833 3650
1833 3852
1833 4755
1833 4775
1833 4906
1834 1947
1834 2207
1834 2509
1834 2557
1834 3227
1834 3252
1834 3429
1834 3471
1834 3482
1834 3591
1834 3740
1834 4514
1834 4646
1834 4754
1835 2163
1835 2841
1835 2872
1835 2935
1835 3123
1835 3177
1835 3498
1835 3565
1835 3690
1835 3699
1835 3782
1835 4204
1835 4287
1835 4451
1835 4875
1836 1842
1836 2013
1836 2064
1836 2355
1836 2402
1836 2515
1836 2520
1836 2574
1836 2586
1836 2697
1836 2715
1836 2938
1836 2991
1836 3130
1836 3261
1836 3344
1836 3448
1836 3578
1836 3613
1836 3701
1836 3733
1836 3776
1836 3910
1836 4489
1836 4637
1836 4803
1837 1989
1837 2588
1837 2813
1837 2819
1837 3217
1837 3469
1837 3855
1837 4609
1837 4652
1837 4758
1837 4762
1837 4886
1838 2150
1838 2199
1838 2258
1838 2317
1838 2319
1838 3736
1838 4154
1838 4198
1838 4224
1838 4432
1838 4572
1839 1897
1839 2649
1839 2867
1839 3119
1839 3548
1839 4302
1839 4919
1839 4944
1839 4980
1840 2086
1840 2401
1840 2902
1840 3251
1840 3908
1840 3947
1840 4719
1840 4926
1841 2180
1841 2272
1841 2298
1841 2427
1841 2666
1841 2690
1841 2755
1841 2967
1841 3222
1841 4839
1842 1963
1842 2013
1842 2341
1842 2554
1842 2819
1842 2829
1842 3271
1842 3976
1842 4387
1842 4762
1842 4795
1842 4886
1843 2359
1843 2401
1843 2860
1843 3026
1843 3818
1843 4625
1843 4949
1844 1993
1844 2320
1844 2429
1844 2888
1844 2987
1844 4137
1844 4270
1844 4357
1844 4418
1844 4773
1845 1904
1845 2005
1845 2147
1845 2205
1845 2453
1845 2496
1845 2610
1845 2824
1845 2925
1845 3534
1845 3834
1845 3856
1845 3857
1845 4266
1845 4367
1845 4368
1845 4588
1845 4898
1846 2252
1846 2354
1846 2741
1846 2924
1846 3025
1846 3467
1846 3662
1846 3818
1846 4775
1847 1874
1847 2664
1847 2742
1847 3092
1847 3378
1847 3487
1847 3696
1847 4092
1847 4138
1847 4869
1848 1990
1848 2184
1848 2318
1848 2342
1848 2663
1848 2911
1848 2940
1848 3751
1848 3845
1848 3907
1848 4535
1849 1897
1849 2270
1849 2367
1849 3044
1849 3119
1849 3124
1849 3227
1849 3250
1849 3361
1849 3711
1849 3830
1849 3859
1849 3860
1849 3977
1849 4020
1849 4260
1849 4357
1849 4896
1850 2499
1850 2880
1850 2916
1850 3159
1850 3280
1850 3284
1850 3370
1850 3533
1850 3758
1850 3800
1850 3844
1850 4209
1850 4525
1851 2275
1851 2430
1851 2519
1851 2598
1851 3014
1851 3281
1851 3291
1851 3421
1851 3763
1851 4310
1851 4524
1851 4935
1852 2050
1852 2059
1852 2432
1852 2498
1852 2576
1852 2580
1852 2740
1852 2852
1852 2933
1852 3293
1852 3380
1852 3555
1852 3560
1852 4161
1852 4330
1852 4479
1852 4482
1852 4494
1853 1872
1853 2261
1853 2571
1853 2877
1853 2993
1853 3159
1853 3202
1853 3280
1853 3284
1853 3880
1853 3940
1853 3996
1853 4010
1853 4349
1853 4511
1853 4523
1854 1937
1854 2188
1854 2252
1854 2386
1854 2597
1854 2621
1854 2663
1854 2700
1854 2701
1854 2738
1854 2819
1854 2838
1854 2853
1854 3261
1854 3386
1854 3399
1854 3437
1854 3476
1854 3512
1854 3523
1854 3569
1854 3655
1854 3759
1854 3974
1854 4065
1854 4567
1854 4634
1854 4773
1854 4787
1855 2724
1855 2741
1855 2751
1855 2785
1855 3160
1855 3260
1855 3596
1855 3650
1855 4218
1855 4920
1856 2051
1856 2103
1856 2610
1856 2729
1856 2775
1856 3112
1856 3560
1856 3915
1856 4247
1856 4282
1856 4570
1856 4622
1856 4629
1857 1977
1857 2079
1857 2783
1857 2929
1857 2972
1857 3124
1857 3227
1857 3422
1857 3548
1857 4203
1857 4207
1857 4670
1858 2043
1858 2261
1858 2885
1858 2920
1858 3280
1858 3284
1858 3308
1858 3363
1858 3435
1858 3715
1858 3851
1858 3866
1858 3988
1858 4039
1858 4288
1858 4757
1858 4991
1859 1977
1859 1993
1859 2098
1859 2475
1859 2837
1859 2996
1859 3124
1859 3843
1859 4096
1859 4137
1859 4511
1859 4673
1859 4830
1859 4925
1860 2052
1860 3081
1860 4509
1860 4543
1860 4726
1860 4734
1861 3643
1861 3928
1861 4616
1861 4696
1862 1995
1862 2663
1862 3271
1862 3367
1862 3488
1862 3624
1862 3816
1862 4233
1862 4598
1863 1865
1863 2071
1863 2228
1863 2824
1863 2881
1863 2891
1863 2951
1863 3033
1863 3083
1863 3119
1863 3388
1863 3883
1863 3958
1863 4011
1863 4142
1863 4286
1863 4515
1863 4941
1863 4981
1864 2350
1864 2461
1864 2614
1864 2628
1864 2723
1864 2907
1864 2934
1864 2995
1864 3274
1864 3393
1864 3886
1864 3901
1864 4037
1864 4140
1864 4152
1864 4455
1864 4505
1864 4545
1864 4658
1864 4899
1865 1928
1865 2107
1865 2147
1865 2881
1865 2952
1865 3343
1865 3599
1865 3882
1865 4559
1865 4788
1866 2131
1866 2270
1866 2340
1866 2888
1866 3119
1866 3372
1866 3879
1866 4069
1866 4477
1866 4830
1866 4919
1866 4944
1867 1962
1867 2460
1867 2473
1867 2670
1867 2674
1867 2806
1867 3221
1867 3495
1867 3703
1867 3893
1867 3981
1867 4396
1867 4644
1867 4696
1867 4934
1867 4965
1868 2203
1868 2783
1868 4301
1868 4357
1868 4828
1869 1990
1869 2076
1869 2212
1869 2265
1869 2507
1869 3329
1869 3670
1869 4380
1869 4926
1870 2115
1870 2134
1870 2148
1870 2620
1870 2631
1870 2651
1870 3188
1870 3694
1870 3849
1870 4778
1870 4798
1871 2116
1871 2181
1871 2397
1871 2719
1871 2879
1871 2984
1871 3010
1871 3110
1871 3209
1871 3214
1871 3435
1871 3521
1871 4458
1871 4775
1871 4810
1872 1873
1872 2132
1872 2149
1872 2261
1872 2311
1872 2365
1872 2499
1872 2699
1872 2873
1872 2968
1872 3013
1872 3076
1872 3100
1872 3231
1872 3232
1872 3266
1872 3280
1872 3284
1872 3417
1872 3428
1872 3622
1872 3668
1872 3861
1872 3928
1872 3940
1872 4083
1872 4288
1872 4371
1872 4618
1872 4943
1873 1933
1873 2209
1873 2386
1873 3060
1873 3253
1873 3469
1873 3488
1873 3512
1873 3823
1873 4023
1873 4577
1874 2073
1874 2217
1874 2255
1874 2346
1874 2356
1874 2406
1874 2465
1874 2565
1874 2916
1874 3563
1874 3577
1874 3646
1874 3677
1874 3735
1874 3750
1874 3755
1874 3798
1874 4160
1874 4331
1874 4412
1874 4413
1874 4573
1874 4692
1874 4935
1875 1922
1875 2144
1875 2612
1875 3427
1875 3468
1875 4037
1875 4202
1875 4667
1875 4749
1875 4923
1876 1886
1876 1949
1876 1991
1876 2149
1876 2678
1876 2684
1876 2741
1876 3181
1876 3229
1876 3341
1876 3373
1876 3456
1876 3581
1876 3662
1876 3803
1876 3870
1876 3997
1876 4608
1876 4775
1876 4812
1876 4880
1877 2081
1877 2312
1877 2661
1877 3758
1877 4118
1877 4513
1877 4655
1877 4766
1877 4929
1877 4978
1878 1883
1878 2102
1878 2428
1878 2549
1878 2824
1878 2881
1878 3366
1878 3969
1878 4125
1879 1907
1879 1990
1879 2007
1879 2086
1879 2281
1879 2310
1879 2951
1879 3736
1879 3841
1879 4264
1879 4281
1879 4791
1879 4862
1879 4863
1879 4878
1879 4987
1880 2397
1880 2532
1880 2698
1880 3087
1880 3806
1880 4143
1880 4501
1881 1892
1881 1991
1881 2162
1881 2311
1881 2472
1881 3027
1881 3176
1881 3363
1881 3419
1881 3854
1881 4263
1881 4991
1882 1908
1882 1951
1882 2094
1882 2177
1882 2460
1882 2777
1882 3769
1882 3821
1882 4094
1882 4199
1882 4605
1882 4789
1883 1908
1883 2071
1883 2151
1883 2604
1883 2756
1883 2881
1883 2951
1883 3093
1883 3599
1883 3648
1883 4367
1884 1989
1884 2067
1884 2209
1884 2396
1884 2402
1884 2540
1884 2820
1884 3478
1884 3550
1884 3578
1884 3716
1884 3855
1884 3910
1884 3972
1884 3993
1884 4128
1884 4652
1884 4773
1884 4907
1885 1965
1885 2191
1885 2579
1885 2636
1885 2647
1885 2720
1885 2911
1885 3110
1885 3292
1885 3728
1885 3922
1886 1892
1886 1979
1886 2056
1886 2176
1886 2248
1886 2684
1886 3207
1886 3491
1886 3630
1886 3634
1886 3913
1886 3962
1886 4951
1887 2402
1887 2534
1887 2540
1887 2586
1887 2813
1887 3091
1887 3660
1887 4467
1887 4697
1887 4803
1887 4906
1887 4985
1888 2183
1888 2196
1888 2240
1888 2283
1888 2287
1888 2413
1888 2612
1888 2642
1888 2683
1888 2759
1888 2802
1888 3242
1888 3305
1888 3350
1888 3439
1888 3452
1888 3462
1888 3490
1888 3767
1888 3921
1888 4093
1888 4169
1888 4234
1888 4273
1888 4316
1888 4375
1888 4398
1888 4430
1888 4490
1888 4578
1888 4602
1888 4716
1888 4742
1888 4777
1888 4828
1888 4921
1889 1892
1889 1933
1889 2124
1889 2176
1889 2784
1889 2820
1889 3015
1889 3197
1889 3514
1889 4054
1889 4530
1889 4775
1890 2577
1890 3024
1890 3672
1890 4628
1890 4631
1890 4661
1891 2476
1891 3313
1891 3527
1891 4102
1891 4107
1891 4491
1891 4967
1891 4984
1891 4990
1892 1923
1892 2037
1892 2149
1892 2181
1892 2752
1892 2775
1892 3015
1892 3373
1892 3737
1892 3754
1892 3865
1892 3884
1892 3892
1892 3913
1892 4241
1892 4982
1893 1907
1893 2007
1893 2212
1893 2265
1893 2507
1893 2769
1893 2773
1893 2882
1893 2902
1893 3001
1893 3028
1893 3179
1893 3289
1893 3323
1893 3494
1893 3602
1893 3706
1893 3947
1893 4241
1893 4281
1893 4625
1893 4659
1893 4884
1894 2547
1894 2991
1894 3046
1894 3121
1894 3587
1894 3774
1894 3810
1894 4090
1894 4689
1894 4758
1894 4803
1894 4886
1895 2063
1895 2118
1895 2963
1895 2994
1895 3040
1895 3269
1895 4102
1895 4120
1895 4127
1895 4326
1896 2045
1896 2126
1896 2175
1896 2247
1896 2719
1896 3056
1896 3096
1896 3214
1896 3630
1896 3634
1896 3962
1896 4008
1896 4837
1897 2098
1897 2230
1897 2300
1897 3860
1897 4096
1897 4441
1897 4924
1897 4944
1898 2041
1898 2163
1898 2200
1898 2209
1898 2224
1898 2264
1898 2295
1898 2361
1898 2420
1898 2538
1898 2698
1898 2703
1898 2705
1898 2731
1898 2872
1898 2935
1898 3102
1898 3123
1898 3265
1898 3268
1898 3394
1898 3699
1898 4204
1898 4234
1898 4287
1898 4340
1898 4451
1898 4512
1898 4875
1899 2161
1899 2250
1899 2258
1899 2319
1899 2322
1899 2696
1899 2722
1899 2901
1899 3707
1899 3775
1899 3874
1899 4198
1899 4461
1899 4779
1899 4864
1900 1958
1900 2391
1900 2645
1900 2763
1900 2965
1900 3139
1900 3248
1900 3445
1900 3693
1900 3917
1900 4596
1900 4616
1900 4627
1900 4796
1901 2636
1901 2647
1901 2669
1901 2736
1901 3167
1901 3292
1901 3644
1901 4135
1901 4414
1902 1919
1902 2181
1902 2277
1902 2354
1902 2848
1902 2874
1902 2900
1902 2976
1902 3195
1902 3285
1902 3592
1902 3741
1902 3762
1902 3846
1902 3925
1902 4053
1902 4054
1902 4298
1902 4348
1902 4775
1902 4813
1902 4917
1903 1907
1903 1936
1903 2077
1903 2086
1903 2088
1903 2198
1903 2358
1903 2532
1903 2776
1903 2778
1903 2781
1903 2814
1903 2911
1903 3001
1903 3011
1903 3039
1903 3289
1903 3290
1903 3770
1903 4050
1903 4071
1903 4132
1903 4219
1903 4254
1903 4264
1903 4507
1903 4659
1903 4814
1903 4918
1903 4987
1904 2094
1904 2107
1904 2456
1904 2771
1904 2824
1904 2951
1904 3780
1904 4002
1904 4039
1904 4097
1904 4142
1904 4199
1904 4286
1904 4440
1904 4483
1905 2153
1905 2733
1905 2945
1905 3049
1905 3547
1906 2116
1906 2181
1906 2684
1906 2784
1906 3096
1906 3900
1906 4564
1906 4750
1906 4775
1907 1936
1907 1980
1907 2184
1907 2341
1907 2500
1907 2546
1907 2760
1907 2946
1907 3172
1907 3179
1907 3289
1907 3290
1907 3538
1907 3771
1907 4050
1907 4155
1907 4507
1907 4844
1907 4862
1908 2071
1908 2089
1908 2102
1908 2205
1908 2228
1908 2476
1908 2753
1908 2799
1908 2807
1908 2824
1908 2952
1908 2960
1908 3211
1908 3599
1908 3780
1908 3801
1908 3926
1908 4051
1908 4142
1908 4145
1908 4147
1908 4440
1908 4874
1908 4934
1908 4941
1909 2502
1909 2542
1909 2568
1909 2864
1909 2970
1909 3191
1909 3379
1909 3395
1909 3432
1909 3441
1909 3582
1909 4111
1909 4226
1909 4315
1909 4374
1909 4424
1909 4426
1909 4500
1909 4503
1909 4638
1909 4960
1910 2746
1910 2827
1910 3063
1910 3239
1910 3534
1910 3637
1910 3723
1910 3764
1910 4156
1910 4301
1910 4460
1910 4795
1911 1926
1911 2083
1911 2106
1911 2299
1911 2748
1911 3295
1911 3743
1911 3869
1911 3978
1911 4063
1911 4109
1911 4235
1911 4347
1911 4366
1911 4534
1911 4606
1911 4690
1911 4752
1911 4825
1912 2642
1912 2744
1912 2802
1912 3223
1912 3484
1912 3794
1912 4241
1912 4375
1912 4490
1912 4526
1913 2031
1913 2383
1913 3023
1913 3196
1913 4280
1913 4301
1913 4683
1913 4744
1914 2127
1914 2134
1914 2148
1914 2381
1914 2419
1914 2651
1914 2692
1914 2796
1914 2917
1914 3483
1914 3562
1914 3849
1914 4151
1914 4227
1914 4675
1914 4717
1914 4727
1914 4792
1914 4888
1915 2084
1915 2823
1915 3338
1915 3468
1915 3524
1915 3590
1915 3820
1915 4296
1915 4603
1915 4881
1915 4976
1916 2012
1916 2750
1916 2986
1916 3415
1916 3533
1916 3818
1916 4155
1916 4473
1916 4902
1917 2135
1917 2847
1917 3136
1917 3248
1917 4168
1917 4748
1918 1965
1918 1990
1918 2042
1918 2086
1918 2202
1918 2265
1918 2808
1918 2940
1918 3149
1918 3295
1918 4183
1918 4659
1918 4902
1919 2197
1919 2252
1919 2831
1919 3062
1919 3490
1919 3514
1919 4025
1919 4813
1920 1927
1920 2048
1920 2084
1920 2135
1920 2420
1920 2491
1920 2523
1920 2715
1920 2786
1920 2788
1920 2790
1920 2825
1920 3338
1920 3524
1920 3590
1920 3820
1920 4296
1920 4308
1920 4385
1920 4603
1920 4731
1920 4881
1920 4976
1921 2116
1921 2354
1921 2893
1921 3015
1921 3056
1921 3070
1921 3075
1921 3155
1921 3197
1921 3207
1921 3360
1921 3650
1921 3691
1921 4042
1921 4374
1921 4856
1922 2144
1922 3427
1922 3747
1922 3948
1922 4329
1922 4397
1922 4667
1922 4749
1922 4905
1923 1933
1923 1977
1923 2116
1923 2354
1923 2684
1923 2711
1923 2834
1923 2900
1923 3075
1923 3125
1923 3200
1923 3320
1923 3675
1923 4047
1923 4126
1923 4714
1923 4755
1924 2065
1924 2166
1924 2886
1924 3533
1924 3690
1924 3945
1924 4708
1925 2951
1925 2960
1925 3125
1925 3231
1925 3856
1925 4147
1925 4819
1926 1934
1926 2157
1926 2462
1926 2748
1926 2934
1926 3295
1926 3869
1926 3978
1926 4235
1926 4347
1926 4390
1926 4536
1927 2358
1927 2375
1927 2454
1927 2582
1927 2671
1927 2705
1927 2714
1927 2746
1927 2903
1927 3196
1927 3352
1927 3421
1927 3447
1927 3549
1927 3637
1927 3778
1927 3822
1927 3828
1927 4052
1927 4327
1927 4334
1927 4407
1927 4477
1927 4548
1928 1973
1928 2016
1928 2107
1928 2244
1928 2365
1928 2405
1928 2951
1928 2952
1928 4050
1928 4058
1928 4094
1929 2044
1929 2114
1929 2164
1929 2273
1929 2424
1929 2550
1929 2677
1929 2678
1929 2709
1929 3375
1929 3583
1929 3685
1929 3751
1929 3894
1929 4274
1929 4389
1929 4582
1929 4674
1929 4694
1929 4705
1929 4794
1929 4817
1930 2719
1930 2844
1930 3110
1930 3193
1930 3285
1930 3929
1930 4462
1930 4466
1930 4751
1930 4846
1930 4951
1931 1982
1931 2176
1931 2684
1931 2724
1931 3200
1931 3411
1931 3514
1931 3674
1931 3870
1931 4751
1931 4775
1931 4796
1931 4837
1931 4856
1932 2499
1932 2892
1932 2974
1932 3013
1932 3189
1932 3203
1932 3284
1932 3335
1932 3370
1932 3533
1932 3709
1932 3794
1932 3922
1932 3929
1932 4209
1932 4529
1932 4612
1933 2126
1933 2528
1933 2656
1933 2672
1933 2741
1933 2841
1933 2879
1933 3096
1933 3521
1933 3752
1933 4007
1933 4714
1933 4880
1933 4920
1934 2083
1934 2157
1934 2458
1934 3743
1934 3753
1934 3869
1934 3978
1934 4235
1934 4363
1934 4534
1934 4606
1935 2181
1935 2563
1935 2611
1935 2845
1935 2861
1935 3099
1935 3240
1935 3249
1935 3353
1935 3611
1935 4133
1935 4499
1935 4916
1936 1975
1936 1983
1936 2063
1936 2066
1936 2097
1936 2238
1936 2841
1936 3233
1936 3272
1936 3342
1936 3937
1936 3950
1936 3991
1936 4120
1936 4127
1936 4250
1936 4452
1936 4594
1936 4967
1937 2550
1937 2947
1937 3151
1937 3202
1937 3345
1937 3607
1937 3682
1937 3844
1937 4164
1937 4511
1938 1996
1938 2353
1938 2466
1938 2531
1938 2776
1938 2836
1938 2986
1938 3112
1938 3149
1938 3300
1938 4155
1938 4219
1938 4264
1938 4380
1938 4535
1939 2171
1939 2382
1939 2407
1939 2522
1939 2640
1939 2687
1939 2936
1939 3036
1939 3136
1939 3544
1939 3667
1939 3955
1939 4201
1939 4620
1939 4630
1939 4829
1939 4890
1939 4912
1939 4970
1940 2891
1940 3171
1940 3263
1940 3882
1940 4051
1940 4147
1940 4488
1941 2022
1941 2132
1941 2311
1941 2463
1941 2877
1941 3013
1941 3159
1941 3176
1941 3283
1941 3284
1941 3576
1941 3642
1941 3704
1941 3778
1941 3844
1941 3916
1941 3922
1941 4015
1941 4066
1941 4209
1941 4508
1941 4531
1941 4575
1942 2618
1942 2736
1942 2968
1942 3100
1942 3345
1942 3387
1942 3676
1942 3735
1943 1945
1943 2128
1943 2499
1943 2968
1943 3287
1943 3317
1943 3533
1943 3642
1943 3698
1943 4265
1943 4282
1943 4299
1943 4321
1943 4841
1943 4942
1944 2095
1944 2203
1944 2826
1944 3044
1944 3372
1944 3856
1944 4165
1944 4828
1945 2311
1945 2906
1945 3076
1945 3106
1945 3189
1945 3224
1945 3228
1945 3507
1945 3560
1945 3663
1945 3730
1945 3839
1945 3922
1945 3957
1945 4229
1945 4282
1945 4349
1945 4508
1945 4930
1946 2546
1946 2911
1946 2962
1946 3280
1946 3415
1946 3524
1946 4329
1946 4350
1946 4353
1946 4850
1946 4987
1947 2215
1947 2749
1947 2777
1947 2891
1947 2960
1947 3857
1947 4244
1947 4355
1947 4367
1948 3102
1948 3119
1948 3133
1948 3860
1948 4137
1948 4165
1948 4178
1948 4260
1948 4357
1948 4637
1948 4831
1949 2045
1949 2247
1949 2719
1949 2727
1949 2874
1949 3118
1949 3741
1949 3997
1949 4891
1950 1985
1950 2066
1950 2097
1950 2193
1950 2210
1950 2272
1950 2476
1950 2627
1950 2751
1950 2963
1950 2991
1950 3047
1950 3269
1950 3272
1950 3384
1950 3737
1950 3952
1950 4003
1950 4027
1950 4113
1950 4221
1950 4243
1950 4319
1950 4325
1950 4452
1950 4493
1950 4959
1950 4967
1950 4974
1950 4994
1951 2186
1951 2422
1951 2771
1951 2824
1951 2891
1951 2912
1951 2951
1951 3343
1951 3366
1951 3424
1951 3584
1951 3780
1951 3956
1951 4002
1951 4011
1951 4051
1951 4520
1951 4605
1952 1976
1952 1981
1952 1993
1952 2168
1952 2172
1952 2189
1952 2210
1952 2238
1952 2601
1952 2629
1952 2867
1952 2963
1952 3711
1952 3937
1952 3991
1952 4049
1952 4113
1952 4127
1952 4243
1952 4466
1952 4990
1953 2068
1953 2078
1953 2599
1953 3689
1953 3704
1953 4076
1953 4152
1953 4613
1953 4614
1953 4640
1953 4642
1954 2336
1954 2531
1954 2916
1954 3266
1954 3758
1954 3851
1954 4288
1954 4350
1955 2214
1955 2275
1955 2391
1955 2555
1955 2582
1955 3300
1955 3359
1955 4033
1955 4331
1955 4796
1956 2205
1956 2228
1956 2897
1956 2959
1956 3083
1956 3093
1956 3599
1956 3821
1956 3926
1956 4058
1956 4148
1956 4814
1956 4875
1957 2116
1957 2878
1957 3056
1957 3096
1957 3125
1957 3160
1957 3195
1957 3200
1957 3550
1957 4775
1958 2050
1958 2607
1958 3019
1958 4017
1958 4246
1958 4706
1958 4789
1959 2095
1959 2194
1959 2272
1959 2551
1959 2666
1959 2822
1959 3550
1959 4258
1959 4839
1960 2109
1960 2266
1960 3144
1960 3493
1960 4080
1960 4359
1960 4368
1960 4709
1960 4876
1961 2005
1961 2177
1961 2205
1961 2217
1961 2333
1961 2422
1961 2749
1961 2771
1961 3380
1961 3599
1961 3895
1961 4016
1961 4097
1961 4142
1961 4147
1961 4251
1961 4355
1961 4515
1962 2378
1962 2598
1962 2674
1962 2806
1962 3175
1962 3661
1962 4425
1963 2170
1963 2516
1963 2846
1963 3589
1963 4092
1963 4252
1963 4253
1963 4368
1963 4498
1964 2271
1964 2638
1964 2939
1964 3107
1964 4032
1964 4154
1964 4353
1964 4709
1964 4786
1964 4791
1965 1980
1965 2318
1965 2537
1965 2713
1965 2808
1965 2882
1965 2940
1965 2962
1965 2971
1965 2986
1965 3051
1965 3179
1965 3771
1965 4254
1965 4862
1965 4938
1966 2223
1966 2306
1966 2518
1966 2620
1966 2821
1966 3593
1966 3594
1966 4124
1966 4306
1966 4600
1966 4649
1967 2123
1967 2524
1967 2685
1967 2961
1967 3082
1967 4104
1967 4378
1967 4632
1967 4662
1967 4677
1967 4788
1967 4843
1967 4866
1968 2056
1968 2116
1968 2149
1968 3125
1968 3650
1968 4458
1968 4715
1968 4846
1968 4856
1969 2618
1969 2699
1969 2873
1969 3189
1969 3202
1969 3231
1969 3409
1969 3533
1969 4015
1969 4164
1969 4257
1969 4924
1970 1992
1970 2699
1970 2840
1970 2937
1970 3202
1970 3287
1970 3506
1970 3897
1970 3973
1970 3988
1970 4133
1970 4164
1970 4410
1970 4531
1970 4553
1971 2894
1971 2910
1971 3189
1971 3533
1971 3670
1971 3844
1971 3957
1971 4288
1971 4299
1971 4350
1971 4380
1971 4523
1972 2101
1972 2192
1972 2474
1972 2548
1972 2966
1972 3231
1972 3961
1972 3990
1972 3992
1972 4076
1972 4123
1972 4360
1972 4365
1972 4813
1973 2094
1973 2147
1973 2177
1973 2824
1973 2881
1973 2925
1973 3054
1973 3868
1973 3882
1973 4355
1973 4674
1974 2271
1974 2410
1974 2434
1974 2460
1974 2510
1974 2645
1974 2670
1974 2755
1974 2812
1974 3248
1974 3290
1974 3334
1974 3349
1974 3557
1974 3632
1974 4396
1974 4447
1974 4521
1974 4599
1974 4643
1974 4644
1974 4990
1975 2230
1975 2288
1975 2300
1975 2987
1975 3119
1975 3361
1975 4203
1976 2057
1976 2084
1976 2172
1976 2210
1976 2376
1976 3269
1976 3527
1976 3844
1976 4221
1976 4965
1976 4979
1977 2039
1977 2320
1977 2374
1977 2562
1977 2833
1977 2857
1977 2980
1977 2987
1977 3090
1977 3976
1977 4637
1977 4837
1977 4859
1977 4915
1978 2176
1978 2252
1978 2784
1978 3634
1978 3650
1978 4355
1978 4695
1978 4879
1978 4982
1979 2181
1979 2272
1979 2277
1979 2673
1979 2855
1979 2879
1979 4564
1979 4769
1980 2100
1980 2335
1980 2507
1980 2968
1980 2974
1980 3149
1980 3251
1980 3711
1980 3841
1980 4508
1981 1983
1981 2057
1981 2162
1981 3212
1981 3313
1981 3371
1981 3527
1981 4581
1981 4990
1982 2003
1982 2588
1982 2663
1982 2694
1982 2712
1982 3143
1982 3217
1982 3220
1982 3367
1982 3477
1982 3531
1982 3836
1982 4390
1982 4670
1982 4697
1982 4809
1982 4886
1982 4891
1983 2097
1983 2210
1983 2297
1983 2339
1983 2629
1983 2756
1983 2959
1983 3025
1983 3204
1983 3492
1983 3941
1983 3982
1983 4049
1983 4107
1983 4197
1983 4326
1983 4785
1984 2414
1984 2510
1984 2887
1984 3070
1984 3117
1984 3164
1984 3423
1984 3563
1984 3664
1984 4016
1984 4055
1984 4462
1985 2162
1985 2251
1985 2297
1985 2947
1985 3313
1985 4319
1985 4322
1985 4990
1986 2077
1986 2702
1986 2720
1986 3037
1986 3377
1986 4139
1986 4163
1986 4540
1986 4576
1986 4736
1987 1997
1987 2480
1987 2575
1987 2674
1987 3196
1987 3701
1987 4554
1987 4601
1988 2402
1988 2578
1988 2579
1988 2801
1988 2809
1988 2811
1988 3050
1988 3145
1988 3448
1988 3696
1988 4318
1988 4904
1989 1994
1989 2179
1989 2663
1989 2738
1989 2813
1989 3000
1989 3187
1989 3217
1989 3271
1989 3497
1989 4684
1989 4713
1989 4768
1990 1996
1990 2265
1990 2310
1990 2381
1990 2466
1990 2537
1990 2677
1990 2778
1990 2798
1990 2808
1990 2814
1990 2860
1990 2876
1990 2896
1990 2902
1990 2903
1990 2907
1990 2911
1990 2940
1990 2946
1990 2962
1990 3028
1990 3039
1990 3172
1990 3179
1990 3290
1990 3293
1990 3318
1990 3415
1990 3751
1990 3771
1990 3845
1990 3899
1990 3907
1990 3959
1990 4000
1990 4088
1990 4132
1990 4409
1990 4527
1990 4535
1990 4659
1990 4713
1990 4768
1990 4844
1990 4850
1990 4884
1990 4902
1990 4918
1990 4926
1991 2037
1991 2045
1991 2263
1991 2924
1991 3650
1991 3962
1991 4161
1991 4592
1991 4951
1991 4969
1992 2022
1992 2248
1992 2311
1992 2336
1992 2349
1992 2618
1992 2880
1992 2910
1992 3076
1992 3202
1992 3435
1992 3600
1992 3638
1992 3698
1992 3784
1992 3989
1992 4815
1993 2996
1993 3044
1993 3250
1993 3800
1993 3843
1993 4103
1993 4208
1993 4816
1993 4854
1994 2017
1994 2220
1994 2520
1994 2991
1994 4544
1994 4989
1995 2290
1995 2691
1995 2915
1995 3077
1995 3817
1995 4089
1995 4158
1995 4301
1995 4310
1995 4572
1996 2047
1996 2184
1996 2537
1996 2755
1996 2896
1996 2940
1996 3109
1996 3770
1996 3818
1996 4570
1996 4791
1997 2581
1997 2724
1997 2772
1997 3051
1997 3070
1997 3235
1997 3499
1997 3732
1997 3847
1997 4055
1997 4449
1997 4481
1997 4585
1998 2629
1998 3022
1998 3272
1998 3937
1998 3952
1998 4123
1998 4319
1998 4413
1998 4979
1999 2811
1999 2819
1999 3162
1999 3163
1999 4773
1999 4906
2000 2210
2000 2572
2000 3212
2000 3233
2000 3269
2000 3272
2000 4221
2000 4325
2000 4581
2000 4990
2001 2053
2001 2089
2001 2912
2001 2952
2001 3263
2001 3282
2001 3895
2001 3912
2001 4051
2001 4664
2001 4818
2002 2386
2002 2663
2002 2694
2002 2850
2002 2982
2002 3040
2002 3130
2002 3217
2002 3759
2002 3842
2002 4389
2002 4812
2002 4897
2003 2402
2003 2515
2003 2586
2003 3205
2003 3217
2003 3855
2003 4167
2003 4684
2003 4872
2003 4892
2003 4922
2003 4989
2004 2218
2004 2610
2004 2712
2004 2775
2004 2852
2004 3322
2004 3604
2004 3713
2004 4610
2004 4969
2005 2028
2005 2089
2005 2091
2005 2098
2005 2541
2005 2824
2005 2951
2005 2977
2005 3424
2005 3857
2005 3867
2005 4058
2005 4087
2005 4199
2005 4266
2006 2300
2006 2367
2006 2987
2006 3124
2006 3249
2006 3548
2007 2546
2007 2940
2007 3046
2007 3323
2007 3329
2007 4219
2007 4338
2007 4535
2008 2130
2008 2268
2008 2338
2008 2412
2008 2801
2008 3007
2008 3182
2008 3247
2008 3407
2008 3417
2008 3625
2008 4130
2008 4170
2008 4335
2008 4623
2008 4633
2009 2410
2009 2453
2009 2581
2009 2806
2009 3010
2009 3097
2009 3107
2009 3113
2009 3693
2009 4657
2009 4922
2010 2410
2010 2553
2010 2602
2010 2674
2010 2875
2010 3080
2010 4942
2011 2209
2011 2446
2011 2724
2011 2899
2011 2900
2011 2991
2011 3110
2011 3160
2011 3246
2011 3373
2011 3513
2011 4745
2011 4920
2012 2042
2012 2086
2012 2212
2012 2452
2012 2466
2012 2500
2012 2773
2012 2781
2012 2800
2012 2836
2012 2841
2012 3051
2012 3149
2012 3293
2012 3516
2012 3770
2012 4132
2012 4183
2012 4248
2012 4281
2012 4861
2013 2067
2013 2267
2013 2663
2013 2715
2013 2869
2013 2941
2013 3038
2013 3060
2013 3101
2013 3180
2013 3226
2013 3316
2013 3464
2013 3469
2013 3478
2013 3552
2013 3632
2013 3660
2013 3759
2013 4065
2013 4239
2013 4252
2013 4387
2013 4567
2013 4803
2013 4858
2013 4870
2014 2313
2014 2384
2014 2404
2014 2410
2014 2561
2014 2670
2014 3911
2014 4013
2014 4017
2014 4447
2014 4461
2014 4682
2015 2212
2015 2824
2015 2860
2015 3896
2015 3907
2015 4050
2015 4093
2015 4264
2015 4526
2016 2094
2016 2364
2016 2749
2016 2871
2016 3821
2016 3882
2016 3958
2016 4352
2016 4588
2017 2500
2017 2623
2017 2663
2017 3121
2017 3412
2017 4276
2017 4592
2017 4815
2017 4983
2018 2319
2018 2571
2018 2671
2018 3568
2018 4301
2018 4412
2018 4608
2018 4617
2018 4772
2018 4805
2019 2410
2019 2456
2019 3628
2019 4260
2019 4571
2019 4874
2020 2064
2020 2637
2020 2694
2020 3046
2020 3160
2020 3578
2020 3774
2020 3976
2020 4557
2020 4652
2020 4764
2020 4872
2021 2101
2021 2113
2021 2483
2021 2512
2021 2548
2021 2676
2021 3213
2021 3522
2021 3689
2021 3763
2021 4176
2021 4190
2021 4237
2021 4614
2021 4871
2022 2279
2022 2311
2022 2499
2022 3189
2022 4044
2023 2466
2023 2507
2023 2781
2023 2896
2023 3777
2023 3783
2023 3972
2023 4254
2023 4263
2023 4791
2023 4850
2024 2888
2024 2914
2024 2998
2024 4427
2024 4635
2024 4903
2025 2083
2025 2198
2025 2425
2025 2449
2025 2772
2025 3271
2025 3632
2025 4016
2025 4055
2025 4462
2025 4756
2025 4804
2026 2154
2026 2269
2026 2278
2026 3040
2026 3208
2026 3310
2026 4122
2026 4334
2026 4496
2027 2438
2027 2462
2027 2875
2027 3513
2027 3652
2027 4012
2027 4609
2028 2094
2028 2770
2028 2881
2028 3343
2028 4520
2029 2579
2029 2715
2029 3125
2029 3194
2029 3477
2029 3624
2029 4293
2029 4872
2029 4882
2029 4897
2029 4906
2029 4916
2030 2098
2030 2178
2030 2372
2030 2397
2030 2406
2030 2654
2030 3128
2030 3228
2030 3935
2030 3966
2030 4475
2031 2056
2031 2149
2031 2743
2031 2752
2031 2757
2031 2834
2031 2867
2031 2976
2031 3057
2031 3125
2031 3507
2031 3521
2031 3529
2031 3555
2031 3650
2031 3954
2031 4714
2031 4720
2031 4757
2032 2717
2032 3208
2032 4247
2032 4368
2032 4612
2032 4633
2032 4786
2033 2300
2033 2323
2033 2939
2033 2987
2033 3124
2033 3230
2033 3361
2033 4208
2033 4925
2034 2054
2034 2095
2034 2402
2034 2579
2034 2663
2034 2694
2034 3849
2034 4634
2034 4922
2034 4978
2034 4989
2035 2149
2035 2252
2035 2769
2035 2878
2035 3056
2035 3092
2035 3456
2035 3732
2035 4456
2035 4458
2036 2334
2036 2464
2036 2959
2036 3272
2036 3313
2036 4120
2036 4221
2037 2684
2037 2784
2037 3393
2037 3513
2037 3692
2037 3852
2037 4458
2037 4751
2037 4775
2038 2129
2038 2254
2038 2329
2038 2392
2038 2533
2038 2545
2038 2948
2038 3005
2038 3277
2038 3314
2038 3473
2038 3511
2038 3760
2038 3837
2038 4145
2038 4240
2038 4242
2038 4290
2038 4305
2038 4318
2038 4522
2039 2300
2039 3860
2039 3875
2040 2106
2040 2178
2040 2494
2040 2603
2040 2782
2040 3447
2040 4373
2040 4379
2040 4597
2040 4681
2040 4860
2041 3177
2041 3445
2041 3894
2041 4204
2041 4287
2041 4348
2041 4451
2041 4848
2042 2202
2042 2781
2042 2836
2042 2860
2042 2876
2042 3118
2042 3367
2042 3818
2042 3947
2042 4050
2042 4380
2042 4568
2043 2246
2043 2248
2043 2261
2043 2365
2043 2558
2043 2873
2043 2882
2043 2916
2043 3141
2043 3151
2043 3189
2043 3203
2043 3533
2044 2677
2044 2830
2044 3036
2044 3185
2044 4582
2044 4674
2044 4700
2045 2124
2045 2711
2045 2727
2045 2757
2045 2784
2045 2796
2045 3023
2045 3217
2045 3826
2045 3870
2045 3900
2045 4750
2045 4755
2045 4969
2046 2450
2046 2693
2046 2794
2046 2821
2046 3291
2046 3300
2046 3534
2046 3645
2046 4248
2046 4653
2047 2184
2047 2198
2047 2750
2047 2781
2047 2860
2047 2986
2047 3043
2047 3101
2047 3290
2047 3766
2047 3818
2047 4861
2047 4862
2047 4918
2048 2053
2048 2084
2048 2523
2048 2788
2048 2823
2048 2930
2048 3338
2048 3468
2048 3534
2048 3565
2048 4296
2048 4603
2048 4731
2048 4908
2048 4976
2049 2055
2049 2162
2049 2210
2049 2282
2049 2476
2049 2601
2049 2994
2049 3165
2049 3233
2049 3272
2049 3361
2049 3739
2049 3811
2049 3952
2049 4105
2049 4243
2049 4250
2049 4294
2049 4319
2049 4325
2050 2059
2050 2498
2050 2775
2050 2852
2050 2933
2050 3112
2050 3555
2050 3560
2050 4274
2050 4336
2050 4542
2050 4611
2051 2218
2051 2362
2051 2576
2051 2587
2051 2729
2051 2933
2051 3175
2051 3236
2051 3499
2051 3560
2051 3713
2051 3963
2051 4161
2051 4245
2051 4336
2051 4479
2051 4611
2051 4629
2052 3081
2052 3753
2052 4445
2052 4509
2052 4543
2052 4726
2052 4734
2053 2058
2053 2084
2053 2525
2053 2930
2053 3338
2053 3376
2053 3524
2053 4002
2053 4296
2053 4308
2053 4533
2053 4731
2053 4908
2054 2793
2054 2829
2054 2944
2054 3121
2054 3278
2054 3367
2054 3550
2054 3700
2054 3709
2054 3733
2054 4284
2054 4683
2054 4689
2054 4764
2054 4802
2055 2210
2055 2297
2055 2358
2055 2476
2055 2629
2055 3707
2055 4250
2055 4967
2055 4994
2055 4995
2056 2354
2056 2716
2056 2784
2056 2855
2056 2893
2056 3081
2056 3096
2056 3197
2056 3456
2056 3962
2056 4205
2056 4458
2057 2162
2057 2168
2057 2172
2057 2390
2057 3204
2057 3212
2057 3213
2057 3269
2057 3272
2057 3455
2057 3937
2057 3960
2057 4026
2057 4082
2057 4113
2057 4120
2057 4325
2057 4358
2057 4388
2057 4452
2057 4466
2057 4984
2058 2523
2058 2786
2058 2788
2058 2825
2058 2960
2058 4731
2058 4976
2059 2498
2059 2610
2059 2712
2059 2729
2059 2933
2059 3498
2059 3555
2059 3560
2059 4166
2059 4187
2059 4566
2059 4622
2060 2109
2060 2159
2060 2267
2060 2278
2060 2338
2060 3035
2060 3183
2060 3192
2060 3472
2060 3493
2060 3500
2060 4080
2060 4086
2060 4090
2060 4170
2060 4353
2060 4395
2060 4403
2060 4960
2061 2244
2061 2328
2061 2359
2061 2596
2061 2606
2061 3444
2061 3520
2061 3602
2061 3623
2061 4122
2061 4262
2061 4377
2061 4453
2061 4635
2061 4688
2062 2122
2062 2300
2062 2817
2062 3090
2062 3102
2062 3124
2062 3133
2062 3858
2062 3949
2062 4009
2062 4043
2062 4105
2062 4260
2062 4357
2062 4361
2062 4394
2062 4831
2062 4944
2063 2210
2063 2282
2063 2476
2063 2629
2063 2963
2063 2994
2063 3269
2063 3313
2063 3384
2063 3937
2063 4027
2063 4253
2063 4401
2063 4452
2063 4959
2063 4979
2063 4990
2064 2579
2064 2694
2064 2700
2064 2991
2064 3046
2064 3163
2064 3316
2064 3385
2064 3469
2064 3552
2064 3726
2064 4410
2064 4741
2064 4759
2064 4882
2064 4892
2065 2111
2065 2294
2065 2303
2065 2722
2065 3408
2065 3690
2065 3945
2065 4240
2065 4708
2066 2947
2066 2959
2066 3022
2066 3054
2066 3161
2066 3269
2066 3313
2066 3527
2066 3620
2066 3788
2066 4121
2066 4221
2066 4469
2066 4581
2066 4990
2066 4995
2067 2080
2067 2578
2067 3105
2067 3413
2067 3512
2067 4065
2067 4922
2067 4947
2068 2113
2068 2151
2068 2469
2068 2493
2068 2613
2068 2622
2068 2804
2068 2810
2068 3004
2068 3109
2068 3617
2068 4028
2068 4190
2068 4247
2068 4558
2068 4614
2068 4642
2068 4687
2069 2272
2069 2551
2069 2574
2069 3088
2069 3090
2069 3222
2069 3259
2069 3501
2069 3648
2069 4175
2069 4729
2069 4839
2070 2397
2070 2406
2070 3079
2070 3128
2070 3151
2070 3450
2070 3935
2070 4501
2070 4592
2070 4771
2071 2094
2071 2102
2071 2147
2071 2177
2071 2770
2071 2854
2071 2884
2071 3074
2071 3093
2071 3856
2071 3857
2071 3882
2071 3898
2071 4034
2071 4058
2071 4244
2071 4266
2071 4288
2071 4367
2071 4381
2071 4560
2071 4605
2071 4898
2072 2238
2072 2339
2072 2774
2072 2959
2072 3313
2072 3396
2072 4102
2072 4197
2072 4319
2072 4787
2073 2249
2073 2255
2073 2275
2073 2337
2073 2411
2073 2516
2073 3534
2073 3592
2073 3616
2073 3677
2073 3817
2073 4229
2073 4301
2073 4342
2073 4412
2073 4763
2074 2081
2074 2165
2074 2312
2074 3134
2074 3657
2074 4555
2074 4768
2074 4929
2075 2080
2075 2180
2075 2207
2075 2272
2075 2298
2075 2551
2075 2690
2075 2822
2075 3147
2075 3325
2075 3614
2075 3647
2075 3693
2075 3781
2075 4200
2075 4258
2075 4364
2075 4581
2075 4702
2075 4729
2075 4838
2075 4839
2076 2086
2076 2104
2076 2466
2076 2710
2076 2755
2076 2836
2076 2882
2076 3149
2076 3323
2076 4264
2076 4861
2077 2714
2077 2746
2077 2862
2077 2890
2077 3038
2077 3196
2077 3206
2077 3460
2077 3577
2077 3589
2077 3677
2077 4052
2077 4301
2077 4573
2077 4763
2077 4767
2078 2315
2078 2383
2078 2622
2078 2649
2078 2676
2078 3309
2078 3681
2078 4028
2078 4145
2078 4237
2078 4613
2078 4642
2079 2323
2079 2475
2079 2713
2079 2964
2079 2996
2079 3002
2079 3068
2079 3133
2079 3227
2079 3230
2079 3250
2079 3832
2079 3846
2079 3859
2079 3938
2079 3981
2079 4085
2079 4103
2079 4260
2079 4357
2079 4458
2080 2095
2080 2180
2080 2272
2080 2298
2080 2666
2080 2873
2080 3058
2080 3088
2080 3471
2080 3614
2080 3966
2080 4175
2080 4195
2080 4200
2080 4702
2080 4838
2080 4839
2081 2275
2081 2312
2081 2447
2081 3134
2081 3559
2081 3622
2081 3657
2081 4118
2081 4213
2081 4410
2081 4626
2081 4766
2081 4978
2082 2377
2082 2397
2082 2406
2082 2451
2082 2619
2082 2928
2082 3079
2082 3198
2082 3656
2082 4268
2082 4450
2083 2157
2083 2299
2083 2458
2083 2748
2083 2842
2083 2875
2083 3295
2083 3380
2083 3743
2083 3869
2083 3978
2083 4063
2083 4109
2083 4235
2083 4347
2083 4390
2083 4421
2083 4452
2083 4536
2083 4606
2083 4825
2084 2786
2084 2825
2084 2930
2084 3468
2084 3524
2084 3565
2084 3820
2084 3935
2084 4240
2084 4296
2084 4603
2084 4881
2084 4908
2084 4976
2085 2204
2085 2239
2085 2260
2085 2276
2085 2292
2085 2328
2085 2349
2085 2446
2085 2792
2085 3154
2085 3444
2085 4262
2085 4333
2085 4377
2085 4667
2085 4703
2086 2198
2086 2202
2086 2353
2086 2750
2086 2902
2086 2926
2086 2980
2086 3001
2086 3516
2086 3716
2086 3766
2086 3777
2086 3896
2086 3902
2086 4254
2086 4382
2086 4473
2086 4791
2086 4862
2086 4902
2086 4987
2086 4988
2087 2125
2087 2344
2087 2362
2087 2416
2087 2423
2087 2471
2087 2558
2087 2646
2087 2685
2087 2705
2087 2791
2087 3023
2087 3135
2087 3168
2087 4311
2087 4347
2087 4408
2087 4441
2087 4480
2087 4565
2087 4668
2087 4746
2087 4761
2087 4910
2088 2104
2088 2265
2088 2318
2088 2454
2088 2500
2088 2808
2088 3290
2088 4264
2088 4862
2088 4902
2088 4926
2089 2616
2089 2780
2089 2824
2089 2854
2089 3282
2089 3898
2089 3926
2089 4296
2089 4355
2089 4449
2089 4588
2090 2146
2090 2290
2090 2305
2090 2439
2090 2516
2090 3038
2090 3531
2090 3533
2090 4092
2090 4146
2090 4210
2090 4272
2090 4420
2090 4540
2090 4573
2090 4617
2090 4619
2090 4767
2091 2094
2091 2102
2091 2215
2091 2309
2091 2686
2091 2780
2091 2854
2091 2940
2091 2951
2091 3054
2091 3083
2091 3263
2091 3599
2091 3790
2091 3876
2091 3882
2091 3905
2091 4087
2091 4142
2091 4244
2091 4559
2091 4814
2091 4825
2091 4986
2091 4992
2092 2498
2092 2610
2092 2644
2092 2695
2092 2712
2092 2933
2092 3112
2092 3560
2092 3604
2092 4274
2092 4336
2092 4479
2092 4525
2092 4556
2092 4629
2092 4693
2093 2096
2093 2191
2093 2439
2093 2647
2093 2669
2093 2736
2093 2768
2093 3153
2093 3292
2093 3722
2093 4295
2093 4748
2093 4891
2094 2107
2094 2147
2094 2205
2094 2342
2094 2381
2094 2422
2094 2511
2094 2686
2094 2780
2094 2799
2094 2807
2094 2824
2094 2862
2094 2918
2094 2922
2094 2951
2094 2952
2094 3093
2094 3530
2094 3584
2094 3790
2094 3801
2094 3808
2094 3821
2094 3834
2094 3876
2094 3898
2094 4004
2094 4011
2094 4245
2094 4355
2094 4440
2094 4491
2094 4541
2094 4559
2094 4561
2094 4632
2094 4883
2094 4973
2095 2110
2095 2180
2095 2194
2095 2298
2095 2589
2095 2763
2095 2822
2095 3058
2095 3126
2095 3614
2095 3781
2095 4364
2095 4702
2095 4729
2095 4838
2095 4839
2096 2191
2096 2354
2096 2439
2096 2636
2096 2736
2096 3153
2096 3722
2096 4168
2096 4295
2096 4414
2096 4728
2097 2118
2097 2143
2097 2601
2097 2923
2097 3022
2097 3212
2097 3960
2097 4113
2097 4127
2097 4319
2097 4358
2097 4979
2097 4984
2097 4990
2098 2117
2098 2300
2098 2355
2098 2374
2098 2767
2098 2787
2098 2817
2098 2833
2098 2888
2098 2932
2098 2972
2098 3002
2098 3119
2098 3227
2098 3361
2098 3938
2098 3977
2098 4096
2098 4103
2098 4259
2098 4260
2098 4448
2098 4733
2098 4851
2098 4958
2099 2106
2099 2178
2099 2494
2099 2552
2099 3006
2099 3299
2099 3362
2099 3890
2099 4048
2099 4698
2099 4811
2100 2507
2100 2773
2100 2778
2100 2808
2100 2882
2100 2920
2100 2962
2100 2980
2100 4844
2100 4987
2101 2151
2101 2369
2101 2441
2101 2676
2101 3522
2101 4145
2101 4613
2101 4614
2101 4640
2102 2147
2102 2518
2102 2807
2102 3053
2102 3808
2102 3882
2102 4094
2102 4605
2103 2587
2103 2729
2103 2775
2103 2852
2103 2933
2103 3498
2103 3560
2103 3713
2103 4542
2103 4629
2103 4666
2104 2235
2104 2550
2104 2677
2104 2709
2104 3140
2104 3721
2104 4582
2104 4674
2104 4694
2105 2155
2105 2426
2105 2436
2105 2983
2105 3391
2105 3464
2105 4225
2105 4740
2105 4784
2105 4812
2106 2178
2106 2253
2106 2286
2106 2343
2106 2847
2106 3006
2106 3299
2106 3321
2106 3339
2106 3362
2106 3365
2106 3553
2106 3564
2106 3783
2106 3845
2106 3848
2106 4048
2106 4121
2106 4136
2106 4180
2106 4373
2106 4379
2106 4384
2106 4546
2106 4560
2106 4562
2106 4597
2106 4615
2106 4698
2106 4811
2106 4857
2106 4860
2107 2186
2107 2807
2107 2824
2107 3424
2107 3584
2107 3780
2107 3821
2107 3834
2107 3915
2107 4632
2107 4664
2107 4818
2107 4894
2108 2415
2108 2505
2108 3397
2108 3516
2108 4249
2108 4289
2108 4324
2108 4459
2108 4640
2108 4964
2109 2121
2109 2131
2109 2154
2109 2162
2109 2216
2109 2281
2109 2338
2109 2341
2109 2357
2109 2412
2109 2526
2109 2549
2109 2697
2109 3018
2109 3020
2109 3035
2109 3040
2109 3061
2109 3144
2109 3183
2109 3192
2109 3208
2109 3216
2109 3317
2109 3472
2109 3491
2109 3574
2109 4024
2109 4032
2109 4080
2109 4090
2109 4122
2109 4130
2109 4154
2109 4206
2109 4353
2109 4359
2109 4403
2109 4496
2109 4623
2109 4627
2109 4786
2109 4960
2110 2298
2110 2551
2110 2690
2110 2822
2110 3222
2110 3680
2110 4200
2110 4258
2110 4972
2111 2166
2111 2252
2111 2294
2111 2303
2111 2886
2111 3425
2111 3690
2111 4708
2111 4843
2112 2152
2112 2379
2112 2570
2112 2667
2112 3319
2112 3678
2112 3684
2112 3781
2112 3863
2112 3893
2112 3999
2112 4029
2112 4124
2112 4314
2112 4337
2112 4339
2112 4431
2112 4574
2112 4793
2112 4799
2112 4841
2112 4868
2113 2137
2113 2315
2113 2441
2113 2483
2113 2492
2113 2528
2113 2613
2113 3152
2113 3357
2113 3689
2113 3763
2113 4092
2113 4093
2113 4145
2113 4152
2113 4237
2113 4268
2113 4365
2113 4558
2113 4580
2113 4614
2113 4640
2113 4642
2114 2235
2114 2453
2114 2830
2114 3651
2114 3953
2114 4150
2114 4167
2114 4675
2114 4805
2114 4879
2115 2134
2115 2148
2115 2201
2115 2214
2115 2371
2115 2419
2115 2631
2115 2657
2115 2917
2115 2985
2115 3300
2115 3392
2115 3483
2115 3562
2115 3694
2115 4227
2115 4717
2115 4762
2115 4778
2116 2181
2116 2247
2116 2741
2116 2743
2116 2752
2116 2839
2116 2848
2116 2879
2116 2942
2116 3017
2116 3181
2116 3209
2116 3214
2116 3246
2116 3303
2116 3360
2116 3373
2116 3374
2116 3411
2116 3436
2116 3491
2116 3650
2116 3749
2116 3870
2116 3929
2116 3954
2116 3962
2116 4455
2116 4720
2116 4775
2116 4821
2116 4951
2117 2122
2117 2156
2117 2300
2117 2787
2117 2826
2117 2932
2117 2987
2117 3059
2117 3260
2117 3371
2117 3672
2117 3832
2117 3860
2117 4018
2117 4047
2117 4096
2117 4105
2117 4259
2117 4260
2117 4309
2117 4357
2117 4637
2117 4822
2117 4854
2118 2162
2118 2334
2118 2352
2118 2629
2118 3008
2118 3047
2118 3272
2118 3313
2118 3342
2118 3398
2118 3749
2118 3960
2118 4026
2118 4107
2118 4120
2118 4319
2118 4438
2118 4782
2119 2435
2119 2953
2119 2968
2119 3012
2119 3392
2119 3395
2119 3461
2119 3659
2119 3882
2119 3998
2119 4185
2119 4416
2119 4421
2119 4945
2120 2255
2120 2514
2120 2555
2120 2655
2120 2765
2120 3337
2120 3536
2120 3676
2120 3814
2120 3817
2120 3914
2120 3967
2120 4024
2120 4191
2120 4301
2120 4362
2120 4617
2120 4688
2120 4763
2120 4935
2121 2131
2121 2267
2121 2268
2121 2271
2121 2364
2121 3157
2121 3244
2121 3247
2121 3417
2121 3444
2121 3572
2121 3724
2121 4080
2121 4086
2121 4189
2121 4359
2121 4403
2122 2562
2122 2837
2122 2905
2122 3102
2122 3355
2122 3832
2122 3840
2122 4330
2122 4822
2122 4919
2123 2241
2123 2524
2123 3082
2123 3465
2123 3756
2123 4104
2123 4662
2123 4677
2123 4788
2123 4843
2123 4866
2124 2277
2124 2351
2124 2487
2124 2673
2124 2684
2124 2757
2124 3096
2124 3184
2124 3200
2124 3256
2124 3328
2124 3513
2124 3620
2124 3662
2124 3754
2124 3811
2124 3852
2124 3913
2124 4507
2124 4714
2124 4775
2124 4827
2125 2344
2125 2416
2125 2423
2125 2471
2125 2646
2125 2685
2125 2736
2125 2791
2125 3004
2125 3135
2125 3168
2125 3170
2125 3225
2125 3586
2125 3673
2125 4223
2125 4232
2125 4311
2125 4441
2125 4474
2125 4519
2125 4565
2125 4654
2125 4746
2125 4761
2125 4846
2125 4910
2126 2354
2126 2435
2126 2741
2126 3207
2126 3214
2126 3285
2126 3458
2126 3513
2126 3514
2126 3521
2126 3674
2126 3922
2126 4687
2126 4695
2126 4837
2127 2219
2127 2928
2127 2957
2127 3064
2127 3935
2127 4143
2127 4268
2127 4699
2127 4771
2128 2415
2128 2505
2128 2969
2128 3301
2128 3397
2128 3516
2128 3725
2128 4249
2128 4289
2128 4324
2128 4459
2128 4853
2128 4964
2129 2223
2129 2481
2129 2620
2129 2707
2129 3594
2129 3719
2129 4124
2129 4157
2129 4218
2129 4239
2129 4306
2130 2167
2130 2195
2130 2338
2130 2638
2130 3419
2130 4041
2130 4080
2130 4122
2130 4130
2130 4315
2130 4353
2130 4368
2130 4568
2130 4660
2130 4960
2131 2159
2131 2167
2131 2269
2131 2298
2131 2326
2131 3150
2131 3933
2131 4167
2131 4309
2131 4786
2132 2246
2132 2978
2132 3284
2132 3409
2132 3486
2132 3533
2132 3758
2132 3784
2132 3839
2132 3851
2132 4179
2132 4350
2132 4371
2132 4933
2133 2173
2133 2213
2133 2304
2133 2482
2133 2660
2133 4346
2133 4412
2133 4434
2133 4469
2133 4504
2133 4737
2133 4820
2134 2148
2134 2371
2134 2419
2134 2641
2134 2651
2134 2657
2134 2671
2134 2692
2134 2917
2134 3188
2134 3392
2134 3562
2134 3694
2134 3836
2134 4227
2134 4888
2134 4948
2135 2636
2135 2829
2135 3136
2135 3292
2135 4168
2135 4499
2135 4656
2135 4748
2136 2179
2136 2213
2136 2660
2136 2725
2136 3588
2136 3738
2136 4504
2136 4737
2136 4820
2136 4955
2137 2613
2137 3028
2137 4152
2137 4580
2137 4640
2138 2293
2138 2430
2138 2514
2138 3089
2138 3196
2138 3262
2138 3264
2138 3484
2138 3487
2138 3779
2138 3923
2138 4146
2138 4163
2138 4216
2138 4301
2138 4331
2138 4420
2138 4865
2138 4921
2139 2165
2139 2559
2139 2661
2139 3134
2139 3500
2139 4213
2139 4626
2139 4766
2139 4887
2139 4929
2139 4978
2140 2182
2140 2305
2140 2964
2140 3259
2140 3549
2140 3748
2140 4362
2140 4420
2140 4772
2140 4998
2141 2175
2141 2226
2141 2508
2141 2953
2141 3395
2141 3428
2141 3492
2141 3810
2141 4187
2141 4503
2142 2145
2142 2459
2142 2768
2142 3442
2142 3523
2142 4348
2142 4821
2142 4823
2142 4982
2143 2162
2143 2172
2143 2210
2143 2715
2143 3313
2143 3937
2143 4107
2143 4197
2143 4294
2143 4319
2143 4668
2144 2527
2144 2955
2144 3130
2144 3427
2144 3747
2144 4172
2144 4202
2144 4329
2144 4383
2144 4399
2144 4505
2144 4645
2144 4667
2144 4749
2144 4858
2145 2232
2145 2530
2145 4106
2145 4463
2146 2256
2146 2411
2146 2433
2146 2846
2146 2903
2146 3217
2146 3786
2146 3961
2146 4101
2146 4429
2146 4653
2146 4699
2147 2315
2147 2319
2147 2333
2147 2342
2147 2686
2147 2777
2147 2951
2147 2986
2147 3083
2147 3093
2147 3409
2147 3756
2147 3790
2147 3882
2147 3905
2147 3969
2147 4004
2147 4367
2147 4664
2147 4760
2147 4874
2147 4883
2148 2371
2148 2381
2148 2407
2148 2419
2148 2631
2148 2651
2148 2657
2148 2745
2148 2917
2148 3409
2148 3480
2148 3483
2148 3562
2148 3694
2148 4227
2148 4263
2148 4717
2148 4727
2148 4792
2148 4800
2148 4888
2149 2252
2149 2272
2149 2684
2149 2924
2149 2942
2149 2984
2149 3200
2149 3279
2149 3303
2149 3348
2149 3456
2149 3502
2149 3513
2149 3514
2149 3650
2149 3741
2149 3815
2149 3852
2149 3903
2149 3946
2149 4008
2149 4126
2149 4332
2149 4751
2149 4757
2149 4769
2149 4837
2150 2161
2150 2319
2150 2368
2150 2535
2150 2648
2150 4184
2150 4345
2150 4417
2150 4432
2150 4723
2151 2315
2151 2474
2151 2492
2151 2512
2151 2528
2151 2649
2151 2810
2151 3620
2151 4176
2151 4237
2151 4360
2151 4365
2151 4510
2151 4558
2151 4776
2151 4871
2152 2498
2152 2609
2152 3518
2152 3868
2152 3999
2152 4153
2152 4337
2152 4516
2152 4547
2152 4669
2153 2521
2153 2733
2153 2945
2153 2973
2153 3049
2153 3547
2153 3910
2153 4614
2153 4651
2153 4889
2154 2216
2154 2271
2154 2278
2154 2357
2154 2909
2154 3157
2154 4006
2154 4122
2154 4181
2154 4328
2154 4709
2155 2426
2155 2436
2155 2943
2155 2956
2155 2983
2155 3046
2155 3464
2155 3630
2156 2230
2156 2314
2156 2713
2156 2837
2156 2980
2156 3227
2156 3544
2156 3936
2156 3949
2156 4323
2156 4828
2156 4830
2157 2299
2157 2458
2157 2748
2157 2842
2157 3049
2157 3136
2157 3266
2157 3380
2157 3678
2157 3743
2157 3771
2157 3869
2157 3978
2157 4063
2157 4109
2157 4235
2157 4347
2157 4390
2157 4534
2157 4536
2157 4606
2157 4825
2158 2528
2158 2548
2158 2649
2158 3032
2158 3109
2158 3309
2158 3522
2158 4028
2158 4123
2158 4237
2158 4580
2158 4877
2159 2167
2159 2222
2159 2245
2159 2266
2159 2268
2159 2278
2159 2388
2159 2526
2159 2828
2159 2909
2159 3007
2159 3035
2159 3208
2159 3244
2159 3310
2159 3440
2159 3724
2159 4090
2159 4188
2159 4315
2159 4623
2159 4627
2159 4660
2159 4849
2160 2271
2160 2668
2160 2854
2160 3572
2160 3574
2160 4111
2160 4154
2160 4277
2160 4368
2160 4627
2160 4633
2161 2289
2161 2317
2161 2319
2161 2368
2161 2535
2161 2543
2161 2901
2161 3074
2161 3167
2161 3205
2161 3306
2161 3347
2161 3434
2161 3671
2161 3685
2161 3687
2161 3874
2161 4050
2161 4177
2161 4198
2161 4224
2161 4238
2161 4345
2161 4417
2161 4432
2161 4724
2161 4730
2161 4779
2161 4864
2161 4932
2162 2189
2162 2210
2162 2238
2162 2395
2162 2923
2162 3008
2162 3101
2162 3212
2162 3313
2162 3527
2162 3941
2162 4049
2162 4102
2162 4127
2162 4215
2162 4319
2162 4438
2162 4984
2163 2314
2163 2538
2163 2703
2163 2731
2163 3249
2163 3294
2163 3394
2163 4451
2163 4875
2164 2185
2164 2243
2164 2273
2164 2405
2164 2445
2164 2550
2164 2675
2164 2709
2164 2830
2164 2904
2164 3304
2164 3375
2164 3426
2164 3651
2164 3685
2164 3953
2164 4167
2164 4261
2164 4296
2164 4582
2164 4675
2164 4694
2164 4700
2164 4780
2164 4794
2164 4879
2165 2661
2165 2812
2165 3119
2165 4128
2165 4211
2165 4544
2166 2886
2166 3408
2166 3690
2166 4531
2166 4708
2167 2281
2167 3007
2167 3157
2167 3312
2167 3437
2167 3440
2167 4181
2167 4312
2167 4395
2168 2476
2168 2947
2168 2959
2168 2994
2168 3101
2168 3844
2168 4049
2168 4102
2168 4243
2168 4319
2168 4326
2168 4377
2168 4401
2168 4483
2168 4984
2168 4990
2169 2295
2169 2314
2169 2420
2169 2893
2169 3177
2169 3894
2169 4217
2169 4287
2169 4512
2169 4680
2169 4875
2170 2746
2170 2985
2170 3264
2170 3503
2170 3608
2170 3678
2170 3779
2170 3828
2170 4404
2170 4413
2170 4524
2170 4608
2170 4718
2170 4806
2171 2382
2171 2640
2171 2687
2171 3036
2171 3544
2171 4630
2171 4890
2171 4912
2171 4970
2172 2210
2172 2282
2172 2461
2172 3272
2172 3941
2172 3952
2172 4121
2172 4221
2172 4358
2172 4466
2172 4592
2172 4594
2172 4959
2172 4979
2172 4984
2173 2478
2173 2482
2173 2565
2173 2668
2173 3981
2173 4231
2173 4434
2173 4507
2173 4737
2173 4955
2174 2359
2174 2519
2174 2546
2174 2604
2174 2691
2174 2742
2174 2746
2174 2765
2174 3313
2174 3487
2174 3568
2174 3835
2174 4014
2174 4159
2174 4293
2174 4420
2174 4489
2174 4537
2174 4618
2174 4806
2175 2226
2175 2392
2175 2503
2175 2648
2175 2664
2175 2870
2175 2953
2175 3055
2175 3388
2175 3492
2175 3510
2175 3789
2175 3950
2175 3998
2175 4098
2175 4111
2175 4149
2175 4405
2175 4419
2175 4424
2175 4442
2175 4470
2175 4495
2175 4500
2175 4550
2175 4562
2175 4638
2175 4654
2175 4735
2175 4747
2176 2351
2176 2612
2176 2656
2176 2727
2176 2751
2176 2752
2176 2879
2176 2942
2176 3015
2176 3096
2176 3155
2176 3207
2176 3229
2176 3256
2176 3267
2176 3556
2176 3581
2176 3712
2176 3803
2176 3811
2176 3892
2176 3913
2176 3962
2176 4000
2176 4510
2176 4663
2176 4720
2176 4745
2176 4769
2176 4775
2176 4891
2176 4920
2177 2309
2177 2686
2177 2749
2177 2771
2177 2799
2177 2807
2177 2854
2177 2897
2177 2951
2177 2967
2177 3263
2177 3277
2177 3282
2177 3515
2177 3599
2177 3867
2177 3882
2177 3968
2177 4034
2177 4094
2177 4119
2177 4352
2177 4515
2177 4541
2177 4818
2177 4829
2177 4883
2177 4894
2177 4941
2177 4973
2178 2253
2178 2445
2178 2494
2178 2548
2178 2603
2178 2847
2178 3024
2178 3362
2178 3365
2178 3561
2178 3564
2178 3838
2178 3848
2178 4195
2178 4373
2178 4379
2178 4562
2178 4597
2178 4615
2178 4698
2178 4790
2178 4811
2178 4860
2179 2213
2179 2304
2179 2478
2179 2565
2179 2660
2179 2668
2179 3149
2179 3738
2179 4434
2179 4504
2179 4737
2179 4973
2180 2194
2180 2272
2180 2298
2180 2427
2180 2589
2180 2822
2180 2865
2180 2956
2180 3058
2180 3088
2180 3126
2180 3222
2180 3329
2180 3392
2180 3648
2180 3661
2180 3680
2180 3966
2180 4017
2180 4099
2180 4144
2180 4175
2180 4200
2180 4671
2180 4729
2180 4838
2180 4839
2181 2252
2181 2672
2181 2684
2181 2711
2181 2741
2181 2893
2181 3062
2181 3104
2181 3110
2181 3193
2181 3267
2181 3320
2181 3393
2181 3457
2181 3513
2181 3514
2181 3556
2181 3581
2181 3650
2181 3654
2181 3692
2181 3737
2181 3829
2181 3954
2181 3962
2181 3997
2181 4007
2181 4064
2181 4714
2181 4745
2181 4755
2181 4846
2181 4911
2182 2709
2182 3038
2182 3243
2182 3375
2182 3469
2182 3583
2182 3651
2182 3882
2182 4582
2182 4674
2182 4694
2182 4780
2183 2196
2183 2759
2183 2802
2183 3160
2183 3350
2183 3463
2183 3812
2183 4169
2183 4196
2183 4241
2183 4716
2184 2192
2184 2226
2184 2310
2184 2318
2184 2401
2184 2498
2184 2546
2184 2769
2184 2778
2184 2781
2184 2798
2184 2902
2184 2940
2184 3028
2184 3896
2184 4011
2184 4071
2184 4526
2184 4570
2184 4719
2184 4791
2184 4862
2184 4938
2185 3340
2185 3844
2185 4114
2185 4700
2185 4818
2186 2891
2186 2951
2186 2967
2186 3067
2186 3882
2186 3898
2186 3926
2186 4002
2186 4011
2186 4266
2186 4352
2186 4392
2186 4588
2186 4819
2186 4992
2187 2577
2187 2704
2187 3543
2187 3931
2187 4022
2187 4131
2187 4276
2187 4564
2187 4628
2187 4631
2187 4661
2188 2317
2188 2400
2188 2429
2188 2568
2188 2953
2188 2981
2188 3091
2188 3115
2188 4503
2188 4550
2189 2302
2189 3313
2189 4107
2189 4113
2189 4319
2189 4491
2189 4967
2189 4995
2190 2636
2190 2736
2190 3153
2190 3167
2190 3287
2190 3364
2190 3659
2190 3722
2190 3728
2190 3833
2190 3874
2190 4168
2191 2647
2191 2768
2191 3153
2191 3194
2191 3292
2191 3364
2191 3455
2191 3726
2191 3728
2191 4733
2192 2198
2192 2485
2192 2700
2192 2798
2192 2876
2192 2882
2192 2986
2192 3003
2192 3290
2192 3293
2192 3372
2192 3896
2192 4019
2192 4993
2193 2252
2193 2255
2193 2634
2193 2742
2193 3297
2193 3637
2193 4138
2193 4159
2193 4272
2193 4412
2193 4743
2194 2272
2194 2666
2194 2822
2194 2865
2194 3088
2194 3614
2194 3781
2194 4200
2194 4839
2195 2278
2195 2338
2195 2526
2195 2909
2195 2997
2195 3007
2195 3020
2195 3157
2195 3192
2195 3724
2195 4122
2195 4181
2195 4312
2196 2225
2196 2432
2196 2664
2196 2744
2196 2987
2196 3439
2196 3484
2196 3881
2196 3957
2196 4234
2196 4540
2197 2329
2197 2726
2197 2785
2197 3277
2197 3860
2197 4053
2197 4278
2197 4305
2197 4318
2197 4436
2197 4888
2198 2265
2198 2485
2198 2507
2198 2546
2198 2593
2198 2742
2198 2781
2198 2836
2198 2882
2198 2895
2198 2896
2198 2940
2198 3146
2198 3289
2198 3318
2198 3323
2198 3783
2198 3841
2198 3947
2198 3959
2198 4088
2198 4183
2198 4409
2198 4791
2198 4824
2198 4850
2198 4862
2198 4949
2198 4987
2199 2319
2199 2708
2199 2846
2199 3736
2199 3874
2199 4198
2199 4238
2199 4345
2199 4432
2199 4723
2199 4730
2200 2264
2200 2314
2200 3265
2200 4204
2200 4236
2200 4451
2200 4848
2200 4875
2201 2419
2201 2631
2201 2657
2201 4888
2202 2229
2202 2265
2202 2537
2202 2868
2202 2920
2202 3290
2202 3749
2202 3796
2202 3891
2202 4263
2202 4334
2202 4527
2202 4926
2203 2216
2203 2713
2203 2977
2203 3102
2203 3227
2203 3832
2203 3840
2203 3860
2203 3977
2203 4136
2203 4302
2203 4357
2203 4418
2203 4478
2203 4854
2203 4925
2204 2260
2204 2276
2204 2359
2204 2398
2204 2596
2204 2635
2204 2737
2204 4320
2204 4336
2204 4370
2204 4635
2205 2309
2205 2333
2205 2777
2205 2799
2205 2881
2205 2925
2205 3074
2205 3083
2205 3320
2205 3834
2205 3876
2205 3944
2205 3958
2205 4034
2205 4058
2205 4176
2205 4251
2205 4515
2205 4818
2206 2496
2206 2513
2206 2600
2206 2861
2206 3117
2206 3609
2206 4073
2206 4117
2206 4653
2207 2345
2207 2557
2207 3252
2207 3429
2207 3471
2207 3591
2207 3740
2207 4372
2207 4514
2207 4623
2207 4711
2207 4873
2208 2219
2208 2321
2208 2577
2208 2607
2208 2617
2208 2742
2208 2765
2208 2851
2208 2964
2208 3508
2208 3568
2208 3577
2208 3748
2208 4101
2208 4285
2208 4362
2208 4442
2208 4608
2208 4736
2208 4801
2208 4805
2209 2515
2209 2621
2209 3011
2209 3060
2209 3278
2209 3512
2209 3613
2209 3842
2209 4298
2209 4577
2209 4768
2209 4999
2210 2328
2210 2395
2210 2476
2210 2506
2210 2756
2210 2994
2210 3269
2210 3342
2210 3562
2210 3786
2210 3832
2210 4049
2210 4102
2210 4326
2210 4452
2210 4491
2210 4581
2210 4594
2210 4712
2211 2390
2211 2508
2211 2953
2211 2991
2211 3789
2211 4439
2211 4503
2211 4735
2212 2537
2212 2760
2212 2798
2212 2860
2212 2920
2212 2940
2212 3051
2212 3771
2212 3777
2212 3818
2212 3931
2212 4050
2212 4155
2212 4281
2212 4368
2212 4409
2212 4473
2212 4526
2212 4659
2212 4836
2213 2304
2213 2660
2213 4211
2213 4469
2213 4504
2213 4737
2213 4820
2213 4955
2214 2520
2214 2917
2214 3562
2214 4227
2214 4376
2215 2749
2215 2891
2215 2925
2215 3211
2215 3780
2215 3883
2215 4019
2215 4212
2215 4251
2215 4345
2215 4355
2215 4488
2215 4632
2215 4986
2216 2231
2216 2269
2216 2278
2216 2281
2216 2357
2216 2426
2216 2909
2216 3182
2216 3417
2216 4024
2216 4030
2216 4074
2216 4122
2216 4189
2216 4353
2216 4533
2216 4568
2216 4633
2216 4660
2217 2219
2217 2275
2217 2290
2217 2430
2217 2444
2217 2514
2217 2582
2217 2679
2217 2742
2217 2862
2217 2913
2217 3089
2217 3405
2217 3641
2217 3745
2217 4033
2217 4210
2217 4301
2217 4442
2217 4736
2218 2498
2218 2576
2218 2610
2218 2712
2218 2729
2218 2750
2218 2775
2218 3112
2218 3532
2218 3541
2218 3560
2218 4336
2218 4479
2219 2234
2219 2272
2219 2345
2219 2415
2219 2504
2219 2555
2219 2720
2219 3108
2219 3129
2219 3185
2219 3322
2219 3563
2219 3828
2219 4182
2219 4572
2219 4812
2220 2386
2220 2520
2220 2574
2220 2578
2220 2585
2220 2617
2220 2715
2220 2738
2220 2850
2220 2858
2220 3550
2220 3686
2220 3842
2220 4634
2220 4684
2220 4802
2220 4897
2221 2322
2221 2324
2221 2349
2221 2359
2221 2446
2221 2605
2221 2792
2221 3307
2221 3520
2221 4262
2221 4267
2221 4333
2221 4377
2222 3160
2222 3427
2222 4383
2222 4399
2222 4505
2222 4749
2222 4905
2222 4923
2223 2306
2223 2479
2223 2509
2223 2560
2223 2573
2223 2707
2223 2815
2223 3440
2223 3515
2223 3593
2223 3594
2223 3621
2223 4021
2223 4124
2223 4125
2223 4157
2223 4555
2223 4600
2223 4649
2223 4665
2223 4760
2223 4797
2224 2278
2224 2314
2224 2698
2224 2703
2224 2872
2224 3123
2224 4244
2224 4680
2225 2642
2225 2802
2225 3403
2225 3484
2225 3882
2225 3912
2225 4169
2225 4186
2225 4690
2226 2429
2226 3012
2226 3379
2226 3382
2226 3390
2226 3510
2226 3904
2226 4424
2226 4500
2226 4620
2226 4654
2226 4735
2227 2252
2227 2258
2227 2696
2227 2782
2227 3775
2227 4092
2227 4184
2227 4386
2227 4723
2228 2297
2228 2824
2228 2952
2228 2997
2228 3944
2228 4147
2228 4286
2228 4664
2229 2570
2229 2609
2229 3014
2229 3319
2229 3518
2229 3684
2229 4153
2229 4193
2229 4650
2230 2323
2230 2783
2230 2833
2230 2939
2230 2987
2230 3044
2230 3119
2230 3298
2230 3717
2230 3860
2230 4854
2231 2271
2231 2278
2231 2281
2231 3018
2231 3472
2231 4130
2231 4633
2231 4709
2232 2459
2232 2557
2232 2944
2232 4106
2232 4821
2233 2315
2233 2613
2233 2649
2233 3109
2233 3152
2233 3303
2233 4152
2233 4624
2233 4642
2234 2356
2234 2514
2234 2604
2234 2671
2234 2720
2234 2721
2234 2765
2234 3359
2234 3506
2234 4038
2234 4376
2234 4391
2234 4524
2234 4633
2234 4805
2234 4812
2235 2316
2235 2445
2235 2960
2235 3793
2235 3962
2235 4150
2235 4674
2236 2419
2236 2603
2236 2847
2236 3299
2236 3321
2236 3362
2236 3848
2236 4136
2236 4615
2236 4673
2236 4681
2236 4811
2237 2344
2237 2423
2237 2705
2237 3138
2237 3168
2237 3746
2237 4232
2237 4288
2238 2302
2238 2947
2238 3165
2238 3212
2238 3233
2238 4027
2238 4250
2238 4277
2238 4294
2239 2276
2239 2328
2239 2349
2239 2359
2239 2548
2239 3325
2239 3551
2239 3672
2239 4154
2239 4262
2239 4377
2240 2276
2240 2287
2240 2683
2240 2744
2240 3350
2240 4169
2240 4186
2240 4200
2240 4234
2240 4375
2240 4685
2241 3082
2241 3756
2241 4060
2241 4104
2241 4317
2241 4378
2241 4662
2241 4707
2241 4788
2241 4866
2242 2509
2242 2620
2242 2707
2242 3505
2242 3593
2242 3594
2242 3814
2242 3911
2242 4114
2242 4134
2242 4141
2242 4239
2242 4463
2243 2273
2243 2675
2243 3340
2243 3426
2243 3651
2243 3721
2243 4675
2243 4780
2244 2276
2244 2328
2244 2541
2244 2570
2244 3302
2244 3444
2244 3657
2244 4256
2244 4377
2244 4453
2244 4678
2244 4688
2245 2338
2245 2412
2245 2543
2245 2638
2245 3124
2245 3182
2245 3493
2245 4006
2245 4040
2245 4080
2245 4188
2245 4189
2245 4277
2245 4359
2245 4496
2245 4568
2245 4660
2245 4786
2246 2499
2246 2531
2246 2894
2246 2968
2246 3189
2246 3232
2246 3280
2246 3428
2246 3600
2246 3704
2246 3794
2246 3866
2246 3922
2246 4015
2246 4046
2246 4553
2246 4774
2246 4835
2247 2510
2247 2730
2247 2757
2247 2761
2247 2788
2247 2879
2247 2924
2247 3029
2247 3056
2247 3096
2247 3160
2247 3229
2247 3260
2247 3285
2247 3474
2247 3514
2247 3662
2247 3851
2247 3900
2247 4126
2247 4750
2247 4755
2248 2618
2248 3078
2248 3203
2248 3232
2248 3321
2248 3458
2248 3607
2248 4164
2248 4265
2248 4387
2248 4612
2248 4924
2249 2275
2249 2689
2249 2985
2249 3011
2249 3108
2249 3300
2249 3421
2249 3914
2249 4575
2249 4710
2249 4743
2250 2258
2250 2322
2250 2368
2250 2695
2250 2722
2250 3027
2250 3434
2250 3885
2250 4177
2250 4198
2250 4701
2250 4779
2251 2302
2251 2339
2251 2428
2251 2572
2251 2756
2251 2923
2251 3212
2251 3272
2251 3396
2251 4003
2251 4026
2251 4325
2251 4967
2251 4984
2252 2351
2252 2499
2252 2751
2252 2757
2252 2761
2252 2784
2252 2796
2252 2984
2252 3017
2252 3025
2252 3160
2252 3181
2252 3214
2252 3246
2252 3256
2252 3267
2252 3303
2252 3326
2252 3368
2252 3407
2252 3456
2252 3457
2252 3474
2252 3491
2252 3502
2252 3514
2252 3528
2252 3529
2252 3556
2252 3567
2252 3592
2252 3634
2252 3679
2252 3691
2252 3737
2252 3741
2252 3773
2252 3865
2252 3884
2252 3954
2252 4455
2252 4626
2252 4714
2252 4720
2252 4745
2252 4750
2252 4846
2252 4880
2252 4917
2252 4982
2253 2552
2253 3299
2253 3362
2253 3553
2253 4180
2253 4562
2253 4615
2253 4811
2254 2533
2254 2588
2254 3005
2254 4242
2254 4290
2254 4318
2254 4774
2254 4983
2255 2280
2255 2409
2255 2430
2255 2504
2255 2564
2255 2632
2255 2714
2255 2721
2255 2728
2255 2746
2255 2765
2255 2784
2255 2818
2255 2851
2255 2890
2255 3178
2255 3378
2255 3405
2255 3460
2255 3506
2255 3545
2255 3570
2255 3589
2255 3598
2255 3641
2255 3822
2255 3885
2255 4301
2255 4331
2255 4334
2255 4376
2255 4444
2255 4498
2255 4569
2255 4736
2255 4805
2255 4806
2255 4812
2255 4823
2256 2564
2256 2903
2256 3089
2256 3677
2256 3814
2256 4095
2256 4174
2256 4425
2256 4493
2256 4552
2256 4835
2257 2276
2257 2446
2257 2474
2257 2539
2257 2662
2257 3154
2257 3302
2257 3312
2257 3444
2257 4262
2258 2289
2258 2322
2258 2376
2258 2543
2258 2695
2258 2696
2258 2708
2258 2722
2258 2782
2258 2862
2258 3056
2258 3205
2258 3594
2258 3736
2258 3874
2258 3989
2258 4177
2258 4217
2258 4224
2258 4238
2258 4297
2258 4345
2258 4386
2258 4723
2258 4779
2259 2276
2259 2324
2259 2328
2259 2359
2259 2561
2259 2605
2259 2951
2259 3236
2259 3939
2260 2328
2260 2359
2260 2361
2260 2539
2260 2792
2260 2818
2260 3270
2260 3302
2260 3312
2260 3623
2260 3939
2260 4035
2260 4108
2260 4377
2260 4435
2260 4518
2260 4635
2260 4663
2260 4688
2260 4693
2261 2336
2261 2476
2261 2558
2261 2720
2261 3057
2261 3063
2261 3071
2261 3166
2261 3280
2261 3409
2261 3428
2261 3435
2261 3715
2261 3717
2261 3850
2261 3988
2261 4010
2261 4035
2261 4067
2261 4126
2261 4164
2261 4282
2261 4288
2261 4313
2262 2864
2262 3594
2262 3615
2262 3640
2262 4072
2262 4110
2262 4411
2262 4956
2263 2673
2263 2855
2263 3092
2263 3219
2263 3348
2263 3456
2263 3529
2263 3620
2263 3628
2263 3679
2263 3691
2263 3954
2263 4007
2263 4813
2263 4856
2263 4920
2263 4961
2264 2295
2264 2314
2264 2538
2264 2679
2264 2698
2264 3123
2264 3177
2264 3294
2264 4204
2264 4451
2264 4512
2264 4660
2265 2269
2265 2310
2265 2318
2265 2500
2265 2507
2265 2592
2265 2776
2265 2798
2265 2808
2265 2868
2265 2876
2265 2940
2265 2946
2265 2971
2265 2986
2265 3084
2265 3290
2265 3329
2265 3415
2265 3777
2265 3818
2265 3841
2265 3908
2265 3975
2265 4171
2265 4234
2265 4527
2265 4625
2265 4791
2265 4824
2265 4850
2265 4862
2265 4938
2266 2278
2266 3144
2266 3244
2266 3310
2266 3372
2266 3444
2266 3475
2266 4086
2266 4475
2266 4786
2267 2271
2267 2272
2267 3020
2267 3157
2267 3440
2267 3746
2267 3933
2267 4080
2267 4154
2267 4368
2267 4786
2268 3150
2268 3310
2268 4024
2268 4080
2268 4217
2268 4353
2268 4496
2269 2409
2269 2599
2269 3463
2269 4006
2269 4040
2269 4309
2269 4496
2269 4960
2270 2498
2270 2866
2270 3102
2270 3179
2270 3879
2270 3949
2270 3971
2270 3982
2270 4009
2270 4075
2270 4103
2270 4822
2270 4925
2270 4944
2270 4958
2271 2278
2271 2338
2271 2341
2271 2599
2271 3023
2271 3035
2271 3144
2271 3157
2271 3174
2271 3182
2271 3183
2271 3216
2271 3413
2271 3417
2271 3666
2271 4006
2271 4030
2271 4032
2271 4041
2271 4080
2271 4122
2271 4154
2271 4181
2271 4247
2271 4248
2271 4277
2271 4309
2271 4353
2271 4368
2271 4395
2271 4410
2271 4496
2271 4568
2271 4709
2271 4838
2271 4866
2272 2298
2272 2551
2272 2589
2272 2666
2272 2690
2272 2822
2272 2865
2272 3058
2272 3126
2272 3222
2272 3341
2272 3593
2272 3614
2272 3647
2272 3648
2272 3680
2272 3766
2272 3966
2272 4099
2272 4144
2272 4175
2272 4200
2272 4364
2272 4671
2272 4729
2272 4839
2272 4962
2272 4972
2273 2550
2273 3426
2273 4150
2273 4167
2274 2546
2274 2778
2274 2868
2274 3289
2274 3323
2274 3818
2274 3891
2274 4123
2274 4535
2274 4668
2274 4816
2274 4878
2275 2293
2275 2391
2275 2465
2275 2504
2275 2639
2275 2689
2275 2691
2275 2758
2275 2765
2275 2794
2275 3460
2275 3635
2275 3637
2275 3755
2275 3814
2275 3967
2275 4134
2275 4163
2275 4174
2275 4407
2275 4524
2275 4619
2275 4680
2275 4691
2275 4767
2275 4931
2276 2292
2276 2301
2276 2324
2276 2361
2276 2373
2276 2380
2276 2398
2276 2417
2276 2497
2276 2541
2276 2635
2276 2792
2276 3043
2276 3119
2276 3327
2276 3369
2276 3520
2276 3536
2276 3551
2276 3623
2276 3672
2276 3939
2276 4047
2276 4108
2276 4262
2276 4267
2276 4303
2276 4320
2276 4333
2276 4377
2276 4453
2276 4464
2276 4518
2276 4528
2276 4544
2276 4663
2276 4676
2276 4678
2276 4688
2277 2656
2277 2672
2277 2673
2277 2879
2277 2976
2277 3104
2277 3160
2277 3350
2277 3407
2277 3521
2277 3592
2277 3770
2277 3925
2277 3943
2277 4775
2278 2348
2278 2412
2278 2448
2278 2526
2278 2638
2278 3040
2278 3144
2278 3150
2278 3183
2278 3216
2278 3253
2278 3472
2278 3574
2278 3666
2278 4040
2278 4130
2278 4170
2278 4189
2278 4206
2278 4277
2278 4309
2278 4312
2278 4335
2278 4403
2278 4506
2278 4660
2278 4709
2278 4916
2279 2336
2279 2470
2279 2961
2279 2978
2279 3063
2279 3071
2279 3189
2279 3839
2279 3844
2279 3851
2279 4164
2279 4179
2279 4924
2279 4943
2279 4975
2279 4983
2280 2290
2280 2555
2280 2746
2280 2765
2280 3030
2280 3297
2280 3475
2280 3509
2280 3615
2280 3646
2280 4156
2280 4439
2280 4619
2280 4725
2280 4885
2280 4893
2281 2638
2281 3144
2281 3157
2281 3182
2281 3472
2281 3724
2281 4122
2281 4353
2281 4623
2281 4660
2281 4786
2282 2286
2282 2476
2282 3233
2282 3342
2282 3384
2282 3527
2282 3941
2282 4310
2282 4438
2282 4491
2282 4979
2283 2759
2283 3208
2283 3463
2283 4234
2283 4316
2283 4375
2283 4704
2283 4798
2284 3706
2284 3727
2284 3765
2284 4291
2284 4300
2284 4361
2284 4487
2284 4589
2285 2379
2285 2384
2285 2403
2285 2418
2285 2440
2285 2789
2285 3433
2285 3477
2285 3587
2285 3594
2285 3662
2285 4255
2286 2552
2286 3299
2286 4379
2286 4562
2286 4615
2286 4811
2287 2681
2287 3484
2287 3794
2287 4623
2287 4690
2287 4744
2288 2444
2288 3123
2288 3177
2288 3294
2288 4451
2288 4517
2288 4782
2288 4793
2288 4848
2288 4875
2288 4921
2289 2319
2289 2722
2289 2782
2289 2959
2289 3027
2289 3508
2289 3687
2289 3775
2289 3956
2289 4345
2289 4779
2289 4932
2290 2358
2290 2720
2290 2846
2290 2970
2290 3077
2290 3095
2290 3245
2290 3637
2290 3961
2290 4158
2290 4275
2290 4327
2290 4489
2290 4736
2290 4956
2291 2501
2291 3064
2291 3087
2291 3479
2291 3932
2291 4771
2291 4945
2292 2737
2292 3302
2292 3454
2292 4267
2292 4377
2293 2370
2293 2655
2293 2742
2293 2794
2293 2985
2293 3127
2293 3185
2293 3382
2293 3421
2293 3460
2293 3720
2293 3750
2293 3919
2293 4331
2293 4376
2293 4499
2293 4524
2294 2886
2294 3425
2294 3514
2294 3690
2294 4568
2294 4795
2295 2857
2295 3123
2295 3294
2295 4204
2295 4287
2295 4348
2295 4451
2295 4512
2295 4732
2295 4926
2296 2307
2296 2524
2296 3082
2296 3465
2296 3756
2296 4046
2296 4060
2296 4378
2296 4662
2296 4665
2296 4788
2296 4866
2297 2476
2297 2923
2297 2947
2297 2950
2297 2994
2297 3069
2297 3101
2297 3212
2297 3269
2297 3937
2297 3952
2297 3991
2297 4243
2297 4294
2297 4785
2297 4897
2297 4959
2297 4967
2297 4979
2297 4995
2298 2378
2298 2427
2298 2551
2298 2666
2298 2806
2298 2822
2298 2994
2298 4144
2298 4729
2298 4839
2299 2458
2299 2748
2299 2842
2299 3380
2299 3743
2299 3869
2299 3978
2299 4063
2299 4109
2299 4347
2299 4534
2299 4825
2299 4995
2300 2323
2300 2369
2300 2623
2300 2787
2300 2905
2300 2908
2300 2919
2300 2929
2300 2939
2300 2987
2300 2998
2300 3002
2300 3059
2300 3088
2300 3103
2300 3124
2300 3126
2300 3133
2300 3227
2300 3230
2300 3250
2300 3371
2300 3423
2300 3706
2300 3879
2300 3890
2300 3977
2300 3982
2300 4043
2300 4085
2300 4103
2300 4165
2300 4448
2300 4478
2300 4621
2300 4830
2300 4854
2300 4925
2300 4954
2300 4958
2301 2380
2301 2653
2301 2908
2301 3312
2301 3551
2301 4108
2301 4175
2301 4688
2302 3056
2302 3313
2302 3937
2302 3969
2302 4127
2302 4215
2302 4326
2302 4422
2303 2749
2303 2886
2303 3425
2303 3842
2303 4708
2304 2478
2304 2522
2304 2668
2304 2958
2304 3402
2304 4231
2304 4346
2304 4469
2304 4737
2305 2392
2305 2519
2305 2571
2305 2631
2305 2655
2305 2689
2305 2693
2305 2728
2305 2859
2305 2862
2305 2964
2305 3188
2305 3421
2305 3714
2305 3807
2305 3901
2305 3967
2305 4146
2305 4420
2305 4483
2305 4812
2305 4931
2305 4948
2306 2509
2306 2560
2306 2658
2306 3594
2306 3719
2306 4021
2306 4124
2306 4125
2306 4239
2306 4363
2306 4468
2306 4564
2306 4620
2306 4665
2306 4760
2307 2524
2307 3082
2307 3465
2307 3756
2307 4104
2307 4317
2307 4378
2307 4662
2307 4677
2307 4788
2307 4866
2307 4885
2308 2563
2308 2611
2308 2845
2308 2861
2308 2864
2308 3099
2308 3353
2308 3797
2308 4916
2309 2333
2309 2753
2309 2824
2309 2881
2309 3074
2309 3690
2309 3882
2309 3958
2309 4142
2309 4169
2309 4199
2309 4352
2310 2466
2310 2500
2310 2588
2310 2836
2310 3818
2310 3972
2310 4117
2310 4219
2310 4263
2310 4264
2310 4281
2311 2906
2311 2913
2311 2978
2311 3076
2311 3159
2311 3202
2311 3266
2311 3308
2311 3374
2311 3422
2311 3431
2311 3545
2311 3607
2311 3730
2311 3839
2311 3846
2311 3897
2311 3928
2311 3973
2311 3996
2311 4010
2311 4015
2311 4044
2311 4067
2311 4070
2311 4102
2311 4164
2311 4288
2311 4349
2311 4371
2311 4410
2311 4508
2311 4514
2311 4529
2311 4924
2312 2661
2312 3137
2312 3559
2312 3657
2312 4118
2312 4211
2312 4213
2312 4655
2312 4766
2312 4929
2312 4978
2313 2436
2313 2477
2313 2493
2313 2593
2313 2943
2313 2956
2313 2983
2313 3717
2313 4225
2313 4307
2313 4740
2314 2347
2314 2538
2314 3294
2314 3708
2314 3894
2314 4204
2314 4236
2314 4281
2314 4287
2314 4451
2314 4875
2315 2344
2315 2441
2315 2469
2315 2548
2315 2606
2315 2622
2315 2676
2315 2810
2315 3004
2315 3152
2315 3496
2315 3681
2315 3689
2315 4123
2315 4145
2315 4152
2315 4190
2315 4351
2315 4364
2315 4502
2315 4510
2315 4535
2315 4580
2315 4624
2315 4684
2315 4776
2315 4871
2316 2550
2316 3519
2316 3953
2316 4582
2316 4694
2317 2708
2317 3027
2317 4297
2317 4345
2317 4417
2318 2353
2318 2750
2318 2781
2318 2798
2318 2828
2318 2920
2318 2926
2318 2940
2318 2974
2318 3028
2318 3084
2318 3149
2318 3293
2318 3777
2318 3845
2318 3896
2318 3902
2318 4088
2318 4155
2318 4248
2318 4356
2318 4382
2318 4473
2318 4478
2318 4570
2318 4824
2318 4861
2318 4892
2318 4918
2318 4949
2319 2430
2319 2470
2319 2708
2319 2901
2319 3027
2319 3205
2319 3347
2319 3434
2319 3481
2319 3591
2319 3687
2319 3736
2319 3885
2319 4224
2319 4238
2319 4345
2319 4432
2319 4673
2319 4701
2319 4722
2319 4730
2319 4779
2320 2914
2320 2977
2320 3002
2320 3016
2320 3044
2320 3133
2320 3147
2320 3372
2320 3548
2320 3605
2320 4009
2320 4448
2320 4605
2320 4716
2320 4857
2320 4958
2321 2346
2321 2639
2321 3073
2321 4285
2321 4342
2321 4486
2321 4593
2321 4744
2322 2376
2322 2456
2322 2470
2322 2535
2322 2722
2322 2782
2322 2901
2322 3199
2322 3481
2322 3731
2322 4184
2322 4224
2322 4432
2322 4701
2322 4723
2322 4724
2322 4792
2323 2367
2323 2546
2323 2767
2323 2787
2323 2871
2323 2939
2323 2987
2323 3002
2323 3133
2323 3372
2323 3487
2323 3843
2323 3879
2323 4096
2323 4402
2323 4687
2323 4816
2323 4822
2323 4831
2324 2361
2324 2539
2324 3005
2324 3236
2324 3307
2324 3400
2324 3672
2324 4108
2324 4256
2324 4377
2324 4464
2324 4839
2325 2331
2325 2363
2325 2536
2325 2590
2325 2870
2325 3033
2325 3331
2325 3601
2325 4366
2325 4591
2325 4669
2325 4845
2326 2338
2326 3131
2326 3157
2326 3574
2326 3933
2326 4568
2327 2364
2327 2550
2327 2675
2327 2709
2327 2994
2327 3583
2327 3879
2327 3953
2327 4582
2327 4694
2328 2348
2328 2359
2328 2373
2328 2541
2328 2592
2328 2605
2328 2737
2328 2792
2328 3182
2328 3236
2328 3312
2328 3672
2328 4267
2328 4663
2329 2467
2329 2785
2329 3258
2329 3511
2329 4053
2329 4240
2329 4242
2329 4271
2329 4512
2330 2704
2330 2955
2330 4022
2330 4131
2330 4276
2330 4628
2330 4631
2330 4661
2331 2387
2331 2517
2331 2536
2331 2590
2331 2632
2331 2753
2331 2805
2331 2830
2331 2870
2331 3033
2331 3331
2331 3629
2331 4171
2331 4343
2331 4583
2331 4607
2331 4647
2331 4775
2331 4896
2332 3583
2332 3651
2332 4582
2332 4674
2332 4700
2332 4747
2333 3074
2333 3882
2333 4119
2333 4352
2334 2356
2334 2380
2334 2923
2334 3005
2334 3272
2334 3885
2334 3890
2334 4102
2334 4120
2334 4322
2334 4967
2334 4990
2335 2800
2335 2868
2335 2962
2335 2986
2335 3001
2335 3293
2335 3770
2335 3818
2335 4263
2335 4902
2336 2981
2336 3078
2336 3100
2336 3202
2336 3266
2336 3435
2336 3850
2336 3957
2336 4011
2336 4015
2336 4997
2337 2454
2337 2559
2337 2580
2337 3300
2337 3538
2337 3755
2337 4216
2337 4272
2337 4444
2337 4537
2337 4740
2338 2599
2338 2940
2338 3023
2338 4006
2338 4041
2338 4154
2338 4271
2338 4312
2338 4353
2338 4403
2338 4496
2339 2595
2339 2629
2339 3233
2339 3272
2339 3313
2339 3355
2339 3396
2339 3694
2339 4005
2339 4026
2339 4068
2339 4102
2339 4193
2340 2866
2340 4165
2340 4208
2340 4530
2340 4822
2340 4903
2341 3417
2341 4188
2341 4506
2341 4709
2342 2749
2342 2960
2342 3093
2342 3354
2342 3599
2342 3802
2342 4147
2342 4440
2342 4515
2342 4541
2342 4941
2343 2785
2343 2847
2343 2881
2343 3365
2343 3429
2343 3838
2343 4180
2343 4239
2343 4562
2343 4615
2343 4681
2343 4811
2343 4975
2344 2423
2344 2471
2344 2705
2344 3135
2344 3168
2344 3170
2344 3673
2344 3877
2344 4232
2344 4311
2344 4441
2344 4565
2344 4761
2344 4988
2345 2557
2345 3471
2345 3591
2345 4514
2345 4646
2345 4711
2345 4754
2345 4873
2346 2370
2346 2411
2346 2454
2346 2702
2346 2721
2346 2728
2346 2765
2346 2794
2346 2862
2346 2964
2346 3077
2346 3178
2346 3223
2346 3281
2346 3337
2346 3377
2346 3508
2346 3538
2346 3543
2346 3577
2346 3593
2346 3637
2346 3645
2346 3676
2346 3700
2346 3786
2346 3792
2346 3807
2346 4033
2346 4101
2346 4229
2346 4331
2346 4412
2346 4429
2346 4457
2346 4532
2346 4538
2346 4548
2346 4569
2346 4719
2346 4801
2346 4913
2347 2703
2347 3123
2347 3394
2347 3424
2347 3894
2347 4162
2347 4451
2347 4875
2348 3035
2348 3072
2348 3208
2348 3933
2348 4006
2348 4353
2348 4633
2348 4786
2348 4789
2349 2359
2349 2380
2349 2398
2349 2446
2349 2592
2349 3031
2349 3327
2349 3520
2349 3602
2349 3672
2349 4108
2349 4303
2349 4356
2349 4377
2349 4518
2349 4528
2349 4833
2350 2501
2350 2573
2350 2614
2350 2628
2350 2907
2350 2934
2350 2995
2350 3274
2350 4037
2350 4140
2350 4658
2350 4899
2351 2796
2351 2841
2351 3029
2351 3160
2351 3281
2351 3452
2351 3456
2351 3457
2351 3757
2351 3773
2351 4455
2351 4564
2351 4969
2352 2476
2352 3022
2352 3212
2352 3215
2352 3455
2352 4102
2352 4113
2352 4121
2352 4127
2352 4322
2352 4466
2352 4959
2352 4967
2353 2401
2353 2858
2353 2868
2353 2940
2353 3415
2353 4726
2353 4850
2353 4863
2354 2510
2354 2684
2354 2724
2354 2784
2354 2795
2354 2984
2354 3086
2354 3125
2354 3214
2354 3279
2354 3299
2354 3456
2354 3457
2354 3737
2354 3884
2354 4007
2354 4126
2354 4769
2354 4807
2354 4810
2354 4837
2354 4969
2355 3102
2355 3133
2355 3397
2355 4037
2355 4165
2355 4208
2355 4828
2355 4854
2355 4944
2356 2358
2356 2391
2356 2434
2356 2559
2356 2634
2356 2742
2356 4160
2356 4310
2356 4691
2356 4743
2356 4801
2357 2909
2357 3053
2357 3272
2357 4006
2357 4170
2358 2406
2358 2432
2358 2582
2358 3069
2358 3359
2358 3377
2358 3489
2358 3568
2358 3616
2358 3641
2358 3702
2358 4092
2358 4160
2358 4252
2358 4293
2358 4330
2358 4420
2358 4457
2358 4710
2359 2369
2359 2373
2359 2398
2359 2446
2359 2497
2359 2737
2359 2957
2359 3154
2359 3236
2359 3270
2359 3302
2359 3312
2359 3327
2359 3430
2359 3444
2359 3520
2359 3602
2359 4267
2359 4292
2359 4320
2359 4377
2359 4453
2359 4464
2359 4663
2359 4676
2360 2468
2360 2496
2360 2513
2360 2583
2360 2600
2360 3117
2360 3609
2360 4073
2360 4117
2360 4428
2361 2369
2361 2605
2361 2792
2361 3270
2361 3444
2361 3623
2361 4108
2361 4262
2361 4377
2361 4453
2361 4598
2361 4635
2361 4703
2362 2416
2362 2646
2362 3168
2362 3225
2362 4223
2362 4232
2362 4519
2362 4668
2362 4761
2363 2517
2363 2590
2363 2632
2363 3033
2363 3331
2363 3333
2363 4343
2363 4366
2363 4647
2363 4845
2363 4896
2364 2448
2364 2526
2364 3572
2364 3625
2364 4003
2364 4080
2364 4086
2364 4154
2364 4359
2364 4623
2365 2699
2365 2780
2365 2916
2365 3076
2365 3287
2365 3539
2365 3742
2365 3989
2365 4313
2365 4321
2365 4349
2365 4460
2365 4933
2366 2404
2366 2553
2366 2645
2366 2835
2366 2941
2366 3070
2366 3080
2366 3111
2366 3113
2366 3304
2366 3443
2366 3495
2366 3664
2366 3995
2366 4443
2366 4491
2366 4639
2366 4641
2366 4981
2367 2837
2367 2889
2367 2908
2367 2956
2367 2987
2367 3059
2367 3090
2367 3133
2367 3216
2367 3238
2367 3371
2367 3602
2367 3840
2367 4047
2367 4096
2367 4919
2367 4958
2368 2722
2368 2974
2368 3671
2368 3775
2368 3885
2368 4724
2368 4846
2369 3325
2369 3520
2369 3625
2369 4262
2369 4267
2369 4356
2369 4435
2369 4635
2369 4678
2370 2691
2370 3534
2370 3605
2370 3745
2370 3817
2370 4038
2370 4138
2370 4139
2370 4477
2371 2419
2371 2603
2371 2631
2371 3562
2371 3849
2371 4717
2371 4778
2372 2377
2372 2397
2372 2406
2372 2501
2372 3064
2372 3079
2372 3517
2372 3932
2372 4474
2372 4501
2372 4563
2373 3270
2373 3327
2373 3444
2373 3551
2373 3644
2373 4464
2373 4703
2374 2713
2374 3090
2374 3119
2374 3227
2374 3255
2374 4069
2374 4260
2374 4833
2374 4859
2375 2519
2375 2720
2375 3030
2375 3077
2375 3178
2375 3300
2375 3534
2375 3637
2375 4101
2375 4163
2375 4214
2375 4339
2375 4420
2375 4744
2375 4812
2376 3161
2376 3671
2376 3707
2376 4238
2376 4345
2376 4724
2377 2501
2377 3935
2377 4185
2377 4427
2377 4501
2377 4551
2377 4771
2377 4795
2378 2396
2378 2473
2378 2616
2378 2653
2378 2806
2378 2812
2378 2816
2378 3107
2378 3221
2378 3241
2378 3248
2378 3358
2378 3535
2378 3628
2378 3693
2378 3739
2378 3889
2378 3995
2378 4012
2378 4055
2378 4068
2378 4412
2378 4423
2378 4449
2378 4587
2378 4682
2378 4702
2378 4756
2378 4996
2379 2418
2379 2440
2379 2442
2379 3433
2379 3825
2379 4222
2379 4255
2379 4270
2380 3307
2380 3444
2380 3493
2380 3602
2380 4435
2380 4678
2381 2419
2381 2631
2381 2641
2381 2651
2381 2692
2381 3097
2381 3188
2381 3323
2381 3483
2381 3562
2381 3694
2381 4151
2381 4778
2382 2687
2382 2718
2382 2936
2382 3036
2382 3544
2382 3871
2382 4173
2382 4201
2382 4245
2382 4630
2382 4711
2382 4829
2382 4890
2382 4912
2383 2454
2383 2671
2383 2765
2383 3095
2383 3264
2383 3485
2383 3570
2383 3677
2383 3678
2383 3694
2383 4033
2383 4089
2383 4301
2383 4310
2383 4334
2383 4420
2383 4477
2383 4572
2383 4619
2383 4736
2383 4869
2383 4952
2384 2410
2384 2421
2384 2453
2384 2641
2384 2670
2384 2803
2384 2875
2384 3019
2384 3021
2384 3275
2384 3286
2384 3414
2384 3626
2384 3643
2384 3772
2384 3878
2384 4402
2384 4497
2384 4592
2384 4648
2384 4686
2385 2396
2385 2437
2385 2438
2385 2473
2385 2700
2385 2875
2385 3096
2385 3156
2385 3257
2385 3632
2385 4610
2385 4679
2385 4753
2385 4868
2386 2588
2386 2597
2386 2615
2386 2637
2386 2728
2386 2944
2386 2991
2386 3053
2386 3060
2386 3217
2386 3254
2386 3278
2386 3386
2386 3420
2386 3437
2386 3550
2386 3660
2386 3887
2386 3918
2386 3976
2386 4023
2386 4025
2386 4061
2386 4443
2386 4687
2386 4689
2386 4782
2386 4787
2386 4926
2386 4988
2387 2536
2387 2632
2387 3123
2387 3542
2387 3601
2387 4031
2387 4366
2387 4591
2387 4647
2387 4896
2388 2581
2388 2754
2388 2771
2388 2875
2388 2965
2388 3187
2388 3248
2388 4547
2388 4593
2388 4817
2388 4981
2389 2827
2389 2852
2389 3032
2389 3124
2389 3227
2389 3977
2389 3984
2389 4208
2389 4954
2390 2400
2390 2429
2390 3012
2390 3388
2390 4424
2390 4437
2391 2742
2391 3089
2391 3132
2391 3967
2391 4017
2391 4221
2391 4608
2391 4692
2391 4883
2392 2429
2392 2568
2392 3461
2392 4149
2392 4424
2392 4654
2393 3115
2393 3400
2393 3520
2393 3672
2393 4108
2393 4219
2393 4267
2393 4320
2393 4377
2393 4530
2393 4688
2394 2400
2394 2435
2394 2643
2394 3461
2394 3573
2394 3627
2394 3789
2394 4297
2394 4424
2395 2923
2395 3258
2395 3269
2395 3272
2395 3313
2395 4102
2395 4127
2395 4322
2395 4581
2395 4712
2396 2480
2396 2581
2396 2772
2396 2816
2396 2843
2396 3082
2396 3438
2396 3619
2396 3626
2396 4462
2396 4485
2396 4539
2396 4561
2397 2406
2397 2619
2397 3663
2397 4268
2397 4279
2397 4427
2397 4475
2397 4771
2398 4262
2398 4267
2398 4292
2398 4320
2399 2408
2399 2457
2399 2510
2399 2653
2399 2662
2399 2915
2399 2965
2399 3080
2399 3174
2399 3228
2399 3248
2399 3286
2399 3398
2399 3580
2399 3862
2399 3922
2399 3952
2399 4214
2400 2568
2400 2664
2400 3012
2400 3115
2400 3379
2400 3627
2400 4424
2401 2537
2401 3290
2401 3293
2401 3323
2401 3796
2401 3845
2401 4219
2401 4263
2401 4472
2401 4645
2401 4918
2401 4987
2401 4993
2402 2585
2402 2615
2402 2663
2402 2819
2402 2944
2402 2991
2402 3046
2402 3050
2402 3066
2402 3180
2402 3316
2402 3322
2402 3385
2402 3488
2402 3497
2402 3550
2402 3624
2402 3709
2402 3716
2402 3776
2402 3816
2402 3823
2402 3918
2402 3993
2402 4652
2402 4664
2402 4684
2402 4689
2402 4762
2402 4787
2402 4795
2402 4808
2402 4855
2402 4883
2402 4906
2402 4922
2403 2418
2403 2789
2403 3825
2403 4028
2403 4222
2403 4255
2403 4270
2404 2438
2404 2662
2404 2898
2404 2990
2404 3010
2404 3034
2404 3080
2404 3164
2404 3336
2404 3466
2404 3497
2404 3559
2404 3580
2404 3831
2404 3917
2404 3930
2404 3955
2404 4604
2404 4610
2404 4770
2404 4804
2404 4934
2404 4965
2405 2550
2405 2675
2405 3140
2405 3331
2405 4167
2405 4582
2405 4951
2406 2451
2406 2532
2406 2619
2406 2654
2406 2928
2406 3064
2406 3079
2406 3087
2406 3128
2406 3450
2406 3696
2406 3806
2406 3935
2406 3948
2406 3985
2406 4143
2406 4178
2406 4268
2406 4450
2406 4563
2406 4775
2406 4873
2407 2640
2407 2687
2407 2718
2407 2936
2407 3296
2407 3544
2407 4220
2407 4890
2407 4970
2408 2510
2408 2581
2408 2747
2408 2843
2408 3042
2408 3097
2408 3107
2408 3228
2408 3340
2408 3917
2408 4057
2408 4422
2408 4789
2409 2742
2409 2840
2409 3037
2409 3095
2409 3370
2409 3568
2409 3605
2409 3678
2409 3779
2409 3853
2409 4192
2409 4293
2409 4616
2409 4725
2409 4743
2410 2437
2410 2575
2410 2670
2410 3139
2410 3236
2410 3414
2410 3443
2410 3661
2410 3995
2410 4571
2410 4592
2411 2584
2411 2846
2411 2890
2411 3206
2411 3300
2411 3970
2411 4216
2411 4341
2411 4572
2411 4805
2411 4913
2412 2526
2412 3023
2412 3040
2412 3175
2412 3227
2412 3493
2412 3574
2412 3625
2412 4006
2412 4130
2412 4206
2412 4222
2412 4353
2412 4368
2412 4403
2412 4568
2412 4633
2413 2495
2413 4009
2413 4316
2413 4493
2413 4738
2414 2480
2414 2529
2414 2581
2414 2772
2414 2806
2414 2965
2414 3080
2414 3113
2414 3530
2414 3664
2414 3741
2415 3516
2415 4249
2415 4289
2415 4324
2415 4459
2415 4741
2415 4853
2415 4937
2416 2471
2416 2685
2416 2705
2416 2901
2416 3225
2416 3673
2416 4474
2416 4519
2416 4668
2417 2612
2417 4172
2417 4202
2417 4399
2417 4645
2417 4746
2417 4905
2418 2440
2418 2779
2418 2789
2418 3433
2418 3587
2418 3825
2418 4081
2418 4220
2418 4222
2418 4255
2418 4486
2418 4700
2418 4977
2419 2597
2419 2631
2419 2641
2419 2651
2419 2657
2419 2692
2419 2745
2419 2917
2419 3188
2419 3392
2419 3480
2419 3694
2419 3849
2419 4151
2419 4227
2419 4488
2419 4717
2419 4727
2419 4792
2419 4800
2419 4943
2420 2581
2420 3123
2420 3782
2420 3812
2420 4287
2420 4451
2420 4848
2420 4966
2421 2581
2421 2803
2421 2875
2421 2920
2421 2965
2421 3097
2421 3398
2421 3407
2421 3559
2421 3585
2421 4012
2421 4548
2421 4599
2421 4804
2421 4842
2422 2753
2422 2799
2422 2854
2422 2864
2422 2951
2422 3017
2422 3396
2422 3882
2422 4119
2422 4142
2422 4147
2422 4251
2422 4559
2422 4909
2423 2471
2423 3135
2423 3168
2423 3170
2423 3273
2423 3979
2423 4232
2423 4311
2423 4441
2423 4474
2423 4519
2423 4565
2423 4910
2424 2830
2424 3813
2424 3953
2424 4582
2425 2453
2425 2460
2425 2747
2425 3122
2425 3283
2425 3423
2425 3430
2425 4392
2425 4396
2425 4561
2425 4679
2425 4981
2426 2436
2426 2477
2426 2569
2426 2593
2426 2709
2426 2943
2426 3391
2426 3464
2426 3744
2426 4100
2426 4225
2426 4492
2426 4856
2426 4928
2427 2471
2427 2690
2427 2701
2427 2822
2427 3088
2427 3126
2427 3306
2427 4200
2428 2556
2428 2706
2428 4445
2428 4734
2429 2503
2429 2664
2429 2953
2429 3055
2429 3091
2429 3115
2429 3390
2429 3461
2429 3627
2429 3948
2429 4098
2429 4111
2429 4226
2429 4405
2429 4416
2429 4421
2429 4424
2429 4465
2429 4470
2429 4500
2429 4503
2429 4620
2429 4944
2430 3469
2430 3637
2430 3779
2430 4412
2430 4537
2431 3123
2431 3177
2431 4217
2431 4224
2431 4269
2431 4451
2431 4803
2431 4875
2432 2555
2432 3060
2432 3120
2432 3259
2432 3723
2432 3745
2432 4139
2432 4146
2432 4216
2432 4228
2432 4275
2432 4489
2432 4710
2432 4772
2432 4865
2433 3095
2433 3173
2433 3586
2433 3934
2433 4192
2433 4400
2433 4413
2433 4743
2433 4823
2434 2473
2434 2979
2434 3324
2434 3334
2434 3855
2434 4016
2434 4195
2434 4402
2434 4449
2434 4481
2434 4981
2435 2643
2435 3012
2435 3388
2435 3432
2435 3441
2435 3659
2435 3904
2435 4226
2435 4465
2435 4638
2435 4654
2435 4747
2436 2477
2436 2486
2436 2493
2436 2569
2436 2593
2436 2717
2436 2943
2436 2956
2436 3391
2436 3464
2436 3744
2436 4100
2436 4232
2436 4307
2436 4599
2436 4740
2436 4928
2437 2616
2437 2653
2437 2737
2437 3107
2437 3298
2437 3414
2437 3438
2437 4402
2437 4644
2437 4648
2438 2457
2438 2480
2438 2511
2438 2553
2438 2633
2438 2742
2438 2747
2438 2801
2438 2875
2438 2941
2438 3080
2438 3114
2438 3158
2438 3164
2438 3221
2438 3248
2438 3275
2438 3304
2438 3324
2438 3349
2438 3423
2438 3430
2438 3466
2438 3484
2438 3530
2438 3565
2438 3595
2438 3603
2438 3606
2438 3632
2438 3683
2438 3710
2438 3785
2438 3847
2438 3889
2438 3964
2438 3980
2438 4012
2438 4031
2438 4116
2438 4200
2438 4256
2438 4396
2438 4423
2438 4458
2438 4471
2438 4487
2438 4561
2438 4738
2438 4767
2438 4817
2438 4901
2439 2636
2439 3364
2439 3467
2439 3644
2439 4135
2439 4310
2439 4414
2440 2779
2440 2789
2440 3433
2440 3587
2440 3803
2440 3825
2440 4222
2440 4255
2440 4270
2440 4486
2440 4977
2441 2492
2441 2613
2441 2795
2441 2940
2441 4190
2441 4877
2442 3433
2442 3587
2442 3825
2442 3968
2442 4255
2442 4270
2442 4977
2443 2453
2443 2493
2443 2553
2443 2803
2443 2806
2443 3045
2443 3169
2443 3228
2443 3298
2443 3367
2443 3656
2443 3881
2443 4057
2443 4461
2443 4579
2443 4644
2443 4752
2443 4934
2443 4981
2444 2655
2444 2693
2444 2720
2444 2899
2444 3095
2444 3120
2444 3377
2444 3506
2444 3702
2444 3798
2444 3822
2444 4146
2444 4301
2444 4331
2444 4334
2444 4342
2444 4362
2444 4391
2444 4404
2444 4498
2444 4608
2444 4763
2444 4847
2444 4936
2445 2675
2445 2677
2445 3896
2445 4167
2445 4582
2445 4674
2446 2596
2446 2735
2446 2921
2446 3154
2446 3236
2446 3245
2446 3270
2446 3307
2446 3312
2446 3327
2446 3454
2446 3602
2446 3623
2446 4256
2446 4262
2446 4267
2446 4292
2446 4333
2446 4356
2446 4377
2446 4453
2446 4530
2446 4678
2446 4688
2447 2500
2447 3134
2447 3441
2447 3657
2447 4118
2447 4213
2447 4544
2447 4775
2447 4929
2447 4978
2448 2909
2448 2951
2448 3208
2448 3317
2448 3417
2448 3440
2448 4189
2448 4327
2449 2460
2449 2480
2449 2529
2449 2575
2449 2583
2449 2957
2449 3122
2449 3131
2449 3169
2449 3187
2449 3358
2449 3530
2449 3557
2449 3606
2449 3668
2449 3705
2449 3888
2449 4055
2449 4396
2449 4461
2449 4481
2449 4547
2449 4571
2449 4616
2449 4781
2450 2818
2450 2827
2450 3735
2450 3919
2450 4182
2450 4575
2450 4736
2451 3678
2451 3935
2451 4501
2452 2508
2452 2664
2452 3115
2452 3461
2452 3492
2452 3532
2452 4416
2452 4503
2453 2567
2453 2645
2453 2670
2453 2806
2453 2816
2453 3070
2453 3122
2453 3161
2453 3174
2453 3248
2453 3304
2453 3544
2453 3566
2453 3612
2453 3847
2453 3980
2453 4539
2453 4571
2453 4596
2453 4672
2453 4756
2453 4770
2453 4968
2454 2582
2454 2805
2454 2899
2454 3368
2454 3577
2454 3666
2454 3675
2454 3676
2454 3919
2454 4210
2454 4330
2454 4457
2454 4772
2454 4865
2455 2864
2455 3381
2455 3615
2455 4072
2455 4110
2455 4385
2455 4411
2455 4433
2455 4824
2455 4939
2456 2473
2456 2661
2456 3158
2456 3248
2456 3535
2456 3599
2456 3993
2456 4402
2456 4521
2456 4641
2457 2806
2457 2979
2457 3070
2457 3174
2457 3321
2457 3445
2457 4616
2457 4759
2457 4925
2458 2560
2458 2748
2458 2842
2458 3380
2458 3743
2458 3869
2458 4063
2458 4109
2458 4235
2458 4390
2458 4534
2458 4536
2458 4825
2459 2724
2459 3999
2459 4821
2459 4840
2460 2488
2460 2529
2460 2630
2460 2806
2460 3113
2460 3174
2460 3349
2460 3438
2460 3632
2460 4458
2460 4462
2460 4601
2461 2614
2461 2628
2461 2723
2461 2907
2461 2995
2461 3901
2461 3956
2461 4140
2461 4334
2461 4464
2461 4545
2461 4899
2461 4946
2462 2488
2462 2561
2462 3164
2462 3479
2462 3732
2462 4016
2462 4017
2463 2473
2463 2499
2463 2892
2463 3239
2463 3704
2463 3758
2463 3916
2463 4330
2463 4523
2464 2802
2464 3332
2464 3463
2464 4196
2464 4234
2464 4258
2464 4375
2464 4716
2465 2574
2465 2846
2465 3095
2465 3206
2465 3262
2465 3337
2465 3578
2465 3583
2465 4293
2465 4429
2465 4767
2465 4776
2466 2776
2466 2814
2466 2882
2466 2896
2466 3003
2466 3371
2466 3796
2466 3947
2466 4235
2466 4258
2466 4507
2466 4862
2467 2533
2467 2948
2467 3005
2467 3171
2467 3258
2467 3473
2467 3511
2467 4242
2467 4278
2467 4843
2468 2496
2468 2513
2468 2903
2468 3117
2468 3330
2468 3609
2468 3779
2468 4073
2468 4428
2469 2474
2469 2622
2469 3109
2469 3783
2469 4152
2469 4271
2470 2696
2470 2708
2470 3199
2470 3205
2470 4224
2470 4238
2470 4345
2470 4730
2471 2646
2471 2685
2471 2711
2471 2791
2471 3135
2471 3168
2471 3170
2471 3225
2471 3417
2471 3579
2471 3673
2471 4223
2471 4232
2471 4408
2471 4480
2471 4519
2471 4732
2471 4746
2472 2877
2472 2937
2472 2968
2472 3189
2472 3203
2472 3224
2472 3239
2472 3363
2472 3387
2472 3698
2472 3742
2472 3778
2472 3851
2472 3906
2472 3922
2472 4209
2472 4299
2472 4321
2472 4331
2472 4396
2473 2490
2473 2843
2473 3114
2473 3138
2473 3618
2473 3628
2473 3939
2473 4495
2473 4599
2473 4648
2474 2492
2474 2613
2474 3007
2474 3152
2474 4123
2474 4176
2474 4190
2474 4237
2474 4360
2474 4424
2474 4513
2474 4614
2474 4640
2475 2888
2475 3371
2475 3800
2475 3840
2475 4011
2475 4096
2475 4208
2475 4323
2476 2625
2476 2947
2476 2959
2476 3165
2476 3212
2476 3272
2476 3313
2476 3346
2476 3396
2476 3617
2476 4102
2476 4107
2476 4120
2476 4231
2476 4322
2476 4326
2476 4358
2476 4452
2476 4594
2477 2593
2477 2669
2477 2717
2477 2909
2477 2943
2477 2956
2477 2983
2477 3293
2477 3744
2477 4100
2477 4307
2477 4492
2477 4682
2477 4740
2477 4928
2478 2660
2478 2668
2478 3184
2478 4377
2478 4469
2478 4579
2479 2732
2479 3594
2479 4134
2479 4157
2479 4239
2479 4265
2480 2630
2480 2843
2480 2863
2480 2915
2480 2941
2480 3034
2480 3334
2480 3349
2480 3358
2480 3606
2480 3664
2480 3669
2480 3848
2480 3889
2480 3995
2480 4461
2480 4481
2480 4571
2480 4579
2480 4592
2480 4732
2480 4842
2481 2518
2481 2620
2481 2821
2481 3515
2481 3593
2481 3594
2481 3719
2481 4059
2481 4114
2481 4124
2481 4283
2481 4306
2481 4363
2481 4365
2481 4584
2481 4649
2481 4665
2482 2530
2482 2650
2482 2660
2482 2668
2482 2944
2482 3372
2482 3402
2482 4434
2482 4469
2482 4737
2482 4775
2482 4955
2483 2676
2483 3152
2483 3737
2483 4145
2483 4152
2483 4351
2483 4352
2483 4513
2483 4776
2483 4871
2484 2518
2484 2707
2484 3427
2484 3594
2484 4021
2484 4059
2484 4134
2484 4239
2484 4495
2484 4649
2484 4665
2485 2569
2485 2769
2485 2876
2485 3318
2485 4091
2485 4132
2485 4443
2485 4791
2485 4861
2485 4993
2486 2569
2486 2717
2486 2943
2486 2949
2486 2956
2486 3327
2486 4100
2486 4225
2486 4307
2486 4444
2486 4600
2486 4740
2486 4906
2487 2488
2487 2617
2487 2630
2487 2801
2487 2806
2487 2875
2487 3042
2487 3122
2487 3169
2487 3732
2487 4016
2487 4402
2487 4648
2488 2510
2488 2567
2488 2720
2488 2801
2488 2887
2488 2979
2488 2990
2488 3070
2488 3136
2488 3304
2488 3324
2488 3357
2488 3443
2488 3494
2488 3504
2488 3557
2488 3597
2488 3628
2488 3632
2488 3668
2488 3705
2488 3732
2488 3758
2488 4005
2488 4095
2488 4423
2488 4425
2488 4447
2488 4471
2488 4662
2488 4753
2488 4759
2489 2892
2489 2906
2489 3141
2489 3176
2489 3419
2489 3422
2489 3533
2489 3635
2489 3730
2489 3957
2489 4313
2489 4350
2489 4942
2489 4997
2490 2670
2490 2763
2490 2898
2490 3021
2490 3070
2490 3080
2490 3357
2490 3414
2490 3504
2490 3535
2490 3537
2490 3603
2490 3693
2490 3732
2490 3785
2490 3881
2490 3979
2490 4035
2490 4246
2490 4461
2490 4561
2490 4604
2490 4796
2490 4842
2490 4981
2491 2823
2491 3376
2491 3401
2491 3524
2491 3590
2491 4296
2491 4308
2491 4533
2491 4976
2492 2512
2492 2810
2492 3109
2492 3309
2492 3681
2492 3689
2492 3992
2492 4152
2492 4190
2492 4365
2492 4558
2492 4642
2492 4854
2492 4877
2493 2569
2493 2642
2493 3207
2493 4225
2493 4554
2493 4740
2494 2603
2494 2847
2494 3362
2494 3524
2494 3816
2494 4195
2494 4379
2494 4546
2494 4651
2494 4681
2494 4811
2495 2802
2495 3099
2495 3223
2495 3403
2495 3463
2495 3921
2495 4602
2495 4912
2496 2513
2496 2994
2496 3592
2496 4073
2496 4117
2497 2541
2497 2592
2497 2936
2497 3302
2497 3444
2497 3672
2497 4320
2497 4370
2497 4377
2497 4464
2498 2580
2498 2712
2498 2729
2498 2775
2498 2852
2498 3554
2498 4161
2498 4482
2498 4566
2498 4611
2498 4666
2499 2880
2499 2937
2499 2961
2499 2968
2499 2993
2499 3013
2499 3106
2499 3141
2499 3151
2499 3165
2499 3419
2499 3422
2499 3428
2499 3595
2499 3649
2499 3698
2499 3730
2499 3866
2499 3928
2499 4010
2499 4015
2499 4035
2499 4047
2499 4067
2499 4179
2499 4313
2499 4392
2499 4484
2499 4531
2499 4586
2499 4930
2499 4943
2500 2860
2500 2940
2500 2971
2500 2999
2500 3149
2500 3289
2500 3727
2500 3771
2500 3818
2500 4264
2500 4570
2500 4861
2500 4862
2500 4902
2501 3128
2501 3517
2501 3806
2501 3935
2501 3985
2501 4131
2501 4501
2502 2559
2502 3382
2502 3395
2502 3461
2502 3466
2502 3627
2502 4149
2502 4331
2502 4424
2502 4503
2502 4965
2503 2532
2503 2664
2503 3012
2503 3115
2503 3124
2503 3388
2503 4111
2503 4416
2503 4439
2503 4465
2504 3206
2504 3750
2504 3822
2504 4286
2504 4293
2504 4301
2504 4327
2504 4330
2504 4460
2504 4482
2504 4493
2504 4699
2505 2969
2505 3301
2505 3392
2505 3397
2505 3516
2505 4249
2505 4324
2505 4514
2505 4689
2505 4937
2506 2629
2506 3051
2506 4082
2506 4102
2506 4121
2506 4358
2506 4509
2507 2750
2507 2781
2507 2808
2507 2911
2507 2934
2507 2974
2507 3293
2507 3796
2507 3882
2507 3891
2507 4071
2508 2739
2508 3115
2508 3382
2508 3395
2508 3441
2508 3461
2508 3925
2508 4111
2508 4424
2509 3142
2509 4279
2510 2616
2510 2617
2510 2761
2510 2875
2510 3080
2510 3739
2510 3924
2510 4449
2510 4587
2510 4643
2510 4981
2510 4996
2511 2835
2511 2954
2511 3324
2511 3414
2511 3632
2511 3980
2511 4017
2511 4396
2511 4449
2511 4539
2511 4587
2511 4604
2511 4616
2512 4162
2512 4227
2512 4502
2512 4580
2512 4642
2512 4776
2513 2600
2513 2875
2513 3117
2513 3284
2513 3330
2513 3609
2513 4117
2514 2728
2514 3264
2514 3507
2514 3635
2514 3913
2514 4301
2514 4327
2514 4457
2514 4576
2514 4736
2514 4767
2514 4772
2515 2520
2515 2554
2515 2715
2515 2813
2515 2858
2515 2991
2515 3162
2515 3163
2515 3255
2515 3278
2515 3399
2515 3412
2515 3420
2515 3431
2515 3453
2515 3531
2515 3544
2515 3810
2515 3816
2515 3836
2515 3872
2515 3918
2515 3951
2515 4192
2515 4387
2515 4557
2515 4567
2515 4595
2515 4636
2515 4739
2515 4768
2516 2570
2516 2607
2516 2623
2516 2765
2516 2862
2516 3077
2516 3173
2516 3245
2516 3548
2516 3568
2516 3608
2516 3961
2516 4101
2516 4412
2516 4532
2516 4948
2517 2590
2517 2729
2517 3033
2517 3333
2517 4583
2517 4607
2518 2560
2518 2620
2518 3593
2518 3594
2518 3719
2518 4124
2518 4130
2518 4239
2519 2582
2519 2691
2519 2794
2519 2846
2519 2890
2519 2970
2519 3073
2519 3359
2519 3377
2519 3461
2519 3508
2519 3581
2519 3598
2519 3641
2519 3645
2519 3688
2519 3702
2519 3817
2519 3977
2519 4033
2519 4160
2519 4174
2519 4293
2519 4327
2519 4330
2519 4341
2519 4493
2519 4576
2519 4617
2519 4719
2519 4736
2520 2853
2520 2989
2520 3143
2520 3385
2520 3406
2520 3523
2520 3726
2520 3976
2520 4687
2520 4721
2520 4768
2520 4892
2521 2733
2521 2931
2521 2973
2521 3049
2521 3547
2521 4487
2521 4651
2521 4889
2521 4907
2522 2718
2522 2868
2522 2936
2522 4630
2522 4724
2522 4829
2522 4912
2523 2839
2523 3156
2523 3338
2523 3565
2523 3820
2523 4296
2523 4908
2524 3021
2524 3082
2524 3465
2524 3756
2524 4060
2524 4104
2524 4317
2524 4378
2524 4677
2524 4754
2524 4788
2524 4866
2525 2823
2525 3401
2525 3524
2525 3565
2525 3846
2525 4296
2525 4308
2526 2907
2526 4080
2526 4154
2526 4633
2526 4786
2526 4993
2527 2603
2527 3427
2527 3983
2527 4383
2527 4645
2527 4952
2528 4076
2528 4162
2528 4614
2528 4622
2529 2581
2529 2670
2529 2801
2529 3080
2529 3445
2529 4423
2529 4644
2529 4672
2529 4924
2530 2633
2530 2674
2530 2915
2530 3174
2530 3540
2530 4462
2530 4934
2531 3106
2531 3189
2531 3224
2531 3449
2531 3851
2531 3996
2531 4282
2531 4371
2532 2619
2532 3198
2532 4563
2532 4771
2533 2662
2533 3511
2533 3967
2533 4240
2533 4242
2533 4290
2533 4305
2533 4436
2534 2579
2534 2588
2534 2621
2534 2715
2534 3367
2534 3761
2534 3804
2534 3816
2534 3918
2534 4020
2534 4567
2534 4795
2534 4802
2534 4897
2534 4907
2535 2695
2535 2766
2535 3027
2535 4177
2535 4184
2535 4238
2535 4345
2535 4535
2535 4779
2536 2590
2536 2632
2536 2646
2536 3033
2536 3331
2536 3333
2536 3608
2536 3629
2536 4171
2536 4343
2536 4366
2536 4607
2536 4647
2536 4845
2537 2773
2537 2836
2537 2866
2537 2876
2537 2986
2537 3149
2537 3179
2537 3766
2537 3907
2537 4878
2537 4902
2537 4993
2538 3123
2538 3294
2538 3812
2538 4216
2538 4269
2538 4348
2538 4451
2538 4512
2539 2737
2539 3236
2539 3444
2539 3520
2539 3962
2539 4108
2539 4688
2540 2659
2540 2944
2540 3060
2540 3121
2540 3217
2540 3367
2540 3469
2540 3478
2540 3624
2540 3855
2540 4636
2540 4697
2540 4739
2540 4758
2540 4768
2541 2940
2541 3123
2541 3327
2541 3454
2542 2982
2542 3012
2542 3382
2542 3904
2542 4111
2542 4416
2542 4424
2542 4503
2543 2696
2543 4345
2543 4416
2543 4724
2543 4730
2544 2616
2544 2674
2544 2806
2544 3034
2544 3048
2544 3117
2544 3228
2544 3669
2544 4443
2544 4451
2544 4641
2545 2726
2545 2785
2545 3005
2545 3277
2545 3511
2545 4305
2546 2808
2546 2860
2546 3149
2546 3251
2546 3329
2546 3818
2546 4264
2546 4507
2546 4526
2547 2663
2547 2701
2547 3311
2547 3413
2547 3695
2547 3697
2547 3810
2547 3823
2547 3855
2547 4023
2547 4298
2547 4765
2547 4855
2547 4906
2548 2842
2548 3109
2548 3152
2548 3617
2548 3689
2548 3992
2548 4028
2548 4152
2548 4162
2548 4176
2548 4510
2548 4580
2548 4613
2548 4877
2549 2909
2549 3144
2549 3216
2549 3574
2549 3666
2549 3686
2549 3933
2549 4090
2549 4633
2549 4709
2549 4849
2550 2804
2550 2830
2550 2881
2550 3243
2550 3658
2550 3721
2550 3831
2550 3953
2550 4150
2550 4167
2550 4389
2550 4582
2550 4657
2550 4674
2551 2589
2551 2690
2551 2822
2551 3058
2551 3088
2551 3275
2551 3295
2551 3334
2551 3614
2551 4200
2551 4364
2551 4729
2551 4838
2551 4839
2551 4962
2552 2603
2552 2847
2552 3339
2552 3362
2552 4136
2552 4180
2552 4373
2552 4384
2552 4615
2552 4811
2553 2575
2553 2941
2553 3304
2553 3334
2553 3632
2553 4055
2553 4471
2553 4639
2553 4686
2553 4940
2554 2588
2554 2991
2554 3065
2554 3145
2554 3420
2554 3787
2554 3855
2554 4425
2554 4795
2554 4947
2555 2721
2555 2746
2555 2808
2555 2827
2555 2846
2555 2985
2555 3073
2555 3108
2555 3132
2555 3133
2555 3421
2555 3492
2555 3637
2555 3676
2555 3700
2555 3714
2555 3745
2555 3807
2555 3817
2555 3974
2555 4158
2555 4310
2555 4330
2555 4362
2555 4690
2555 4743
2555 4835
2556 2706
2556 3062
2556 3753
2556 4303
2556 4509
2556 4543
2556 4726
2556 4734
2557 3429
2557 3471
2557 4372
2557 4514
2557 4644
2557 4646
2558 2699
2558 2880
2558 3071
2558 3099
2558 3141
2558 3533
2558 3698
2558 3866
2558 4511
2558 4991
2559 2604
2559 2607
2559 2720
2559 2765
2559 2862
2559 2964
2559 3352
2559 3822
2559 4038
2559 4139
2559 4354
2559 4420
2559 4457
2559 4483
2559 4531
2559 4593
2559 4806
2559 4893
2560 2573
2560 2815
2560 2821
2560 3593
2560 3719
2560 4021
2560 4059
2560 4239
2560 4279
2560 4283
2560 4383
2560 4436
2560 4468
2560 4512
2560 4640
2560 4649
2561 2674
2561 2875
2561 2965
2561 3324
2561 3504
2561 3597
2561 3827
2561 3877
2561 4013
2561 4393
2561 4481
2562 2889
2562 2929
2562 2939
2562 3133
2562 3371
2562 3858
2562 3949
2562 4259
2563 2663
2563 2845
2563 2861
2563 3099
2563 3154
2563 3240
2563 3482
2563 3611
2563 3797
2563 4133
2563 4916
2564 2572
2564 2634
2564 2693
2564 2851
2564 2927
2564 2970
2564 3077
2564 3534
2564 3577
2564 3748
2564 4139
2564 4146
2564 4301
2564 4347
2564 4420
2564 4576
2564 4718
2564 4719
2564 4764
2564 4837
2564 4936
2564 4998
2565 2660
2565 4231
2565 4434
2565 4504
2565 4737
2565 4820
2565 4955
2566 2607
2566 3037
2566 3359
2566 3378
2566 3509
2566 3563
2566 3702
2566 3807
2566 4089
2566 4101
2566 4156
2566 4489
2567 2803
2567 2806
2567 3021
2567 3298
2567 3423
2567 4402
2567 4599
2567 4901
2567 4933
2567 4968
2568 3012
2568 3382
2568 3390
2568 3395
2568 3441
2568 3510
2568 3582
2568 3641
2568 3659
2568 4230
2568 4620
2568 4700
2568 4747
2568 4996
2569 2593
2569 2983
2569 3744
2569 4209
2569 4492
2569 4891
2570 2609
2570 2770
2570 2832
2570 2992
2570 3319
2570 3356
2570 3518
2570 3684
2570 3863
2570 3893
2570 4077
2570 4153
2570 4574
2570 4669
2570 4868
2571 2582
2571 2728
2571 3183
2571 3259
2571 3534
2571 3536
2571 3725
2571 4077
2571 4174
2571 4214
2571 4301
2571 4331
2571 4334
2571 4404
2571 4763
2571 4823
2572 2629
2572 2869
2572 3044
2572 3165
2572 3272
2572 3551
2572 3990
2572 4127
2572 4197
2572 4322
2572 4594
2573 2608
2573 2658
2573 2821
2573 3142
2573 3594
2573 3621
2573 4021
2573 4239
2573 4454
2573 4649
2574 2715
2574 2738
2574 2850
2574 3065
2574 3186
2574 3217
2574 3816
2574 3855
2574 3924
2574 4795
2574 4904
2574 4988
2574 4999
2575 2581
2575 2633
2575 3161
2575 3349
2575 3540
2575 3632
2575 3847
2575 4616
2575 4648
2575 4696
2575 4804
2575 4940
2576 2712
2576 2729
2576 4438
2576 4556
2576 4566
2576 4611
2576 4622
2576 4629
2577 2704
2577 3528
2577 3543
2577 3931
2577 4022
2577 4276
2577 4628
2577 4631
2577 4661
2578 2621
2578 3046
2578 3053
2578 3066
2578 3130
2578 3311
2578 3733
2578 3842
2578 4557
2578 4684
2578 4904
2578 4906
2579 2588
2579 2615
2579 2680
2579 3060
2579 3066
2579 3254
2579 3696
2579 3709
2579 3718
2579 3733
2579 3761
2579 3810
2579 3816
2579 4023
2579 4025
2579 4782
2579 4803
2579 4809
2579 4870
2579 4872
2579 4886
2579 4916
2579 4947
2579 4985
2580 2587
2580 2775
2580 3248
2580 3560
2580 4218
2580 4336
2580 4494
2580 4556
2580 4984
2581 2598
2581 2653
2581 2715
2581 2754
2581 2772
2581 2775
2581 2863
2581 3080
2581 3114
2581 3228
2581 3445
2581 3479
2581 3535
2581 3595
2581 3618
2581 3729
2581 3785
2581 3927
2581 3930
2581 3964
2581 4005
2581 4057
2581 4280
2581 4462
2581 4592
2581 4616
2581 4770
2581 4796
2581 4927
2581 4968
2582 2634
2582 3030
2582 3077
2582 3205
2582 3340
2582 3352
2582 3378
2582 3405
2582 3421
2582 3645
2582 3694
2582 3798
2582 3822
2582 4033
2582 4139
2582 4158
2582 4159
2582 4174
2582 4252
2582 4342
2582 4404
2582 4537
2582 4693
2582 4788
2583 3119
2583 3169
2583 3273
2583 3530
2583 3575
2583 3791
2583 3964
2583 4055
2583 4078
2583 4246
2583 4443
2583 4447
2583 4644
2583 4648
2583 4901
2583 4965
2584 2623
2584 2667
2584 2680
2584 2701
2584 2715
2584 2989
2584 3271
2584 3660
2584 3776
2584 4567
2584 4713
2584 4815
2584 4906
2585 2694
2585 2885
2585 2991
2585 3009
2585 3046
2585 3053
2585 3143
2585 3218
2585 3261
2585 3278
2585 3385
2585 3470
2585 3569
2585 3613
2585 3774
2585 3809
2585 3816
2585 3951
2585 3987
2585 4062
2585 4577
2585 4670
2585 4808
2586 2597
2586 2623
2586 2659
2586 2694
2586 2822
2586 2991
2586 3009
2586 3105
2586 3121
2586 3255
2586 3412
2586 3418
2586 3420
2586 3761
2586 3855
2586 3910
2586 4739
2586 4773
2586 4795
2586 4826
2586 4858
2586 4892
2586 4897
2586 4988
2587 2655
2587 2729
2587 3175
2587 3288
2587 3555
2587 3713
2587 4045
2587 4166
2587 4482
2587 4494
2587 4622
2587 4693
2588 2597
2588 2663
2588 2667
2588 3145
2588 3146
2588 3367
2588 3695
2588 3987
2588 4233
2588 4892
2588 4900
2589 2617
2589 2784
2589 2865
2589 3088
2589 3680
2589 3966
2589 4051
2589 4189
2589 4838
2589 4839
2589 4962
2590 2632
2590 2870
2590 3033
2590 3331
2590 3542
2590 3629
2590 4171
2590 4366
2590 4583
2590 4591
2590 4607
2590 4647
2590 4702
2590 4845
2591 2795
2591 3372
2591 3585
2591 3706
2591 3727
2591 4291
2591 4361
2591 4487
2591 4589
2592 3153
2592 3520
2592 3672
2592 4333
2592 4364
2592 4500
2593 2949
2593 2956
2593 2983
2593 3336
2593 3744
2593 4225
2593 4492
2593 4740
2594 2898
2594 2923
2594 3248
2594 4006
2594 4425
2594 4592
2594 4981
2595 3101
2595 3204
2595 3313
2595 3396
2595 4121
2595 4319
2595 4438
2595 4581
2595 4967
2596 2818
2596 2879
2596 3312
2596 3520
2596 4518
2597 2615
2597 2811
2597 3217
2597 3226
2597 3367
2597 3389
2597 3420
2597 3497
2597 3531
2597 3716
2597 3729
2597 3774
2597 3951
2597 4081
2597 4102
2597 4467
2597 4537
2597 4577
2597 4739
2597 4870
2597 4897
2598 2624
2598 2806
2598 2835
2598 2875
2598 2954
2598 3096
2598 3398
2598 3430
2598 3732
2598 3864
2598 4585
2598 4639
2598 4644
2598 4661
2598 4672
2599 3035
2599 3157
2599 3310
2599 3317
2599 4181
2599 4206
2599 4312
2599 4552
2599 4623
2599 4786
2600 3117
2600 3330
2600 3609
2600 4073
2600 4092
2600 4117
2600 4428
2601 2629
2601 2994
2601 3212
2601 3313
2601 3514
2601 4288
2601 4490
2601 4785
2601 4990
2602 2645
2602 2653
2602 2674
2602 3034
2602 3122
2602 3414
2602 3438
2602 3499
2602 3504
2602 3656
2602 4876
2602 4904
2603 2847
2603 3024
2603 3299
2603 4180
2603 4373
2603 4562
2603 4615
2603 4786
2603 4811
2604 2797
2604 3132
2604 3410
2604 3534
2604 4763
2605 3236
2605 3307
2605 3327
2605 3359
2605 3369
2605 3674
2605 3856
2605 3912
2605 4108
2605 4262
2605 4320
2606 3444
2606 3469
2606 4262
2606 4377
2607 2789
2607 3487
2607 3563
2607 3688
2607 3779
2607 4092
2607 4146
2607 4182
2607 4214
2607 4229
2607 4275
2607 4362
2607 4537
2607 4540
2607 4576
2607 4719
2607 4868
2607 4869
2607 4931
2608 2732
2608 3209
2608 3559
2608 3621
2608 3719
2608 4125
2608 4141
2608 4454
2608 4600
2608 4665
2609 2992
2609 3199
2609 3457
2609 3999
2609 4193
2609 4431
2609 4552
2609 4650
2610 2644
2610 2729
2610 2775
2610 2933
2610 3175
2610 3532
2610 3604
2610 3963
2610 4045
2610 4161
2610 4525
2610 4622
2610 4693
2611 2845
2611 2861
2611 3099
2611 3115
2611 3353
2611 3797
2611 4133
2611 4499
2611 4682
2611 4916
2612 3457
2612 3747
2612 3983
2612 4172
2612 4383
2612 4397
2612 4905
2612 4923
2613 2649
2613 2676
2613 3004
2613 3617
2613 4614
2613 4871
2613 4976
2614 2628
2614 2723
2614 2907
2614 2934
2614 2995
2614 3274
2614 3886
2614 3901
2614 3956
2614 4037
2614 4140
2614 4658
2614 4899
2615 3046
2615 3105
2615 3146
2615 3217
2615 3261
2615 3420
2615 3578
2615 3726
2615 4020
2615 4315
2615 4855
2615 4900
2615 4922
2616 2653
2616 2806
2616 2887
2616 3098
2616 3138
2616 3228
2616 3559
2616 3656
2616 3710
2616 4392
2617 2662
2617 2863
2617 2979
2617 2990
2617 3000
2617 3212
2617 3595
2617 3619
2617 3831
2617 4449
2617 4587
2617 4592
2617 4634
2617 4688
2617 4759
2617 4996
2618 2873
2618 2892
2618 3037
2618 3159
2618 3232
2618 3284
2618 3335
2618 3363
2618 3533
2618 3844
2618 3909
2618 4288
2618 4371
2618 4924
2619 3079
2619 3128
2619 3450
2619 3948
2619 4427
2620 2707
2620 2732
2620 3505
2620 3515
2620 3593
2620 3594
2620 3719
2620 4021
2620 4059
2620 4079
2620 4114
2620 4141
2620 4146
2620 4157
2620 4306
2620 4584
2620 4649
2620 4665
2620 4979
2621 3060
2621 3316
2621 3561
2621 3804
2621 3976
2621 4068
2621 4634
2621 4697
2621 4907
2622 2676
2622 2966
2622 3325
2622 3522
2622 3763
2622 3992
2622 4076
2622 4152
2622 4351
2622 4502
2622 4614
2622 4642
2623 2700
2623 2838
2623 2944
2623 2982
2623 2991
2623 3050
2623 3155
2623 3448
2623 3470
2623 3569
2623 3701
2623 4588
2623 4989
2624 2990
2624 3994
2624 4016
2624 4017
2624 4592
2624 4610
2624 4643
2625 2683
2625 2994
2625 3008
2625 3269
2625 3272
2625 4388
2625 4994
2626 2850
2626 3060
2626 3162
2626 3261
2626 3271
2626 3561
2626 3686
2626 3729
2626 3855
2626 3951
2626 4298
2626 4577
2626 4765
2626 4808
2626 4815
2627 2629
2627 3045
2627 3213
2627 3313
2627 3384
2627 4120
2627 4538
2627 4990
2628 2723
2628 2907
2628 2934
2628 2995
2628 3274
2628 3520
2628 3576
2628 3886
2628 3901
2628 3956
2628 4037
2628 4140
2628 4545
2628 4658
2628 4892
2628 4899
2629 2664
2629 2923
2629 3008
2629 3212
2629 3213
2629 3272
2629 3396
2629 3674
2629 3960
2629 3990
2629 4003
2629 4026
2629 4049
2629 4121
2629 4124
2629 4127
2629 4243
2629 4250
2629 4294
2629 4325
2629 4388
2629 4594
2629 4967
2630 2682
2630 3161
2630 3566
2630 3627
2630 3874
2630 3955
2630 4129
2630 4278
2630 4402
2630 4411
2630 4539
2630 4605
2630 4610
2630 4732
2630 4770
2631 2657
2631 2692
2631 2917
2631 3188
2631 3694
2631 3849
2631 4717
2631 4778
2632 2870
2632 3033
2632 3043
2632 3333
2632 3413
2632 3542
2632 3601
2632 4171
2632 4366
2632 4583
2632 4647
2632 4845
2633 2653
2633 2875
2633 3107
2633 3197
2633 3334
2633 3362
2633 3438
2633 3641
2633 3827
2633 4060
2633 4425
2633 4934
2634 3291
2634 3549
2634 3750
2634 3755
2634 4275
2634 4310
2634 4805
2634 4893
2635 3312
2635 3444
2635 3520
2635 4453
2636 2736
2636 2762
2636 2768
2636 2891
2636 3136
2636 3194
2636 3467
2636 3722
2636 3734
2636 4036
2636 4168
2636 4656
2636 4728
2636 4733
2636 4790
2637 2667
2637 2700
2637 2715
2637 2944
2637 3146
2637 3326
2637 3367
2637 3497
2637 3501
2637 3531
2637 3552
2637 3617
2637 3695
2637 3787
2637 3842
2637 3853
2637 3855
2637 3872
2637 3887
2637 3976
2637 4061
2637 4074
2637 4249
2637 4370
2637 4557
2637 4670
2637 4713
2637 4741
2637 4787
2637 4886
2637 4897
2638 3417
2638 3666
2638 4183
2638 4335
2638 4353
2638 4506
2638 4568
2638 4633
2639 2856
2639 3166
2639 3352
2639 4072
2639 4101
2639 4192
2639 4293
2639 4460
2640 2718
2640 3534
2640 3544
2640 3629
2640 3667
2640 4173
2640 4201
2640 4630
2640 4912
2640 4970
2641 2657
2641 3188
2641 3562
2641 3849
2641 4227
2641 4727
2641 4778
2641 4792
2642 3049
2642 3237
2642 3332
2642 3350
2642 3462
2642 3463
2642 3484
2642 3490
2642 4196
2642 4201
2642 4241
2642 4273
2642 4304
2642 4316
2642 4390
2643 2808
2643 3091
2643 3379
2643 3441
2643 3627
2643 3904
2643 4149
2643 4421
2643 4550
2644 2729
2644 3106
2644 3532
2644 3560
2644 3713
2644 4161
2644 4166
2644 4611
2644 4622
2644 4666
2645 2875
2645 3248
2645 3438
2645 3739
2645 4129
2645 4357
2645 4934
2645 4939
2646 2685
2646 2705
2646 3067
2646 3168
2646 4565
2646 4798
2646 4910
2647 2736
2647 3364
2647 3467
2647 3722
2647 4135
2647 4456
2647 4656
2647 4709
2648 2864
2648 3276
2648 3615
2648 3873
2648 4110
2648 4385
2648 4415
2649 2810
2649 3599
2649 3617
2649 3763
2649 3992
2649 4237
2649 4360
2649 4620
2650 2660
2650 2697
2650 2958
2650 3402
2650 3738
2650 4346
2650 4434
2650 4504
2651 2692
2651 2917
2651 3562
2651 3849
2651 3968
2651 4778
2651 4800
2652 2653
2652 2801
2652 3248
2652 3530
2652 3664
2652 3768
2652 3888
2652 4013
2652 4539
2652 4596
2653 2915
2653 3021
2653 3048
2653 3070
2653 3107
2653 3169
2653 3235
2653 3296
2653 3768
2653 3917
2653 4379
2653 4393
2653 4592
2653 4609
2653 4639
2654 2687
2654 3064
2654 3128
2654 3160
2654 3198
2654 3932
2654 3935
2654 3985
2654 4427
2654 4501
2654 4670
2655 2720
2655 2721
2655 3506
2655 3605
2655 3750
2655 4160
2655 4174
2655 4214
2655 4293
2655 4412
2655 4572
2655 4835
2655 4869
2656 2757
2656 2797
2656 2834
2656 3348
2656 3650
2656 3811
2656 3829
2656 4714
2656 4920
2656 4969
2657 2692
2657 2917
2657 3392
2657 3562
2657 3849
2657 4151
2657 4792
2657 4800
2657 4888
2658 2707
2658 2892
2658 3131
2658 3594
2658 3621
2658 4124
2658 4134
2658 4279
2659 3148
2659 3217
2659 3271
2659 3412
2659 3470
2659 3552
2659 4774
2659 4795
2659 4906
2659 4980
2660 2668
2660 2958
2660 3023
2660 4231
2660 4321
2660 4346
2660 4434
2660 4737
2660 4955
2661 3137
2661 3243
2661 3298
2661 3368
2661 3612
2661 3622
2661 3657
2661 4118
2661 4544
2661 4626
2661 4887
2661 4978
2662 2747
2662 2776
2662 2803
2662 2806
2662 2887
2662 3045
2662 3137
2662 3215
2662 3336
2662 3636
2662 3721
2662 3731
2662 4031
2662 4055
2662 4392
2662 4393
2662 4461
2662 4497
2662 4639
2662 4852
2663 2694
2663 2701
2663 2805
2663 2819
2663 2829
2663 2858
2663 2868
2663 3146
2663 3147
2663 3220
2663 3254
2663 3271
2663 3278
2663 3316
2663 3322
2663 3386
2663 3399
2663 3437
2663 3469
2663 3497
2663 3733
2663 3816
2663 3836
2663 3855
2663 3993
2663 4053
2663 4566
2663 4577
2663 4672
2663 4713
2663 4721
2663 4741
2663 4795
2663 4840
2663 4858
2663 4882
2663 4900
2663 4907
2664 2739
2664 3115
2664 3441
2664 3659
2664 3799
2664 4098
2664 4111
2664 4187
2664 4419
2664 4421
2664 4424
2664 4465
2664 4503
2664 4638
2665 3427
2665 3448
2665 4016
2665 4397
2665 4505
2665 4645
2665 4714
2665 4923
2666 2865
2666 3126
2666 3222
2666 4200
2666 4488
2666 4838
2666 4839
2667 2697
2667 3046
2667 3254
2667 3322
2667 3512
2667 3716
2667 4768
2667 4809
2668 2952
2668 3850
2668 4346
2668 4434
2668 4469
2668 4504
2668 4737
2668 4820
2669 3292
2669 3722
2669 4168
2669 4456
2669 4656
2669 4733
2669 4748
2670 2835
2670 2843
2670 3097
2670 3559
2670 4175
2670 4402
2670 4601
2670 4752
2670 4759
2671 2702
2671 2765
2671 3378
2671 3421
2671 3568
2671 4139
2671 4146
2671 4293
2671 4331
2671 4457
2671 4575
2671 4576
2671 4835
2672 2784
2672 2878
2672 3029
2672 3062
2672 3167
2672 3183
2672 3214
2672 3446
2672 3457
2672 3634
2672 3650
2672 3662
2672 3737
2672 4458
2672 4468
2672 4714
2672 4920
2673 2741
2673 2752
2673 2839
2673 3110
2673 3200
2673 3241
2673 3373
2673 3496
2673 3803
2673 3884
2673 3913
2673 3997
2673 4205
2673 4703
2673 4810
2674 3000
2674 3121
2674 3125
2674 3164
2674 3174
2674 3479
2674 3494
2674 3495
2674 3540
2674 3664
2674 3864
2674 3994
2674 4012
2674 4246
2674 4443
2674 4471
2674 4481
2674 4539
2674 4546
2674 4644
2674 4727
2674 4754
2674 4776
2674 4996
2675 2709
2675 2830
2675 3140
2675 3243
2675 3340
2675 3685
2675 3793
2675 3813
2675 4150
2675 4794
2676 3152
2676 3750
2676 3992
2676 4032
2676 4152
2676 4194
2676 4484
2676 4580
2676 4613
2677 2830
2677 3117
2677 4694
2678 2706
2678 2724
2678 2734
2678 2751
2678 3062
2678 3229
2678 3285
2678 3496
2678 3514
2678 3650
2678 3746
2678 4084
2678 4205
2678 4953
2679 2691
2679 3558
2679 3657
2679 3756
2679 3919
2679 4089
2679 4481
2680 2850
2680 2858
2680 2991
2680 3065
2680 3143
2680 3180
2680 3322
2680 3497
2680 3761
2680 4015
2680 4858
2681 2802
2681 3223
2681 3242
2681 3332
2681 3403
2681 3410
2681 3433
2681 3484
2681 3767
2681 3921
2681 4234
2681 4602
2682 2928
2682 3113
2682 3156
2682 3187
2682 3494
2682 3664
2682 3668
2682 3979
2682 4017
2682 4078
2682 4644
2682 4931
2682 4996
2683 2688
2683 3237
2683 3332
2683 3463
2683 3484
2683 3490
2683 3767
2683 4169
2683 4196
2683 4234
2683 4479
2684 2716
2684 2743
2684 2834
2684 2878
2684 3086
2684 3110
2684 3111
2684 3214
2684 3267
2684 3326
2684 3351
2684 3368
2684 3521
2684 3674
2684 3679
2684 3762
2684 3795
2684 3815
2684 3962
2684 4007
2684 4126
2684 4146
2684 4562
2684 4714
2684 4810
2684 4827
2684 4911
2685 2705
2685 3168
2685 3170
2685 3451
2685 4323
2685 4474
2685 4480
2685 4519
2686 2807
2686 3074
2686 3211
2686 3769
2686 3808
2686 3857
2686 3969
2686 4285
2686 4814
2686 4818
2687 2718
2687 2865
2687 2936
2687 3036
2687 3544
2687 3578
2687 3667
2687 3781
2687 3871
2687 3934
2687 4011
2687 4173
2687 4201
2687 4630
2687 4829
2687 4890
2687 4912
2687 4970
2688 2759
2688 2802
2688 2933
2688 3242
2688 3403
2688 3418
2688 3462
2688 3463
2688 3849
2688 4047
2688 4169
2688 4273
2688 4777
2689 3421
2689 3817
2689 3979
2689 4138
2689 4156
2689 4192
2689 4301
2689 4805
2690 3222
2690 4175
2690 4200
2690 4258
2690 4838
2690 4839
2690 4972
2691 2758
2691 2761
2691 3030
2691 3037
2691 3073
2691 3337
2691 3459
2691 3538
2691 3597
2691 3714
2691 3961
2691 4138
2691 4210
2691 4310
2691 4477
2691 4548
2691 4618
2691 4736
2691 4763
2692 3480
2692 3562
2692 3694
2692 4227
2692 4717
2692 4778
2693 2818
2693 2973
2693 3378
2693 3410
2693 3485
2693 3508
2693 3577
2693 3645
2693 3646
2693 3677
2693 3725
2693 3807
2693 4138
2693 4205
2693 4216
2693 4285
2693 4293
2693 4477
2693 4483
2693 4736
2693 4763
2694 2813
2694 2853
2694 2869
2694 3217
2694 3287
2694 3389
2694 3437
2694 3453
2694 3488
2694 3516
2694 3729
2694 3761
2694 3809
2694 4194
2694 4298
2694 4320
2694 4636
2694 4722
2694 4840
2695 2708
2695 2722
2695 3347
2695 3885
2695 3895
2695 4198
2695 4257
2695 4607
2696 2722
2696 3671
2696 3775
2696 3885
2696 4177
2696 4345
2696 4442
2696 4730
2696 4759
2696 4864
2697 2793
2697 3311
2697 3531
2697 3864
2697 4284
2697 4595
2697 4683
2697 4697
2697 4989
2698 2703
2698 3123
2698 3265
2698 3304
2698 3782
2698 3894
2698 4204
2698 4217
2698 4512
2698 4875
2699 2784
2699 2877
2699 2916
2699 2968
2699 3057
2699 3078
2699 3087
2699 3100
2699 3231
2699 3308
2699 3419
2699 3458
2699 3533
2699 3583
2699 3649
2699 3704
2699 3778
2699 3850
2699 3851
2699 3861
2699 3897
2699 3906
2699 3928
2699 3973
2699 4010
2699 4209
2699 4313
2699 4350
2699 4406
2699 4508
2699 4523
2699 4553
2699 4586
2700 2829
2700 3060
2700 3065
2700 3367
2700 3469
2700 3951
2700 3999
2700 4023
2700 4252
2700 4567
2700 4795
2700 4802
2701 2853
2701 3060
2701 3065
2701 3143
2701 3217
2701 3470
2701 3478
2701 3641
2701 3810
2701 3836
2701 3855
2701 4577
2701 4684
2701 4687
2701 4765
2701 4989
2702 2851
2702 2892
2702 2903
2702 3506
2702 3568
2702 3745
2702 4260
2703 3249
2703 3268
2703 3812
2703 3894
2703 4269
2703 4512
2703 4785
2703 4822
2703 4875
2704 3789
2704 3931
2704 4022
2704 4131
2704 4276
2704 4631
2704 4661
2705 3135
2705 3225
2705 3451
2705 4223
2705 4311
2705 4474
2705 4746
2706 3081
2706 3861
2706 4473
2706 4509
2707 2988
2707 3593
2707 3719
2707 4157
2707 4239
2707 4665
2707 4797
2707 4822
2708 2901
2708 3041
2708 3671
2708 3775
2708 3874
2708 3882
2708 4198
2708 4238
2708 4723
2708 4724
2708 4779
2709 3366
2709 3583
2709 3806
2710 3189
2710 3203
2710 3284
2710 3308
2710 3844
2710 3989
2710 4164
2710 4179
2710 4321
2710 4942
2711 2784
2711 2874
2711 2878
2711 3246
2711 3267
2711 3373
2711 3513
2711 3592
2711 3654
2711 3762
2711 4953
2712 2729
2712 2852
2712 3175
2712 3182
2712 3413
2712 3498
2712 3541
2712 3555
2712 4161
2712 4166
2712 4611
2713 2787
2713 2826
2713 3238
2713 3344
2713 4137
2713 4996
2714 3234
2714 3536
2714 3714
2714 4033
2714 4160
2714 4225
2714 4293
2714 4460
2714 4483
2714 4763
2714 4812
2714 4893
2715 2829
2715 2838
2715 2853
2715 2858
2715 2869
2715 2944
2715 2991
2715 3053
2715 3121
2715 3147
2715 3255
2715 3271
2715 3367
2715 3437
2715 3613
2715 3720
2715 3787
2715 3804
2715 3809
2715 3810
2715 4023
2715 4281
2715 4636
2715 4683
2715 4713
2715 4795
2715 4815
2715 4855
2715 4892
2715 4897
2715 4904
2715 4914
2715 4980
2716 2784
2716 3015
2716 3110
2716 3193
2716 3219
2716 3411
2716 3446
2716 3620
2716 3632
2716 3708
2716 3847
2716 4751
2716 4775
2716 4964
2716 4969
2717 3391
2717 3684
2717 4100
2717 4225
2717 4307
2717 4395
2718 2742
2718 2936
2718 3036
2718 3544
2718 3667
2718 4156
2718 4472
2718 4630
2718 4829
2718 4890
2718 4912
2719 2752
2719 2796
2719 2834
2719 3015
2719 3125
2719 3214
2719 3219
2719 3436
2719 3513
2719 3543
2719 3654
2719 3691
2719 3692
2719 4126
2719 4202
2719 4755
2719 4856
2720 2859
2720 3129
2720 3416
2720 3474
2720 3485
2720 3645
2720 3723
2720 3745
2720 3814
2720 4033
2720 4148
2720 4214
2720 4334
2720 4342
2720 4362
2720 4400
2720 4498
2720 4573
2720 4575
2720 4691
2720 4725
2720 4772
2720 4878
2721 2846
2721 2851
2721 3503
2721 3853
2721 4400
2721 4801
2721 4805
2722 2782
2722 3011
2722 3306
2722 3874
2722 4224
2722 4257
2722 4345
2722 4425
2722 4724
2722 4786
2722 4839
2723 2907
2723 2995
2723 3181
2723 3886
2723 3901
2723 3956
2723 4037
2723 4140
2723 4545
2723 4658
2723 4867
2723 4899
2724 2730
2724 2751
2724 2820
2724 2844
2724 2867
2724 2976
2724 3124
2724 3125
2724 3160
2724 3239
2724 3256
2724 3348
2724 3436
2724 3491
2724 3567
2724 3597
2724 3773
2724 3865
2724 3892
2724 3903
2724 3954
2724 4126
2724 4745
2724 4757
2724 4813
2724 4827
2724 4856
2724 4963
2725 2966
2725 3128
2725 3402
2726 3005
2726 3551
2726 3837
2726 4053
2726 4240
2726 4278
2726 4305
2726 4363
2726 4522
2727 2867
2727 2900
2727 3017
2727 3246
2727 3507
2727 3634
2727 3778
2727 4054
2727 4109
2727 4205
2727 4455
2727 4867
2727 4880
2727 4917
2727 4989
2728 3089
2728 3822
2728 4272
2728 4342
2728 4412
2728 4572
2728 4812
2728 4869
2728 4948
2729 2740
2729 2775
2729 2852
2729 2933
2729 2940
2729 2960
2729 3532
2729 3541
2729 3554
2729 3555
2729 3560
2729 3986
2729 4045
2729 4171
2729 4274
2729 4336
2729 4479
2729 4482
2729 4494
2729 4542
2729 4566
2729 4611
2729 4629
2729 4666
2729 4693
2730 2796
2730 2900
2730 3104
2730 3184
2730 3514
2730 3528
2730 3650
2730 3762
2730 4827
2730 4891
2730 4953
2730 4969
2731 2796
2731 3177
2731 3782
2731 3894
2731 3910
2731 4204
2731 4217
2731 4387
2731 4512
2732 3060
2732 3505
2732 3594
2732 3621
2732 4021
2732 4114
2732 4306
2732 4665
2733 2918
2733 2931
2733 2945
2733 2973
2733 3049
2733 3547
2733 4191
2733 4547
2733 4651
2733 4889
2734 2860
2734 2992
2734 3518
2734 3868
2734 4029
2734 4153
2734 4193
2734 4314
2734 4339
2734 4516
2734 4552
2734 4669
2735 3369
2735 3520
2735 3672
2735 4155
2735 4453
2735 4688
2736 2762
2736 2768
2736 3167
2736 3364
2736 3644
2736 3722
2736 3833
2736 4135
2736 4168
2736 4414
2736 4656
2736 4667
2736 4728
2736 4748
2736 4790
2737 3154
2737 3236
2737 3312
2737 4133
2737 4267
2737 4320
2737 4453
2737 4688
2738 2944
2738 3105
2738 3145
2738 3546
2738 3624
2738 3643
2738 3855
2738 4557
2738 4741
2738 4758
2738 4809
2738 4914
2738 4989
2739 3012
2739 3432
2739 4111
2739 4299
2739 4416
2739 4421
2739 4424
2739 4465
2739 4495
2739 4503
2739 4589
2740 3532
2740 3555
2740 3713
2740 4166
2740 4336
2740 4611
2740 4622
2741 2775
2741 3209
2741 3513
2741 3528
2741 3610
2741 3815
2741 3892
2741 3962
2741 4514
2741 4739
2741 4775
2741 4891
2741 4920
2742 2846
2742 2890
2742 3108
2742 3132
2742 3281
2742 3291
2742 3485
2742 3508
2742 3536
2742 3645
2742 3676
2742 3700
2742 3723
2742 3725
2742 3728
2742 3779
2742 3786
2742 3914
2742 3919
2742 3956
2742 4052
2742 4063
2742 4174
2742 4275
2742 4293
2742 4420
2742 4429
2742 4442
2742 4504
2742 4540
2742 4569
2742 4593
2742 4725
2742 4736
2742 4865
2742 4912
2742 4936
2742 4948
2742 4998
2743 2761
2743 2867
2743 2893
2743 3075
2743 3092
2743 3160
2743 3184
2743 3373
2743 3446
2743 3457
2743 3691
2743 3826
2743 3852
2743 3870
2743 3962
2743 4205
2743 4332
2743 4813
2743 4846
2743 4961
2744 2802
2744 3192
2744 4234
2744 4273
2744 4406
2744 4690
2744 4742
2744 4768
2744 4798
2745 2902
2745 2959
2745 3562
2745 3694
2745 4151
2745 4213
2745 4227
2745 4717
2745 4727
2746 3313
2746 3637
2746 4138
2746 4460
2746 4497
2746 4763
2747 2763
2747 3122
2747 3164
2747 4392
2747 4453
2747 4648
2747 4682
2747 4817
2747 4842
2748 3295
2748 3380
2748 3604
2748 3743
2748 3869
2748 4347
2748 4490
2749 2753
2749 2854
2749 2881
2749 3211
2749 3343
2749 3856
2749 3898
2749 3944
2749 3975
2749 4001
2749 4051
2749 4142
2749 4147
2749 4381
2749 4814
2749 4818
2750 2882
2750 3289
2750 3331
2750 4918
2751 2757
2751 2834
2751 2984
2751 3160
2751 3537
2751 3634
2751 3639
2751 3658
2751 3929
2751 4126
2751 4315
2752 2855
2752 2874
2752 3256
2752 3506
2752 3507
2752 3712
2752 4880
2753 2891
2753 2912
2753 3343
2753 3747
2753 3969
2753 4004
2753 4119
2753 4122
2753 4142
2753 4147
2753 4192
2753 4199
2753 4814
2753 4818
2753 4874
2754 2954
2754 3169
2754 3248
2754 3559
2754 4016
2754 4095
2754 4481
2754 4521
2754 4754
2754 4876
2754 4934
2754 4968
2755 2773
2755 2798
2755 2860
2755 2940
2755 2962
2755 3084
2755 3289
2755 3770
2755 3818
2755 3899
2755 4219
2755 4836
2755 4861
2756 2994
2756 3204
2756 3272
2756 4215
2756 4319
2756 4326
2757 3184
2757 3214
2757 3351
2757 3360
2757 3754
2757 3913
2757 4837
2758 3970
2758 4156
2758 4158
2758 4400
2758 4420
2758 4719
2758 4783
2759 3332
2759 3350
2759 4430
2759 4690
2759 4921
2760 2974
2760 3046
2760 3290
2760 3775
2760 4689
2760 4864
2761 2784
2761 2796
2761 2900
2761 2924
2761 3096
2761 3496
2761 3507
2761 3513
2761 3746
2761 3915
2761 3925
2761 4332
2761 4564
2762 3153
2762 3167
2762 3194
2762 3467
2762 4051
2762 4168
2762 4656
2762 4785
2763 2806
2763 2995
2763 3098
2763 3107
2763 3164
2763 3530
2763 3603
2763 3657
2763 4422
2763 4842
2764 3277
2764 3314
2764 3511
2764 3837
2764 4271
2764 4305
2764 4436
2764 4451
2764 4512
2765 2985
2765 3281
2765 3589
2765 3637
2765 4252
2765 4275
2765 4279
2765 4334
2765 4376
2765 4412
2765 4467
2765 4573
2765 4619
2765 4725
2765 4736
2765 4763
2765 4783
2765 4835
2766 2864
2766 2890
2766 3210
2766 3276
2766 3873
2766 4072
2766 4385
2766 4433
2766 4956
2767 2866
2767 2888
2767 3032
2767 3124
2767 3330
2767 3372
2767 3858
2767 4009
2767 4830
2768 3129
2768 3167
2768 3467
2768 4537
2768 4656
2769 2778
2769 2781
2769 2946
2769 2999
2769 3172
2769 3770
2769 3818
2769 3899
2769 3908
2769 4380
2769 4409
2769 4844
2770 2951
2770 3599
2770 3769
2770 3790
2770 3882
2770 4058
2770 4148
2770 4691
2770 4818
2771 2881
2771 2951
2771 3599
2771 3882
2771 3883
2771 4142
2771 4515
2771 4874
2772 2816
2772 2875
2772 3114
2772 3358
2772 3702
2772 3705
2772 3881
2772 3889
2772 4402
2772 4425
2772 4521
2772 4592
2772 4643
2772 4934
2772 4968
2773 2798
2773 2800
2773 2808
2773 3084
2773 3179
2773 3972
2773 4254
2774 2858
2774 2965
2774 2989
2774 2991
2774 3053
2774 3066
2774 3163
2774 3512
2774 3546
2774 3776
2774 3816
2774 4065
2774 4298
2774 4595
2774 4795
2774 4840
2774 4989
2775 3112
2775 3175
2775 3555
2775 3560
2775 3713
2775 3932
2775 3963
2775 4342
2775 4479
2775 4482
2775 4525
2775 4542
2775 4611
2775 4693
2776 2808
2776 2836
2776 2868
2776 2882
2776 2886
2776 2946
2776 2974
2776 3172
2776 3818
2776 3922
2776 4183
2776 4861
2777 2780
2777 2807
2777 2824
2777 2891
2777 2918
2777 3882
2777 3958
2777 4002
2777 4058
2777 4199
2777 4230
2777 4266
2777 4367
2777 4381
2777 4559
2777 4652
2777 4819
2778 2814
2778 2828
2778 2851
2778 2882
2778 3288
2778 3289
2778 3318
2778 3751
2778 3783
2778 3794
2778 3818
2778 4071
2778 4088
2778 4380
2778 4526
2778 4625
2778 4898
2778 4918
2778 4926
2779 2789
2779 3433
2779 3587
2779 3633
2779 3825
2779 4255
2779 4270
2779 4977
2780 2951
2780 2952
2780 3074
2780 3282
2780 3598
2780 3882
2780 3968
2780 4004
2780 4488
2781 2882
2781 2896
2781 3251
2781 3758
2781 4382
2781 4473
2781 4570
2781 4611
2782 3027
2782 3434
2782 3736
2782 3827
2782 3897
2782 4345
2782 4701
2782 4724
2782 4779
2783 2916
2783 3250
2783 3830
2783 3875
2783 3977
2783 4103
2783 4105
2783 4832
2783 4833
2783 4851
2784 2820
2784 2831
2784 2921
2784 3025
2784 3104
2784 3160
2784 3181
2784 3246
2784 3303
2784 3326
2784 3393
2784 3502
2784 3592
2784 3662
2784 3741
2784 3754
2784 3811
2784 3815
2784 3892
2784 3915
2784 4720
2784 4776
2784 4827
2784 4891
2784 4895
2784 4969
2785 3005
2785 3258
2785 3277
2785 3473
2785 3511
2785 4240
2785 4242
2785 4271
2785 4290
2785 4318
2785 4522
2785 4829
2786 2790
2786 3590
2786 4603
2786 4881
2786 4976
2787 2857
2787 2980
2787 3119
2787 3133
2787 3977
2787 4302
2787 4828
2787 4857
2788 2986
2788 3401
2788 3590
2788 4255
2788 4533
2788 4731
2788 4881
2788 4976
2789 4270
2790 2823
2790 3401
2790 4296
2791 3152
2791 3451
2791 3962
2791 4408
2791 4474
2791 4489
2791 4519
2792 3236
2792 3444
2792 3520
2792 4303
2792 4377
2792 4688
2793 2906
2793 3033
2793 3060
2793 3367
2793 3399
2793 3951
2793 4689
2793 4765
2794 3030
2794 3173
2794 3352
2794 3377
2794 3378
2794 4036
2794 4310
2794 4491
2794 4498
2794 4593
2794 4619
2795 3354
2795 3585
2795 3706
2795 4361
2795 4487
2795 4582
2795 4589
2796 2848
2796 2855
2796 2878
2796 2879
2796 3197
2796 3269
2796 3457
2796 3581
2796 3620
2796 3829
2796 3954
2796 3997
2796 4455
2796 4775
2797 3279
2797 3436
2797 3757
2797 3815
2797 3900
2797 3913
2797 3915
2797 4064
2797 4112
2797 4745
2797 4769
2797 4943
2798 2800
2798 3039
2798 3290
2798 3329
2798 4390
2798 4473
2798 4728
2799 2891
2799 3016
2799 4245
2799 4515
2799 4526
2799 4963
2800 2808
2800 2836
2800 2946
2800 4155
2800 4416
2800 4473
2800 4836
2800 4844
2800 4993
2801 3000
2801 3080
2801 3221
2801 4592
2801 4616
2802 2938
2802 3463
2802 3767
2802 3856
2802 3990
2802 4169
2802 4304
2802 4369
2802 4430
2802 4472
2802 4527
2802 4578
2802 4704
2802 4738
2802 4777
2803 3161
2803 3612
2803 3632
2803 3633
2803 3805
2803 4402
2803 4521
2803 4940
2803 4981
2804 3681
2804 3689
2804 3992
2804 4076
2804 4152
2804 4558
2805 2944
2805 2991
2805 3226
2805 3367
2805 3437
2805 3469
2805 4467
2805 4577
2805 4652
2805 4670
2805 4808
2805 4872
2806 3048
2806 3161
2806 3228
2806 3304
2806 3336
2806 3495
2806 3535
2806 3632
2806 3661
2806 3732
2806 3792
2806 3808
2806 3864
2806 4013
2806 4218
2806 4471
2806 4521
2806 4547
2806 4571
2806 4585
2806 4587
2806 4696
2806 4732
2806 4965
2807 2884
2807 3343
2807 3882
2807 4097
2807 4232
2807 4605
2808 2836
2808 2868
2808 2920
2808 3001
2808 3003
2808 3039
2808 3415
2808 3766
2808 3896
2808 4050
2808 4071
2808 4155
2808 4219
2808 4409
2808 4570
2808 4836
2808 4849
2808 4987
2808 4993
2809 2811
2809 2991
2809 3367
2809 3696
2809 3720
2809 3804
2809 3806
2809 4298
2809 4758
2809 4985
2809 4989
2810 2966
2810 3152
2810 3249
2810 3394
2811 3050
2811 3060
2811 3192
2811 3367
2811 3655
2811 3691
2811 3918
2811 4025
2811 4467
2811 4595
2811 4897
2811 4934
2812 2875
2812 3535
2812 3661
2812 3693
2812 3739
2812 4116
2812 4423
2813 3053
2813 3060
2813 3180
2813 3389
2813 3437
2813 3476
2813 3488
2813 3824
2813 3987
2813 4782
2813 4795
2813 4815
2813 4978
2813 4985
2813 4989
2814 3039
2814 4219
2814 4541
2815 3505
2815 3593
2815 4114
2815 4239
2815 4649
2816 3241
2816 3336
2816 3383
2816 3414
2816 3415
2816 3466
2816 3526
2816 3683
2816 3739
2816 4017
2816 4497
2816 4901
2817 2987
2817 3133
2817 3372
2817 3860
2817 4103
2817 4105
2818 3030
2818 3069
2818 3127
2818 3549
2818 4310
2818 4617
2818 4744
2818 4805
2819 3011
2819 3217
2819 3226
2819 3261
2819 3445
2819 3578
2819 3686
2819 3986
2819 3987
2819 4467
2819 4636
2819 4722
2819 4741
2819 4802
2819 4907
2820 2867
2820 2874
2820 3160
2820 3567
2820 4775
2820 4807
2820 4867
2820 4920
2821 3594
2821 4239
2821 4649
2821 4760
2821 4797
2822 2865
2822 3058
2822 3086
2822 3222
2822 3680
2822 3781
2822 4099
2822 4200
2822 4831
2822 4839
2823 3068
2823 3365
2823 3590
2823 4308
2823 4533
2823 4976
2824 2925
2824 2951
2824 2985
2824 3263
2824 3282
2824 3424
2824 3769
2824 3802
2824 3821
2824 3895
2824 3926
2824 4034
2824 4051
2824 4058
2824 4148
2824 4199
2824 4252
2824 4381
2824 4559
2824 4819
2824 4986
2825 3338
2825 3376
2825 3401
2825 3565
2825 3934
2825 4296
2825 4603
2825 4908
2826 3092
2826 3124
2826 3653
2826 3800
2826 4075
2826 4137
2826 4859
2827 3598
2827 3919
2827 3994
2827 4163
2827 4293
2827 4301
2827 4331
2827 4483
2828 3841
2828 3972
2828 4132
2828 4473
2828 4791
2828 4844
2828 4902
2828 4938
2829 2944
2829 2982
2829 3130
2829 3497
2829 3501
2829 3701
2829 4233
2829 4449
2829 4467
2829 4571
2829 4989
2830 3140
2830 3243
2830 3340
2830 3426
2830 3545
2830 3721
2830 3818
2830 3974
2830 4150
2830 4163
2830 4293
2830 4674
2830 4780
2830 4879
2831 3017
2831 3200
2831 3903
2831 3997
2831 4714
2831 4837
2831 4880
2831 4886
2831 4891
2832 2992
2832 3319
2832 3489
2832 3684
2832 3868
2832 3999
2832 4153
2832 4574
2832 4739
2832 4799
2832 4868
2832 4950
2833 2899
2833 2987
2833 3088
2833 3860
2833 3936
2833 4069
2833 4478
2833 4854
2833 4919
2834 2893
2834 2900
2834 2976
2834 3075
2834 3125
2834 3155
2834 3193
2834 3303
2834 3795
2834 3852
2834 4054
2834 4126
2834 4205
2834 4332
2834 4455
2834 4720
2834 4827
2834 4837
2835 3000
2835 3107
2835 3499
2835 3559
2835 4461
2835 4462
2835 4485
2835 4592
2835 4643
2836 2876
2836 2946
2836 2974
2836 3003
2836 3039
2836 3179
2836 3289
2836 3293
2836 3771
2836 3783
2836 3841
2836 4155
2836 4183
2836 4388
2836 4409
2836 4527
2836 4558
2836 4659
2836 4850
2836 4861
2836 4884
2836 4918
2836 4938
2836 4993
2837 2908
2837 2987
2837 3102
2837 3862
2837 3875
2837 4043
2837 4103
2837 4137
2837 4742
2837 4944
2838 3096
2838 3163
2838 4037
2838 4249
2838 4764
2838 4773
2839 2855
2839 3025
2839 3125
2839 3491
2839 3632
2839 3634
2839 3650
2839 3737
2839 3762
2839 4745
2839 4891
2839 4920
2840 3086
2840 3313
2840 3421
2840 3460
2840 3536
2840 3568
2840 3635
2840 4362
2840 4385
2840 4537
2840 4608
2840 4725
2840 4784
2841 2879
2841 2900
2841 3017
2841 3086
2841 3160
2841 3285
2841 3328
2841 3411
2841 3513
2841 3662
2841 3846
2841 3962
2841 4455
2841 4846
2841 4891
2842 3743
2842 3869
2842 4063
2842 4109
2842 4235
2842 4534
2843 2875
2843 3191
2843 3535
2843 3668
2843 4592
2843 4657
2843 4730
2843 4770
2843 4996
2844 3015
2844 3062
2844 3160
2844 3193
2844 3195
2844 3285
2844 3360
2844 3368
2844 3411
2844 3507
2844 3521
2844 3674
2844 3803
2844 3846
2844 3962
2844 3997
2844 4042
2844 4357
2844 4548
2844 4757
2844 4769
2844 4930
2844 4944
2845 3099
2845 3353
2845 3611
2845 3752
2845 3797
2845 4113
2845 4133
2845 4499
2845 4685
2845 4916
2846 2859
2846 3185
2846 3245
2846 3337
2846 3509
2846 3530
2846 3702
2846 3967
2846 4083
2846 4146
2846 4214
2846 4252
2846 4275
2846 4282
2846 4293
2846 4576
2846 4710
2846 4952
2847 3299
2847 3321
2847 3450
2847 3564
2847 4180
2847 4195
2847 4268
2847 4373
2847 4379
2847 4546
2847 4562
2847 4597
2847 4615
2847 4681
2847 4860
2848 2874
2848 3160
2848 3207
2848 3214
2848 3326
2848 3513
2848 3650
2848 3900
2848 4042
2848 4755
2848 4775
2848 4996
2849 3060
2849 3164
2849 3344
2849 3469
2849 3488
2849 3613
2849 3655
2849 3855
2849 4081
2849 4670
2849 4815
2849 4897
2850 2869
2850 2982
2850 3569
2850 3586
2850 3733
2850 3842
2850 3855
2850 3874
2850 4074
2850 4467
2850 4567
2850 4764
2850 4765
2850 4808
2850 4886
2851 3259
2851 3410
2851 3506
2851 3828
2851 4159
2851 4412
2851 4710
2851 4783
2851 4812
2852 2933
2852 3112
2852 3713
2852 4045
2852 4494
2852 4525
2852 4556
2852 4566
2852 4629
2852 4686
2853 2991
2853 3011
2853 3105
2853 3271
2853 3354
2853 3842
2853 3987
2853 4100
2853 4652
2853 4764
2854 2884
2854 2891
2854 2912
2854 2952
2854 3083
2854 3605
2854 3802
2854 4002
2854 4051
2854 4097
2854 4705
2854 4992
2855 3160
2855 3190
2855 3446
2855 3452
2855 3513
2855 3596
2855 3620
2855 3630
2855 3900
2855 4283
2855 4332
2855 4482
2855 4695
2855 4714
2855 4757
2856 2903
2856 3835
2856 4036
2856 4141
2856 4156
2856 4331
2856 4376
2856 4692
2857 2914
2857 2987
2857 3068
2857 3133
2857 3574
2857 3799
2857 3848
2857 4394
2857 4669
2857 4830
2857 4854
2858 3009
2858 3261
2858 3437
2858 3500
2858 4298
2858 4595
2858 4684
2858 4762
2858 4782
2858 4811
2858 4872
2859 3070
2859 3359
2859 3506
2859 3507
2859 3828
2859 3928
2859 4101
2859 4214
2859 4362
2859 4548
2860 2896
2860 2940
2860 3318
2860 3323
2860 3891
2860 4071
2860 4196
2860 4453
2860 4535
2860 4625
2860 4881
2860 4902
2860 4918
2861 3240
2861 3860
2861 4133
2861 4499
2862 2899
2862 3129
2862 3202
2862 3245
2862 3259
2862 3262
2862 3291
2862 3359
2862 3608
2862 3641
2862 3807
2862 3934
2862 4036
2862 4158
2862 4275
2862 4330
2862 4341
2862 4400
2862 4936
2863 3637
2863 3710
2863 3930
2863 4672
2863 4996
2864 3026
2864 3210
2864 3276
2864 3315
2864 3381
2864 3633
2864 3640
2864 4072
2864 4344
2864 4385
2864 4411
2864 4415
2864 4433
2864 4446
2864 4956
2865 3222
2865 3781
2865 4200
2865 4253
2865 4258
2865 4345
2865 4489
2865 4838
2865 4839
2866 2888
2866 2987
2866 3090
2866 3372
2866 3818
2866 4018
2866 4036
2866 4085
2866 4103
2867 2893
2867 3075
2867 3086
2867 3110
2867 3125
2867 3190
2867 3193
2867 3241
2867 3514
2867 3630
2867 3650
2867 3752
2867 3892
2867 3997
2867 4041
2867 4064
2867 4757
2867 4846
2867 4867
2867 4880
2867 4911
2868 2895
2868 2940
2868 3001
2868 3003
2868 3415
2868 3561
2868 3770
2868 3891
2868 3899
2868 3975
2868 4106
2868 4183
2868 4248
2868 4836
2868 4850
2868 4861
2868 4938
2869 3009
2869 3060
2869 3341
2869 3497
2869 3695
2869 3816
2869 3855
2869 4636
2869 4739
2869 4906
2870 3033
2870 3601
2870 3818
2870 3853
2870 4343
2870 4366
2871 3016
2871 3044
2871 3119
2871 3879
2871 3977
2871 4137
2871 4260
2871 4638
2872 3123
2872 3265
2872 3773
2872 3812
2872 3894
2872 4071
2872 4204
2872 4217
2872 4340
2872 4451
2873 3106
2873 3166
2873 3189
2873 3231
2873 3257
2873 3431
2873 3734
2873 3784
2873 3906
2873 3909
2873 3928
2873 4010
2873 4121
2873 4179
2873 4313
2873 4531
2873 4942
2874 2921
2874 3200
2874 3393
2874 3852
2874 3895
2874 3954
2874 4458
2874 4715
2874 4827
2875 2883
2875 3048
2875 3286
2875 3324
2875 3530
2875 3619
2875 3626
2875 3652
2875 3664
2875 3683
2875 3748
2875 3831
2875 3877
2875 4016
2875 4471
2875 4539
2875 4547
2875 4561
2875 4596
2875 4639
2875 4643
2875 4854
2876 2940
2876 2986
2876 3251
2876 3751
2877 2946
2877 3201
2877 3284
2877 3435
2877 3600
2877 3957
2877 4299
2877 4371
2877 4511
2877 4942
2877 4991
2878 3115
2878 3160
2878 3209
2878 4007
2878 4714
2879 3285
2879 3502
2879 3592
2879 3679
2879 3749
2879 3865
2879 4031
2879 4775
2880 3288
2880 4010
2880 4015
2880 4410
2880 4991
2881 2897
2881 2912
2881 2952
2881 2967
2881 2997
2881 3048
2881 3211
2881 3343
2881 3584
2881 3599
2881 3834
2881 3867
2881 3882
2881 3883
2881 4002
2881 4004
2881 4034
2881 4142
2881 4212
2881 4245
2881 4352
2881 4355
2881 4605
2881 4632
2881 4931
2881 4941
2882 2895
2882 2920
2882 2940
2882 2986
2882 3202
2882 3908
2882 3972
2882 4183
2882 4263
2882 4377
2882 4409
2882 4473
2882 4625
2882 4791
2882 4993
2883 3158
2883 3219
2883 3221
2883 3398
2883 3414
2883 3445
2883 3530
2883 3632
2883 3656
2883 4017
2883 4246
2883 4385
2883 4521
2883 4554
2883 4770
2883 4906
2883 4981
2884 3093
2884 3584
2884 3790
2884 4883
2885 3005
2885 3163
2885 3437
2885 4684
2885 4687
2885 4764
2885 4773
2885 4782
2885 4906
2886 3408
2886 3690
2886 3945
2886 4708
2887 2975
2887 3156
2887 3219
2887 3559
2887 3603
2887 3632
2887 3877
2887 4644
2887 4696
2887 4901
2888 3014
2888 3119
2888 3361
2888 3875
2888 4302
2888 4828
2888 4854
2889 3041
2889 3119
2889 3124
2889 3361
2889 3830
2889 3858
2889 4085
2889 4925
2890 2970
2890 4268
2890 4608
2890 4618
2891 2918
2891 2951
2891 2952
2891 2967
2891 3171
2891 3367
2891 3584
2891 3754
2891 3769
2891 3790
2891 3801
2891 3882
2891 4004
2891 4011
2891 4051
2891 4244
2891 4245
2891 4251
2891 4355
2891 4520
2891 4605
2891 4973
2891 4986
2892 2906
2892 3189
2892 3239
2892 3257
2892 3363
2892 3533
2892 3758
2892 3784
2892 3824
2892 3861
2892 3897
2892 3940
2892 3957
2892 4265
2892 4371
2892 4511
2892 4946
2893 2900
2893 3056
2893 3110
2893 3111
2893 3200
2893 3209
2893 3285
2893 3795
2893 3892
2893 4572
2893 4649
2894 2910
2894 3013
2894 3257
2894 3363
2894 3704
2894 3866
2894 4044
2894 4080
2894 4321
2894 4942
2895 2933
2895 3766
2895 4625
2895 4659
2895 4862
2896 2957
2896 3099
2896 3118
2896 3149
2896 3323
2896 3775
2896 3801
2896 4219
2896 4264
2896 4281
2896 4527
2896 4708
2896 4850
2896 4949
2897 2951
2897 3599
2897 3856
2897 3905
2897 3912
2897 3968
2897 4251
2897 4286
2897 4818
2898 3019
2898 3169
2898 3275
2898 3298
2898 3980
2898 4016
2898 4191
2898 4306
2898 4443
2898 4497
2898 4753
2898 4876
2898 4968
2899 3127
2899 3259
2899 3337
2899 3506
2899 3534
2899 3748
2899 4174
2899 4391
2899 4412
2899 4512
2900 2976
2900 3092
2900 4042
2900 4455
2900 4458
2900 4707
2900 4837
2900 4920
2901 3027
2901 3041
2901 3385
2901 3707
2901 3946
2901 4224
2901 4238
2901 4345
2901 4417
2901 4978
2902 3771
2902 3818
2902 3902
2902 4862
2903 3129
2903 3268
2903 3534
2903 4182
2903 4214
2903 4330
2903 4608
2903 4812
2904 3115
2904 4199
2904 4212
2904 4312
2904 4355
2905 3356
2905 3372
2905 3859
2905 4096
2905 4191
2905 4954
2905 4993
2906 2993
2906 3063
2906 3431
2906 4299
2906 4586
2906 4612
2906 4983
2907 2934
2907 2995
2907 3024
2907 3886
2907 3901
2907 3956
2907 4037
2907 4140
2907 4545
2907 4899
2908 3133
2908 3355
2908 3372
2908 3860
2908 4208
2909 3023
2909 3157
2909 3192
2909 3472
2909 3524
2909 3625
2909 3666
2909 3702
2909 4024
2909 4030
2909 4086
2909 4170
2909 4188
2909 4315
2909 4335
2909 4506
2909 4568
2909 4660
2909 4786
2909 4849
2909 4873
2910 3576
2910 3663
2910 3758
2910 3920
2910 3988
2910 4126
2910 4265
2910 4282
2910 4508
2910 4907
2911 3149
2911 3323
2911 3818
2911 4050
2911 4263
2911 4382
2912 2951
2912 3263
2912 3343
2912 3882
2912 4212
2912 4437
2913 3291
2913 3378
2913 3677
2913 3698
2913 4429
2913 4453
2913 4659
2913 4736
2913 4806
2914 2996
2914 3843
2914 3858
2914 3875
2914 4103
2914 4259
2914 4262
2914 4357
2914 4374
2914 4478
2914 4641
2914 4857
2914 4954
2915 3070
2915 3213
2915 3426
2915 3441
2915 3533
2915 3603
2915 4246
2915 4302
2915 4485
2915 4610
2915 4939
2916 2968
2916 2978
2916 3171
2916 3201
2916 3203
2916 3916
2916 4299
2917 3188
2917 3392
2917 3480
2917 3483
2917 4512
2917 4643
2917 4888
2918 3083
2918 3193
2918 3584
2918 3876
2918 3883
2918 4011
2918 4244
2918 4355
2918 4367
2918 4440
2918 4753
2919 2945
2919 3032
2919 3103
2919 3124
2919 3371
2919 3372
2919 3375
2919 3698
2919 3840
2919 3850
2919 3949
2919 3971
2919 4178
2919 4830
2919 4854
2919 4859
2919 4925
2920 4382
2920 4808
2921 3246
2921 3326
2921 3521
2921 3596
2921 4147
2921 4775
2921 4917
2922 3163
2922 3424
2922 3876
2922 4588
2922 4818
2922 4930
2923 2947
2923 2987
2923 3213
2923 4358
2923 4785
2923 4984
2924 3393
2924 3634
2924 3954
2924 4687
2924 4813
2925 3234
2925 3599
2925 3895
2925 4267
2925 4559
2925 4863
2926 2940
2926 2986
2926 3179
2926 3496
2926 3908
2926 4473
2926 4791
2926 4861
2927 2961
2927 3515
2927 3600
2927 4209
2927 4942
2927 4943
2927 4975
2928 3079
2928 3198
2928 3294
2928 3985
2928 4501
2928 4551
2928 4912
2929 2987
2929 2996
2929 3119
2929 3124
2929 3830
2929 4072
2929 4137
2929 4207
2930 3338
2930 3699
2930 4296
2930 4308
2930 4881
2930 4908
2930 4976
2930 4993
2931 2945
2931 2973
2931 3049
2931 3599
2931 3944
2931 4191
2932 3016
2932 3338
2932 3361
2932 3372
2932 3832
2932 4357
2932 4925
2933 3532
2933 3555
2933 3713
2933 3963
2933 4161
2933 4166
2933 4218
2933 4336
2933 4611
2933 4629
2933 4736
2934 2995
2934 3274
2934 3582
2934 3956
2934 4037
2934 4143
2934 4545
2934 4899
2935 3782
2935 3894
2935 4236
2935 4451
2935 4793
2935 4848
2935 4875
2936 3036
2936 3667
2936 4173
2936 4201
2936 4432
2936 4630
2936 4691
2936 4890
2936 4912
2937 3085
2937 3106
2937 3176
2937 3409
2937 3431
2937 3533
2937 3607
2937 3663
2937 3715
2937 3734
2937 3851
2937 3861
2937 3920
2937 4044
2937 4268
2937 4288
2937 4328
2937 4349
2937 4612
2937 4942
2937 4991
2938 3332
2938 4186
2938 4234
2938 4241
2938 4309
2938 4398
2938 4690
2938 4704
2938 4989
2939 3090
2939 3102
2939 3227
2939 3250
2939 3372
2939 3858
2939 3860
2939 3938
2939 4018
2939 4903
2939 4953
2940 2974
2940 3039
2940 3051
2940 3293
2940 3318
2940 3415
2940 3556
2940 3599
2940 3771
2940 3904
2940 3907
2940 3947
2940 4019
2940 4029
2940 4088
2940 4132
2940 4212
2940 4263
2940 4281
2940 4380
2940 4409
2940 4526
2940 4527
2940 4530
2940 4625
2940 4850
2940 4862
2941 3398
2941 3626
2941 3673
2941 3881
2941 4006
2941 4447
2941 4461
2941 4561
2941 4599
2941 4657
2942 3096
2942 3104
2942 3214
2942 3368
2942 3446
2942 3674
2942 3838
2942 3846
2942 3913
2942 3915
2942 4775
2943 2956
2943 3121
2943 3247
2943 3391
2943 3447
2943 3464
2943 3744
2943 4100
2943 4307
2943 4492
2943 4740
2943 4928
2944 3385
2944 3413
2944 3501
2944 3578
2944 3655
2944 3686
2944 3729
2944 3872
2944 3986
2944 4065
2944 4284
2944 4687
2944 4697
2944 4773
2944 4988
2945 2973
2945 3049
2945 3169
2945 3547
2945 4191
2945 4261
2945 4651
2945 4889
2946 3039
2946 3891
2946 3899
2946 3959
2946 4019
2946 4380
2946 4625
2946 4676
2946 4791
2946 4863
2946 4918
2946 4926
2946 4938
2946 4941
2947 3165
2947 3455
2947 3634
2947 3902
2947 4127
2947 4953
2947 4995
2948 3005
2948 3258
2948 3277
2948 4242
2948 4271
2948 4318
2948 4411
2948 4636
2949 3447
2949 4307
2949 4740
2950 3165
2950 3233
2950 3269
2950 3527
2950 4076
2950 4197
2950 4328
2950 4990
2951 2967
2951 3054
2951 3263
2951 3343
2951 3458
2951 3482
2951 3574
2951 3584
2951 3609
2951 3769
2951 3780
2951 3790
2951 3802
2951 3856
2951 3876
2951 3895
2951 4002
2951 4011
2951 4062
2951 4142
2951 4266
2951 4286
2951 4355
2951 4381
2951 4515
2951 4541
2951 4640
2951 4883
2951 4986
2951 4992
2952 2964
2952 3067
2952 3093
2952 3693
2952 3769
2952 3780
2952 3801
2952 3905
2952 3944
2952 3969
2952 4199
2952 4381
2952 4559
2952 4588
2952 4894
2952 4941
2953 3115
2953 3165
2953 3395
2953 3697
2953 3904
2953 4112
2953 4149
2953 4185
2953 4187
2953 4410
2953 4424
2953 4470
2953 4654
2954 3044
2954 3139
2954 3174
2954 4288
2954 4423
2954 4458
2954 4561
2954 4811
2955 3189
2955 3427
2955 3747
2955 4329
2955 4905
2955 4923
2956 4492
2957 3064
2957 3128
2957 4143
2958 3112
2958 3784
2958 4737
2958 4820
2959 2994
2959 3212
2959 3292
2959 4102
2959 4959
2960 3801
2960 3834
2960 3876
2960 4251
2960 4597
2960 4605
2960 4894
2961 3085
2961 3166
2961 3189
2961 3533
2961 3850
2961 3906
2961 3920
2961 3957
2961 4056
2961 4288
2961 4349
2961 4371
2961 4586
2962 2971
2962 2986
2962 3179
2962 3845
2962 3896
2962 3941
2962 4050
2962 4155
2962 4264
2962 4281
2962 4810
2962 4987
2963 3559
2963 4215
2963 4319
2963 4326
2963 4358
2963 4466
2963 4990
2964 3359
2964 4014
2964 4138
2964 4146
2964 4228
2964 4376
2964 4573
2964 4767
2964 4983
2965 3530
2965 3618
2965 4331
2965 4521
2965 4585
2965 4587
2965 4759
2965 4968
2966 3155
2966 4162
2966 4190
2966 4484
2966 4640
2967 3821
2967 3958
2967 4011
2967 4941
2968 2981
2968 2993
2968 3013
2968 3031
2968 3106
2968 3141
2968 3176
2968 3189
2968 3231
2968 3266
2968 3374
2968 3428
2968 3449
2968 3533
2968 3539
2968 3559
2968 3564
2968 3576
2968 3642
2968 3670
2968 3906
2968 3909
2968 3988
2968 3996
2968 4039
2968 4211
2968 4328
2968 4349
2968 4511
2968 4946
2969 3088
2969 3301
2969 3516
2969 4127
2969 4324
2969 4853
2969 4964
2970 3094
2970 3116
2970 3359
2970 3722
2970 3807
2970 4033
2970 4138
2970 4736
2970 4812
2971 4155
2971 4281
2971 4526
2972 3124
2972 3372
2972 3653
2972 3724
2972 3860
2972 4178
2972 4289
2972 4839
2973 4191
2973 4651
2974 3323
2974 3483
2974 3896
2974 4071
2974 4183
2974 4263
2974 4691
2974 4824
2974 4918
2974 4987
2975 3107
2975 3423
2975 3732
2975 3733
2975 4596
2975 4609
2976 3096
2976 3197
2976 3246
2976 3277
2976 3373
2976 3592
2976 3749
2976 4000
2976 4117
2976 4751
2976 4755
2976 4880
2976 4972
2977 3133
2977 4009
2977 4418
2978 2998
2978 3141
2978 3159
2978 3335
2978 3588
2978 3758
2978 3897
2978 4010
2978 4343
2978 4371
2978 4946
2979 3664
2979 3995
2979 4579
2979 4641
2979 4682
2979 4756
2979 4817
2979 4981
2979 4996
2980 2991
2980 3103
2980 3119
2980 3124
2980 3372
2980 3511
2980 3799
2980 3860
2981 2993
2981 3106
2981 3387
2981 3419
2981 3428
2981 3449
2981 3698
2981 3850
2981 3928
2981 3957
2981 4299
2981 4553
2982 2989
2982 2997
2982 3011
2982 3143
2982 3180
2982 3385
2982 3586
2982 3774
2982 3855
2982 3872
2982 4787
2982 4906
2982 4947
2983 3374
2983 3391
2983 4225
2984 3092
2984 3142
2984 3513
2984 3650
2984 3903
2984 3997
2984 4007
2984 4564
2985 3807
2985 3970
2985 3974
2985 4182
2985 4192
2985 4419
2985 4483
2985 4772
2985 4805
2986 3051
2986 3815
2986 4071
2986 4625
2986 4884
2986 4926
2987 3044
2987 3090
2987 3119
2987 3124
2987 3227
2987 3230
2987 3250
2987 3653
2987 3726
2987 3859
2987 3860
2987 3875
2987 4009
2987 4028
2987 4069
2987 4103
2987 4105
2987 4207
2987 4302
2987 4325
2987 4394
2987 4954
2987 4958
2988 3594
2988 4102
2988 4114
2988 4124
2988 4157
2988 4279
2988 4649
2988 4967
2989 2991
2989 3060
2989 3259
2989 3477
2989 3624
2989 3767
2989 3835
2989 3842
2989 3918
2989 4598
2989 4808
2989 4886
2989 4922
2989 4989
2990 3215
2990 3632
2990 3739
2990 4012
2990 4017
2990 4449
2990 4592
2990 4596
2990 4981
2991 3011
2991 3046
2991 3072
2991 3145
2991 3162
2991 3255
2991 3316
2991 3357
2991 3385
2991 3413
2991 3420
2991 3448
2991 3478
2991 3500
2991 3523
2991 3531
2991 3561
2991 3586
2991 3686
2991 3733
2991 3804
2991 3819
2991 3842
2991 3855
2991 3872
2991 4029
2991 4081
2991 4233
2991 4577
2991 4634
2991 4684
2991 4768
2991 4886
2991 4906
2991 4914
2991 4985
2991 4989
2992 4115
2992 4153
2993 3076
2993 3189
2993 3409
2993 3545
2993 3734
2993 3928
2993 4039
2993 4288
2993 4321
2993 4424
2993 4924
2993 4943
2993 4991
2994 3118
2994 3505
2994 3990
2994 4049
2994 4068
2994 4107
2994 4215
2994 4243
2994 4287
2994 4294
2994 4325
2994 4967
2994 4974
2994 4995
2995 3274
2995 4037
2995 4140
2995 4545
2995 4899
2996 3102
2996 3103
2996 3124
2996 3133
2996 3552
2996 3884
2996 4022
2996 4105
2996 4357
2996 4394
2996 4621
2997 4097
2997 4147
2997 4212
2997 4488
2997 4673
2997 4992
2998 3860
2998 4043
2998 4096
2998 4919
2999 3149
2999 3172
2999 3828
2999 4736
2999 4791
2999 4902
3000 3097
3000 3536
3000 3632
3000 3705
3000 3816
3000 4554
3000 4752
3001 3051
3001 3084
3001 3290
3001 3404
3001 3657
3001 4862
3002 3124
3002 4105
3003 3149
3003 3818
3003 3891
3003 4132
3003 4380
3003 4409
3004 3109
3004 3152
3004 3522
3004 4630
3005 3511
3005 3760
3005 3837
3005 4132
3005 4208
3005 4242
3005 4271
3005 4278
3005 4318
3005 4522
3005 4774
3006 3299
3006 3362
3006 3553
3006 3838
3006 3848
3006 4136
3006 4373
3006 4560
3006 4681
3006 4897
3007 3157
3007 3261
3007 3959
3007 4206
3007 4353
3007 4633
3007 4786
3008 3213
3008 3272
3008 4026
3008 4121
3008 4322
3008 4388
3008 4581
3009 3476
3009 3695
3009 3872
3009 4170
3009 4557
3009 4739
3009 4815
3009 4882
3009 4897
3009 4947
3010 3221
3010 3398
3010 3606
3010 3831
3010 4585
3010 4644
3010 4842
3010 4981
3011 3220
3011 3311
3011 3324
3011 3344
3011 3488
3011 3531
3011 3552
3011 3578
3011 3669
3011 3681
3011 3695
3011 3696
3011 3701
3011 3787
3011 3810
3011 3910
3011 4023
3011 4387
3011 4683
3011 4713
3011 4802
3011 4824
3011 4922
3012 3091
3012 3171
3012 3344
3012 3388
3012 3573
3012 3627
3012 3789
3012 4185
3012 4405
3012 4416
3012 4421
3012 4424
3012 4439
3012 4465
3012 4495
3012 4747
3013 3100
3013 3106
3013 3135
3013 3280
3013 3284
3013 3288
3013 3419
3013 3458
3013 3533
3013 3642
3013 3663
3013 3734
3013 3839
3013 3880
3013 3928
3013 4083
3013 4291
3013 4313
3013 4325
3013 4529
3014 3863
3014 3868
3014 3944
3014 3999
3014 4115
3014 4153
3014 4193
3014 4337
3014 4948
3015 3092
3015 3373
3015 3491
3015 3521
3015 3528
3015 3581
3015 3826
3015 4455
3015 4664
3015 4775
3015 4953
3016 3102
3016 3250
3016 3371
3016 3372
3016 4357
3017 3025
3017 3190
3017 3373
3017 3762
3018 3157
3018 3244
3018 4040
3018 4163
3018 4353
3018 4359
3018 4403
3018 4633
3018 4786
3019 3138
3019 3955
3019 4012
3019 4497
3019 4521
3020 3141
3020 3572
3020 4188
3020 4525
3020 4786
3021 3195
3021 3248
3021 3358
3021 3889
3021 4016
3021 4116
3021 4571
3021 4616
3022 3035
3022 3204
3022 3269
3022 3937
3022 4102
3022 4358
3022 4438
3022 4452
3022 4974
3022 4994
3023 3040
3023 3157
3023 3216
3023 3472
3023 3625
3023 4090
3023 4579
3023 4831
3024 3299
3024 3321
3024 3365
3024 3495
3024 3848
3024 4136
3024 4180
3024 4384
3024 4615
3025 3056
3025 3062
3025 3125
3025 3214
3025 3513
3025 3537
3025 3662
3025 3679
3025 3997
3025 4582
3025 4846
3025 4903
3025 4920
3026 3211
3026 3381
3026 3615
3026 3633
3026 3640
3026 4344
3026 4385
3026 4411
3026 4415
3026 4446
3026 4697
3027 3736
3027 3775
3027 3885
3027 4224
3027 4238
3027 4345
3027 4701
3027 4864
3027 4885
3028 3251
3028 3899
3028 4183
3028 4219
3028 4275
3028 4409
3028 4507
3028 4535
3028 4844
3028 4945
3029 3075
3029 3184
3029 3366
3029 3446
3029 3502
3029 3679
3029 3752
3029 3757
3029 3913
3029 3915
3029 4372
3029 4751
3029 4775
3029 4891
3030 3110
3030 3260
3030 3702
3030 4156
3030 4948
3031 3704
3031 3734
3031 3742
3031 3839
3031 3854
3031 3957
3031 4288
3031 4349
3031 4501
3031 4511
3031 4523
3031 4780
3031 4942
3031 4946
3032 3124
3032 3949
3032 4178
3032 4260
3032 4621
3032 4816
3033 3331
3033 3333
3033 3452
3033 3542
3033 3601
3033 3629
3033 4171
3033 4343
3033 4366
3033 4591
3033 4607
3033 4647
3033 4845
3034 3632
3034 3878
3034 4485
3035 3144
3035 3183
3035 3310
3035 3417
3035 3472
3035 4090
3035 4130
3035 4189
3035 4277
3035 4301
3035 4353
3035 4403
3035 4441
3035 4568
3036 3544
3036 3948
3036 4782
3036 4890
3036 4912
3037 3120
3037 3359
3037 3677
3037 3816
3037 4216
3037 4301
3037 4391
3037 4736
3037 4783
3037 4812
3038 3605
3038 4156
3038 4301
3038 4310
3038 4330
3038 4412
3038 4413
3038 4483
3039 3149
3039 3184
3039 3290
3039 4967
3040 4009
3040 4154
3040 4623
3041 4177
3041 4345
3041 4761
3042 3169
3042 3221
3042 3618
3042 3785
3042 4012
3042 4066
3042 4392
3043 3189
3043 3841
3043 3902
3043 3959
3043 4264
3043 4570
3044 3124
3044 3474
3044 3543
3044 3548
3044 3653
3044 3711
3044 3840
3044 3858
3044 3859
3044 3860
3044 3890
3044 3999
3044 4096
3044 4178
3044 4208
3044 4448
3044 4831
3044 4833
3044 4903
3044 4944
3045 3164
3045 3877
3045 4116
3045 4423
3046 3180
3046 3217
3046 3226
3046 3257
3046 3344
3046 3367
3046 3389
3046 3488
3046 3624
3046 3695
3046 3816
3046 3887
3046 4233
3046 4467
3046 4684
3046 4687
3046 4713
3046 4826
3046 4858
3046 4907
3046 4979
3047 3213
3047 4326
3047 4967
3048 3158
3048 3377
3048 3618
3048 3632
3048 4696
3048 4859
3049 3178
3049 3547
3049 4889
3050 3147
3050 3217
3050 3389
3050 3448
3050 3476
3050 3531
3050 3546
3050 3816
3050 3819
3050 4576
3050 4595
3050 4787
3050 4858
3050 4897
3050 4900
3050 4906
3051 3289
3051 3293
3051 3751
3051 3972
3051 4132
3051 4473
3051 4561
3051 4802
3052 3133
3052 3180
3052 3879
3052 3956
3052 4637
3052 4828
3052 4968
3053 3220
3053 3367
3053 3420
3053 3469
3053 3887
3053 3976
3053 4074
3053 4387
3053 4567
3053 4577
3053 4764
3053 4907
3053 4946
3053 4989
3054 3093
3054 3099
3054 3867
3054 4011
3054 4051
3054 4058
3054 4142
3054 4245
3054 4418
3054 4588
3054 4819
3054 4909
3054 4963
3055 3433
3055 4111
3055 4226
3055 4230
3055 4330
3055 4419
3055 4424
3055 4620
3055 4638
3056 3111
3056 3348
3056 3521
3056 3675
3056 3752
3056 3900
3056 3966
3056 4126
3056 4695
3056 4775
3056 4863
3056 4880
3056 4911
3057 3106
3057 3166
3057 3189
3057 3201
3057 3239
3057 3284
3057 3370
3057 3734
3057 4015
3057 4328
3057 4924
3058 3088
3058 3341
3058 3647
3058 4175
3058 4197
3058 4200
3058 4437
3058 4625
3058 4729
3058 4738
3058 4839
3059 3090
3059 3119
3059 3133
3059 3355
3059 3653
3060 3146
3060 3147
3060 3217
3060 3271
3060 3406
3060 3418
3060 3478
3060 3517
3060 3523
3060 3660
3060 3669
3060 3718
3060 3720
3060 3804
3060 3810
3060 3855
3060 3918
3060 3940
3060 3987
3060 4065
3060 4146
3060 4298
3060 4353
3060 4595
3060 4670
3060 4697
3060 4713
3060 4753
3060 4765
3060 4815
3060 4886
3060 4980
3061 3144
3061 3177
3061 3310
3061 4006
3061 4080
3061 4506
3061 4709
3062 3110
3062 3160
3062 3558
3062 3712
3062 3749
3062 3803
3062 4775
3062 4911
3062 4917
3063 3135
3063 3166
3063 3458
3063 3533
3063 3588
3063 3778
3063 3928
3063 3988
3063 4179
3063 4523
3064 3079
3064 3128
3064 3450
3064 3806
3064 3932
3064 3948
3064 4268
3064 4415
3064 4475
3064 4945
3065 3105
3065 3147
3065 3217
3065 3344
3065 3418
3065 3523
3065 3578
3065 3720
3065 3872
3065 3918
3065 4557
3065 4985
3066 3442
3066 3686
3066 3842
3066 4115
3066 4634
3066 4684
3066 4762
3066 4775
3066 4887
3066 4980
3067 3780
3067 3857
3067 3944
3067 4355
3067 4818
3067 4883
3068 3119
3068 3133
3068 3355
3068 3372
3068 3653
3068 3832
3068 4046
3068 4854
3069 3678
3069 3727
3069 4038
3069 4199
3069 4460
3069 4537
3069 4913
3070 3275
3070 3298
3070 3324
3070 3383
3070 3656
3070 3805
3070 3847
3070 3889
3070 3979
3070 4016
3070 4090
3070 4423
3070 4425
3070 4449
3070 4481
3070 4521
3070 4641
3070 4682
3070 4759
3070 4781
3070 4842
3070 4927
3070 4965
3070 4971
3071 3078
3071 3189
3071 3435
3071 3449
3071 3742
3071 3844
3071 3866
3071 4209
3071 4288
3071 4942
3071 4943
3071 4946
3072 3150
3072 3183
3072 3208
3072 3284
3072 3440
3072 3574
3072 4041
3072 4181
3072 4188
3072 4288
3072 4359
3072 4368
3072 4403
3072 4786
3073 3094
3073 3378
3073 3506
3073 3608
3073 3748
3073 4036
3073 4139
3073 4158
3073 4293
3073 4404
3073 4420
3073 4460
3073 4534
3073 4608
3073 4710
3073 4801
3073 4865
3074 3227
3074 3424
3074 3517
3074 3599
3074 3834
3074 3871
3074 3882
3074 3926
3074 4002
3074 4251
3074 4266
3074 4541
3074 4818
3074 4986
3075 3160
3075 3246
3075 3249
3075 3592
3075 3865
3076 3151
3076 3189
3076 3435
3076 3730
3076 3928
3076 4010
3076 4044
3076 4586
3077 3115
3077 3509
3077 3589
3077 4301
3077 4330
3077 4412
3077 4442
3077 4460
3077 4483
3078 3284
3078 3363
3078 3897
3078 3957
3078 4183
3078 4511
3079 3198
3079 3450
3079 4563
3079 4850
3080 3138
3080 3139
3080 3363
3080 3438
3080 3504
3080 3559
3080 3638
3080 3791
3080 3864
3080 3930
3080 4330
3080 4392
3080 4471
3080 4561
3080 4648
3080 4939
3081 3753
3081 3757
3081 4509
3081 4543
3081 4734
3081 4761
3082 3465
3082 4060
3082 4104
3082 4378
3082 4662
3082 4788
3082 4843
3082 4866
3083 3675
3083 3755
3083 3767
3083 3801
3083 3802
3083 3882
3083 4080
3083 4119
3083 4199
3083 4251
3083 4367
3083 4440
3083 4515
3083 4520
3083 4883
3084 3329
3084 3428
3084 3771
3084 4050
3084 4058
3084 4507
3084 4625
3084 4861
3085 3642
3085 3844
3085 3965
3085 4044
3085 4265
3085 4321
3085 4429
3085 4531
3085 4617
3086 3219
3086 3241
3086 3539
3086 3556
3086 4345
3087 3133
3087 3450
3087 4427
3087 4551
3088 3126
3088 3222
3088 3647
3088 3680
3088 4076
3088 4099
3088 4175
3088 4200
3088 4253
3088 4462
3088 4702
3088 4972
3089 3521
3089 4158
3089 4252
3089 4330
3089 4331
3089 4412
3089 4548
3089 4572
3089 4806
3089 4865
3090 3119
3090 3133
3090 3355
3090 3371
3090 3832
3090 3858
3090 3938
3090 4203
3090 4208
3090 4357
3090 4418
3090 4478
3090 4597
3090 4621
3090 4709
3090 4828
3090 4925
3091 3115
3091 3382
3091 3395
3091 3461
3091 4185
3091 4226
3091 4230
3091 4374
3091 4416
3091 4457
3091 4465
3091 4735
3092 3260
3092 3268
3092 3326
3092 3360
3092 3407
3092 3588
3092 3674
3092 3762
3092 3884
3092 4084
3092 4332
3092 4695
3092 4714
3092 4837
3092 4846
3093 3790
3093 3882
3093 4099
3093 4245
3093 4286
3093 4328
3093 4367
3093 4500
3093 4605
3093 4664
3093 4992
3094 3178
3094 4400
3094 4571
3094 4744
3094 4999
3095 3534
3095 3807
3095 4014
3095 4412
3095 4460
3095 4537
3095 4784
3095 4830
3096 3200
3096 3209
3096 3256
3096 3320
3096 3351
3096 3360
3096 3373
3096 3411
3096 3507
3096 3525
3096 3528
3096 3537
3096 3592
3096 3630
3096 3737
3096 3752
3096 3754
3096 3773
3096 3795
3096 3815
3096 3829
3096 3971
3096 4126
3096 4332
3096 4458
3096 4714
3096 4751
3096 4755
3096 4762
3096 4880
3096 4911
3096 4953
3097 3248
3097 4521
3097 4585
3098 3164
3098 3248
3098 3504
3098 3532
3098 3559
3098 4065
3098 4480
3098 4481
3098 4521
3098 4571
3098 4604
3098 4616
3099 3240
3099 3611
3099 3797
3099 4133
3099 4499
3100 3201
3100 3422
3100 3435
3100 3458
3100 3545
3100 3576
3100 3844
3100 3851
3100 3988
3100 3989
3100 4015
3100 4067
3100 4509
3100 4930
3100 4934
3100 4943
3100 4983
3100 4991
3101 3213
3101 3269
3101 3272
3101 4027
3101 4102
3101 4250
3101 4294
3102 3119
3102 3124
3102 3227
3102 3250
3102 3936
3102 4018
3102 4357
3102 4394
3102 4838
3102 4854
3102 4903
3103 3227
3103 3875
3103 4323
3103 4418
3103 4831
3103 4925
3104 3160
3104 3279
3104 3620
3104 3997
3104 4412
3104 4436
3104 4775
3104 4846
3104 4953
3105 3130
3105 3271
3105 3500
3105 3537
3105 3819
3105 4758
3105 4768
3105 4782
3105 4826
3105 4906
3106 3345
3106 3698
3106 3844
3106 3897
3106 3996
3106 4010
3106 4070
3106 4265
3106 4388
3106 4515
3106 4946
3107 3235
3107 3443
3107 3535
3107 3540
3107 3632
3107 4561
3107 4639
3107 4706
3107 4925
3108 4272
3108 4310
3108 4327
3108 4812
3108 4939
3108 4952
3109 3383
3109 3763
3109 4152
3109 4162
3109 4351
3109 4484
3110 3209
3110 3219
3110 3241
3110 3348
3110 3597
3110 3650
3110 3746
3110 3925
3110 3929
3110 4000
3110 4064
3110 4223
3110 4720
3110 4745
3110 4813
3110 4880
3110 4895
3110 4920
3110 4980
3111 3562
3111 3757
3111 4332
3111 4695
3111 4751
3111 4775
3111 4891
3111 4953
3112 3438
3112 3555
3112 3560
3112 3713
3112 4129
3112 4666
3113 3169
3113 3174
3113 3710
3113 4214
3113 4539
3113 4901
3114 3169
3114 3235
3114 3504
3114 3632
3114 3656
3114 3693
3114 4449
3114 4730
3114 4842
3115 3659
3115 3904
3115 3998
3115 4405
3115 4437
3115 4620
3115 4702
3116 3264
3116 3605
3116 3807
3116 4160
3116 4178
3116 4342
3116 4573
3116 4935
3117 3609
3117 3908
3117 4117
3117 4428
3118 3293
3118 3783
3118 3818
3118 3907
3118 4050
3118 4071
3118 4382
3118 4409
3118 4526
3118 4850
3118 4861
3118 4987
3119 3124
3119 3227
3119 3238
3119 3250
3119 3361
3119 3371
3119 3372
3119 3859
3119 3860
3119 3879
3119 3936
3119 3971
3119 3981
3119 3982
3119 3993
3119 4018
3119 4047
3119 4096
3119 4103
3119 4208
3119 4259
3119 4260
3119 4323
3119 4448
3119 4478
3119 4637
3119 4649
3119 4669
3119 4830
3119 4833
3119 4854
3119 4920
3119 4944
3119 4958
3120 3503
3120 3571
3120 3748
3120 4160
3120 4327
3120 4692
3120 4736
3121 3130
3121 3344
3121 3716
3121 3733
3121 3761
3121 3987
3121 4233
3121 4343
3121 4557
3121 4782
3121 4795
3121 4803
3121 4914
3121 4985
3121 4989
3122 3526
3122 3530
3122 3559
3122 3664
3122 3805
3122 4403
3122 4410
3122 4616
3122 4939
3123 3708
3123 3812
3123 3894
3123 4287
3123 4517
3123 4680
3123 4793
3123 4875
3123 4957
3123 4987
3124 3230
3124 3238
3124 3361
3124 3372
3124 3548
3124 3799
3124 3859
3124 3860
3124 3936
3124 3981
3124 3982
3124 4009
3124 4069
3124 4105
3124 4165
3124 4394
3124 4478
3124 4551
3124 4816
3124 4822
3124 4832
3124 4851
3124 4903
3124 4944
3125 3160
3125 3181
3125 3200
3125 3328
3125 3351
3125 3373
3125 3452
3125 3507
3125 3610
3125 3737
3125 3746
3125 3749
3125 3925
3125 4064
3125 4084
3125 4323
3125 4332
3125 4360
3125 4755
3125 4769
3125 4837
3125 4867
3125 4895
3126 3341
3126 3680
3126 3966
3126 4253
3126 4839
3127 3300
3127 3377
3127 3460
3127 3616
3127 3678
3127 3764
3127 3814
3127 3923
3127 4214
3127 4216
3127 4293
3127 4407
3127 4537
3127 4539
3127 4608
3127 4619
3127 4654
3127 4812
3127 4869
3128 3559
3128 4427
3128 4947
3129 3290
3129 3598
3129 4101
3129 4139
3129 4272
3129 4301
3129 4413
3129 4619
3130 3578
3130 3686
3130 3872
3130 4348
3130 4722
3130 4779
3130 4802
3130 4828
3130 4922
3131 3208
3131 3417
3131 3472
3131 4090
3131 4122
3131 4188
3131 4312
3131 4315
3131 4368
3131 4496
3131 4790
3132 3185
3132 4214
3132 4342
3133 3230
3133 3371
3133 3372
3133 3527
3133 3639
3133 3830
3133 3832
3133 3843
3133 3850
3133 3860
3133 4137
3133 4260
3133 4302
3133 4323
3133 4816
3133 4859
3133 4925
3134 3137
3134 3658
3134 4213
3134 4544
3134 4555
3134 4929
3134 4978
3135 3170
3135 4311
3135 4346
3135 4474
3135 4565
3135 4746
3135 4761
3135 4910
3136 3167
3136 3194
3136 3292
3136 3364
3136 3467
3136 3722
3136 3728
3136 3833
3136 4295
3136 4456
3136 4656
3137 3657
3137 4544
3137 4655
3137 4887
3137 4978
3138 3358
3138 3414
3138 3828
3138 3877
3138 4481
3138 4592
3138 4599
3138 4852
3139 3161
3139 3334
3139 4033
3139 4423
3139 4648
3140 3243
3140 3685
3140 3953
3140 4150
3140 4582
3140 4675
3141 3345
3141 3387
3141 3415
3141 3866
3141 4164
3141 4374
3141 4975
3142 3148
3142 3545
3142 3594
3142 4114
3142 4239
3142 4279
3142 4359
3142 4584
3142 4649
3142 4665
3143 3217
3143 3624
3143 3809
3143 3855
3143 3959
3143 4795
3143 4906
3144 3182
3144 3183
3144 3310
3144 3440
3144 3472
3144 4312
3144 4315
3144 4403
3144 4633
3144 4786
3145 3322
3145 3418
3145 3872
3145 4463
3145 4557
3145 4808
3145 4826
3145 4840
3145 4886
3145 4897
3146 3477
3146 4467
3146 4670
3146 4689
3146 4741
3146 4809
3146 4907
3147 3344
3147 3531
3147 3730
3147 3976
3147 4634
3147 4739
3147 4782
3147 4808
3148 3594
3148 3621
3148 3737
3148 4079
3148 4134
3148 4157
3148 4649
3149 3172
3149 3251
3149 3289
3149 3318
3149 3781
3149 3845
3149 3946
3149 3947
3149 3975
3149 4088
3149 4382
3149 4473
3149 4836
3149 4850
3149 4918
3150 3310
3150 3545
3150 3572
3150 3625
3150 3666
3150 4006
3150 4030
3150 4188
3150 4277
3150 4312
3150 4403
3150 4633
3151 3231
3151 3327
3151 3626
3151 3880
3151 3897
3151 3922
3151 3965
3151 4350
3152 3214
3152 3309
3152 3396
3152 3681
3152 4076
3152 4152
3152 4162
3152 4176
3152 4190
3152 4194
3152 4237
3152 4484
3152 4510
3152 4580
3152 4613
3152 4634
3153 3194
3153 3467
3153 3644
3153 3728
3153 4168
3153 4295
3154 3307
3154 3369
3154 3444
3154 3602
3154 4108
3154 4435
3155 3260
3155 3267
3155 3446
3155 3474
3155 3620
3155 3630
3155 3866
3155 3962
3155 4000
3155 4126
3155 4880
3155 4891
3155 4961
3156 3348
3156 3530
3156 3540
3156 3559
3156 4596
3157 3247
3157 3417
3157 4154
3157 4368
3157 4403
3157 4421
3157 4568
3158 3174
3158 3187
3158 3563
3158 4016
3158 4095
3159 3166
3159 3176
3159 3189
3159 3266
3159 3335
3159 3527
3159 3698
3159 3742
3159 3928
3159 4164
3159 4350
3160 3195
3160 3200
3160 3229
3160 3436
3160 3446
3160 3456
3160 3592
3160 3596
3160 3662
3160 3679
3160 3737
3160 3795
3160 3884
3160 3903
3160 3946
3160 4008
3160 4126
3160 4205
3160 4622
3160 4662
3160 4745
3160 4750
3160 4951
3161 3296
3161 4876
3161 4939
3161 4968
3162 3186
3162 3386
3162 3412
3162 3578
3162 3842
3162 4217
3162 4284
3162 4577
3162 4697
3162 4795
3163 3218
3163 3367
3163 3399
3163 3469
3163 3695
3163 3804
3163 3842
3163 3887
3163 4025
3163 4071
3163 4826
3163 4914
3163 4922
3163 4988
3164 3169
3164 3349
3164 3475
3164 3805
3164 3847
3164 3917
3164 4057
3164 4679
3165 3216
3165 3272
3165 4102
3165 4107
3165 4448
3165 4785
3166 3202
3166 3308
3166 3458
3166 3600
3166 3844
3166 3861
3166 3928
3166 4066
3166 4905
3167 3364
3167 4733
3167 4748
3168 3225
3168 3682
3168 4204
3168 4232
3168 4441
3168 4474
3168 4480
3168 4519
3168 4600
3168 4668
3168 4746
3169 3215
3169 3248
3169 3535
3169 3559
3169 3612
3169 3661
3169 3768
3169 3877
3169 3953
3169 4031
3169 4239
3169 4393
3169 4571
3169 4579
3169 4643
3169 4715
3169 4927
3169 4934
3170 3209
3170 3451
3170 3673
3170 4474
3170 4480
3170 4565
3171 3189
3171 3202
3171 3409
3171 3449
3171 3533
3171 3663
3171 3844
3171 3866
3171 3924
3171 4531
3171 4553
3172 3907
3172 3947
3172 4505
3172 4526
3172 4844
3173 3253
3173 3506
3173 3536
3173 4174
3173 4301
3173 4362
3173 4618
3173 4719
3173 4893
3174 3534
3174 3643
3174 3805
3174 3872
3174 3927
3174 3958
3174 3962
3174 4055
3174 4423
3174 4561
3174 4571
3174 4817
3174 4934
3174 4987
3175 3532
3175 3541
3175 3555
3175 3713
3175 4218
3175 4274
3175 4611
3176 3201
3176 3597
3176 3717
3176 3742
3176 4010
3176 4179
3176 4983
3176 4991
3177 3708
3177 3782
3177 3855
3177 3942
3177 4200
3177 4204
3177 4340
3177 4680
3177 4848
3177 4875
3178 3421
3178 3558
3178 3631
3178 3764
3178 4216
3178 4228
3178 4293
3178 4572
3178 4865
3179 3290
3179 3975
3179 4615
3179 4862
3180 3271
3180 3546
3180 3987
3180 4308
3180 4314
3180 4897
3180 4922
3181 3229
3181 3514
3181 3674
3181 3861
3181 4755
3181 4775
3182 3192
3182 3216
3182 3440
3182 3574
3182 3666
3182 4006
3182 4086
3182 4189
3182 4623
3182 4630
3182 4660
3182 4709
3182 4786
3182 4849
3183 3247
3183 3625
3183 4006
3183 4040
3183 4214
3183 4309
3183 4623
3184 3523
3184 3634
3184 4720
3184 4807
3185 3330
3185 3438
3185 3487
3185 4087
3185 4138
3185 4174
3185 4216
3185 4272
3185 4275
3185 4460
3186 3448
3186 3819
3186 3842
3186 3887
3186 3993
3186 4082
3186 4557
3186 4758
3186 4764
3186 4787
3187 3235
3187 3628
3187 3683
3187 4423
3187 4996
3188 3392
3188 3480
3188 3562
3188 3588
3188 3849
3188 4227
3188 4727
3188 4888
3189 3202
3189 3266
3189 3308
3189 3363
3189 3387
3189 3419
3189 3428
3189 3431
3189 3533
3189 3670
3189 3698
3189 3715
3189 3717
3189 3854
3189 3897
3189 3922
3189 3928
3189 3965
3189 3988
3189 3996
3189 4010
3189 4035
3189 4039
3189 4191
3189 4240
3189 4265
3189 4288
3189 4321
3189 4350
3189 4410
3189 4511
3189 4588
3189 4933
3189 4943
3189 4946
3189 4965
3190 3197
3190 3452
3190 3691
3190 3692
3190 3962
3190 4054
3190 4757
3190 4917
3190 4969
3191 3354
3191 3504
3191 3585
3191 3623
3191 3706
3191 3765
3191 4291
3191 4300
3191 4361
3191 4487
3191 4589
3191 4657
3192 3600
3192 4130
3192 4188
3192 4308
3192 4506
3192 4623
3192 4633
3192 4709
3192 4781
3192 4786
3193 3195
3193 3347
3193 3525
3193 3943
3193 4167
3193 4807
3193 4867
3194 3292
3194 3467
3194 3833
3194 3979
3194 4456
3194 4891
3195 3209
3195 3592
3195 3597
3195 3620
3195 3757
3195 4126
3195 4300
3195 4775
3195 4856
3196 3421
3196 3835
3196 4391
3196 4412
3196 4710
3197 3260
3197 3884
3197 3929
3197 4084
3197 4775
3197 4837
3198 3948
3198 3985
3198 4140
3198 4501
3198 4706
3198 4906
3199 3347
3199 3481
3199 3671
3199 4198
3199 4417
3199 4724
3199 4730
3200 3368
3200 3674
3200 4129
3200 4895
3201 3232
3201 3363
3201 3928
3201 4010
3201 4321
3201 4349
3201 4483
3201 4553
3201 4586
3201 4942
3202 3897
3202 4263
3202 4930
3203 3280
3203 3588
3203 3607
3203 3649
3203 3880
3203 4612
3203 4640
3203 4942
3204 3212
3204 3313
3204 3346
3204 3376
3204 3991
3204 4027
3204 4102
3204 4401
3204 4491
3204 4990
3205 3687
3205 3885
3205 4238
3205 4257
3205 4297
3205 4917
3206 3421
3206 3616
3206 4138
3206 4376
3206 4666
3207 3214
3207 3229
3207 3260
3207 3267
3207 3514
3207 3521
3207 3525
3207 4205
3208 3244
3208 3655
3208 4006
3208 4040
3208 4041
3208 4181
3208 4247
3208 4309
3208 4395
3208 4506
3208 4633
3208 4786
3209 3393
3209 3884
3209 3892
3209 4042
3209 4867
3210 3315
3210 3381
3210 4072
3210 4385
3210 4411
3211 3234
3211 3282
3211 3780
3211 3882
3211 3968
3211 4119
3211 4212
3211 4515
3211 4814
3212 3233
3212 3346
3212 3455
3212 3527
3212 3966
3212 3990
3212 4113
3212 4197
3212 4215
3212 4442
3212 4581
3212 4990
3213 4712
3213 4967
3213 4990
3214 3260
3214 3457
3214 3474
3214 3597
3214 3650
3214 3675
3214 3737
3214 3757
3214 3978
3214 4008
3214 4064
3214 4288
3214 4555
3214 4891
3214 4953
3215 3430
3215 3618
3215 3650
3215 3831
3215 3878
3215 4304
3215 4497
3215 4592
3215 4643
3215 4842
3215 4934
3215 4971
3216 3253
3216 3472
3216 3933
3216 4006
3216 4080
3216 4189
3216 4309
3216 4353
3216 4927
3217 3316
3217 3344
3217 3420
3217 3451
3217 3453
3217 3634
3217 3660
3217 3726
3217 3733
3217 3759
3217 3761
3217 3774
3217 3809
3217 3819
3217 3823
3217 3855
3217 4065
3217 4233
3217 4284
3217 4287
3217 4652
3217 4687
3217 4689
3217 4739
3217 4803
3217 4904
3217 4999
3218 3272
3218 3311
3218 3404
3218 3422
3218 3448
3218 3624
3218 3695
3218 3759
3218 3816
3218 3918
3218 3986
3218 4407
3218 4697
3218 4765
3218 4989
3218 4999
3219 3246
3219 3320
3219 3521
3219 3749
3219 3951
3219 3962
3219 4880
3220 3413
3220 4467
3220 4906
3221 4130
3221 4256
3221 4585
3221 4601
3221 4968
3222 3647
3222 3648
3222 3781
3222 4144
3222 4258
3222 4293
3222 4364
3222 4838
3222 4839
3223 3463
3223 3615
3223 3767
3223 3921
3223 4316
3224 3232
3224 3380
3224 3458
3224 3607
3224 3866
3224 4288
3224 4521
3225 4474
3225 4565
3226 3278
3226 4577
3227 3238
3227 3548
3227 3843
3227 3858
3227 3961
3227 4018
3227 4069
3227 4178
3227 4203
3227 4208
3227 4260
3227 4778
3227 4816
3227 4854
3228 3298
3228 3479
3228 3632
3228 4393
3228 4449
3228 4756
3229 3267
3229 3351
3229 3542
3229 3597
3229 3650
3229 3691
3229 3815
3229 3846
3229 3892
3229 4961
3229 4969
3230 3372
3230 3609
3230 3774
3230 3843
3230 3924
3230 4178
3230 4208
3230 4828
3231 3363
3231 3409
3231 3539
3231 4328
3231 4763
3232 3428
3232 3533
3232 3670
3232 3704
3232 3928
3232 4015
3232 4035
3232 4313
3232 4906
3233 3272
3233 3342
3233 3346
3233 3455
3233 3527
3233 3788
3233 3937
3233 4250
3233 4277
3233 4974
3233 4979
3233 4984
3234 3867
3234 3876
3234 3926
3234 4266
3234 4488
3235 3398
3235 3445
3235 3692
3235 3889
3235 4055
3235 4095
3235 4443
3235 4462
3235 4907
3236 3302
3236 3312
3236 3444
3236 3551
3236 3623
3236 4108
3236 4303
3236 4333
3236 4377
3236 4428
3236 4453
3236 4464
3236 4676
3237 3625
3237 4633
3237 4742
3237 4777
3238 3250
3238 3372
3238 3530
3238 4103
3238 4208
3238 4448
3238 4972
3239 3363
3239 3419
3239 3545
3239 3687
3239 3698
3239 3758
3239 4933
3240 3353
3240 3611
3240 4133
3241 3457
3241 3507
3241 3514
3241 3650
3241 3803
3241 3915
3241 3962
3241 4205
3241 4714
3241 4775
3241 4911
3241 4961
3242 3350
3242 3403
3242 3439
3242 3463
3242 3484
3242 3921
3242 4114
3242 4169
3242 4375
3242 4490
3242 4690
3242 4830
3243 3519
3243 3813
3243 4150
3243 4674
3244 4130
3244 4154
3244 4189
3244 4568
3245 3416
3245 3817
3245 4330
3245 4489
3245 4493
3245 4806
3246 3279
3246 3436
3246 3491
3246 3746
3246 3915
3246 3946
3246 4775
3246 4837
3247 3417
3247 3603
3247 4080
3247 4154
3247 4206
3247 4332
3247 4335
3247 4353
3247 4629
3248 3275
3248 3383
3248 3430
3248 3445
3248 3466
3248 3495
3248 3559
3248 3626
3248 3628
3248 3650
3248 3776
3248 3917
3248 3995
3248 4396
3248 4449
3248 4706
3248 4753
3248 4852
3249 3294
3249 3699
3249 3812
3249 4269
3249 4793
3249 4957
3250 3348
3250 3859
3250 4160
3250 4842
3251 3796
3251 3818
3251 3908
3251 4019
3251 4382
3251 4526
3251 4662
3251 4862
3252 3471
3252 4369
3252 4514
3252 4754
3252 4873
3253 3820
3253 4032
3253 4162
3253 4170
3253 4335
3253 4849
3254 3367
3254 3448
3254 3624
3254 3695
3254 4544
3254 4567
3254 4577
3255 3569
3255 3697
3255 3855
3255 4001
3255 4577
3255 4684
3255 4687
3255 4765
3255 4886
3255 4889
3255 4980
3256 3278
3256 3903
3256 4084
3256 4332
3256 4775
3257 3588
3257 3698
3257 3850
3257 3935
3257 4010
3257 4044
3257 4179
3257 4265
3257 4933
3258 3277
3258 4240
3258 4436
3259 3779
3259 4138
3259 4400
3259 4402
3259 4404
3259 4412
3259 4413
3259 4477
3259 4483
3259 4532
3260 3326
3260 3368
3260 3528
3260 3749
3260 3888
3260 4205
3260 4480
3260 4961
3261 3477
3261 3552
3261 3696
3261 3776
3261 3787
3261 3836
3261 3855
3261 3872
3261 4020
3261 4357
3261 4376
3261 4643
3261 4683
3261 4684
3261 4985
3261 4989
3262 3570
3262 3798
3262 3878
3262 4101
3262 4293
3263 3424
3263 3599
3263 3769
3263 3790
3263 3883
3263 4001
3263 4062
3263 4142
3263 4352
3263 4515
3263 4818
3264 3589
3264 3631
3264 3645
3264 3974
3264 4164
3264 4210
3264 4301
3264 4489
3264 4763
3264 4823
3264 4835
3265 3708
3265 3812
3265 3894
3265 4217
3265 4269
3265 4340
3265 4451
3265 4793
3265 4875
3266 3288
3266 3517
3266 3545
3266 3866
3266 3897
3266 4066
3266 4067
3266 4083
3266 4288
3266 4392
3267 3691
3267 4458
3267 4714
3267 4715
3267 4775
3268 3394
3268 3708
3268 3812
3268 4204
3268 4214
3268 4236
3268 4451
3268 4793
3268 4848
3268 4875
3269 3396
3269 3449
3269 3950
3269 3960
3269 3983
3269 4082
3269 4102
3269 4113
3269 4215
3269 4243
3269 4322
3269 4388
3269 4438
3269 4594
3269 4967
3269 4995
3270 3302
3270 3307
3270 3325
3270 3369
3270 4262
3270 4370
3270 4377
3270 4676
3271 3322
3271 3420
3271 3473
3271 3500
3271 3550
3271 3613
3271 3701
3271 3759
3271 3855
3271 3951
3271 4557
3271 4577
3271 4634
3271 4721
3271 4886
3272 3300
3272 3340
3272 3342
3272 3384
3272 3941
3272 3960
3272 4107
3272 4113
3272 4127
3272 4197
3272 4243
3272 4250
3272 4294
3272 4325
3272 4358
3272 4388
3272 4712
3272 4785
3272 4967
3272 4979
3272 4994
3273 4752
3273 4842
3273 4934
3274 3901
3274 4037
3274 4140
3274 4273
3274 4545
3275 3339
3275 3478
3275 4181
3276 3381
3276 3460
3276 3640
3276 4072
3276 4110
3276 4344
3276 4385
3276 4446
3276 4529
3276 4985
3277 3314
3277 3511
3277 3760
3277 3837
3277 4240
3277 4242
3277 4271
3277 4278
3277 4305
3277 4318
3277 4543
3277 4774
3278 3386
3278 4288
3278 4762
3279 3457
3279 3507
3279 4464
3279 4720
3279 4895
3280 3287
3280 3670
3280 3922
3280 3965
3280 4350
3280 4529
3281 3421
3281 3814
3281 4214
3281 4334
3281 4354
3281 4493
3281 4823
3282 3801
3282 3856
3282 4111
3282 4146
3282 4239
3282 4244
3282 4251
3282 4352
3282 4381
3282 4764
3283 3595
3283 3632
3283 4423
3283 4449
3283 4554
3283 4756
3283 4832
3284 3409
3284 3449
3284 3996
3284 4015
3284 4164
3284 4265
3284 4924
3284 4943
3284 4975
3285 3348
3285 3529
3285 4030
3285 4813
3286 4402
3286 4571
3286 4592
3286 4804
3286 4981
3287 3345
3287 3428
3287 3456
3287 3533
3287 4083
3288 3458
3288 3588
3288 3758
3288 3850
3288 3880
3288 4015
3288 4349
3288 4371
3289 4861
3290 3318
3290 3783
3290 4032
3290 4183
3290 4219
3290 4861
3291 3635
3291 4089
3291 4101
3291 4138
3291 4192
3291 4301
3291 4617
3292 3722
3292 3728
3292 4135
3293 3329
3293 3796
3293 3818
3293 3896
3293 3931
3293 4248
3293 4836
3294 3708
3294 3782
3294 3807
3294 4204
3294 4287
3294 4451
3294 4848
3294 4875
3295 3380
3295 3743
3295 4235
3295 4534
3295 4583
3295 4606
3295 4886
3296 3349
3296 3632
3296 3877
3296 4579
3297 3337
3297 3428
3297 3558
3297 3568
3297 3828
3297 3919
3297 4412
3297 4489
3297 4532
3297 4548
3297 4743
3298 3708
3298 3792
3298 3924
3298 4604
3298 4817
3299 3362
3299 3365
3299 3553
3299 3564
3299 3848
3299 4048
3299 4152
3299 4180
3299 4373
3299 4384
3299 4562
3299 4597
3299 4673
3299 4681
3299 4860
3300 3421
3300 3508
3300 3598
3300 3608
3300 3779
3300 3919
3300 4092
3300 4103
3300 4138
3300 4160
3300 4301
3300 4322
3300 4354
3300 4444
3300 4498
3300 4593
3300 4629
3300 4935
3301 3397
3301 3712
3301 4249
3301 4289
3301 4964
3302 3602
3302 4196
3302 4256
3302 4262
3302 4303
3302 4320
3302 4377
3302 4464
3303 3348
3303 4695
3303 4775
3303 4913
3304 3603
3304 4396
3304 4599
3304 4696
3305 3332
3305 3462
3305 3484
3305 3767
3305 4196
3305 4234
3305 4262
3305 4273
3305 4304
3305 4578
3305 4685
3306 3671
3306 3775
3306 4198
3306 4224
3306 4238
3306 4242
3306 4297
3306 4345
3306 4386
3306 4724
3306 4776
3306 4779
3307 4292
3307 4320
3307 4377
3307 4886
3308 3539
3308 3545
3308 3649
3308 3819
3308 3851
3308 3854
3308 3922
3308 4529
3308 4586
3309 4076
3309 4152
3309 4237
3309 4383
3309 4484
3309 4613
3310 3664
3310 4080
3310 4090
3310 4154
3310 4359
3310 4786
3311 3386
3311 4025
3311 4284
3311 4387
3311 4886
3311 4999
3312 3325
3312 3400
3312 4303
3312 4320
3312 4377
3312 4718
3313 3396
3313 3511
3313 3788
3313 3952
3313 3991
3313 4003
3313 4026
3313 4049
3313 4068
3313 4102
3313 4121
3313 4192
3313 4250
3313 4319
3313 4322
3313 4326
3313 4438
3313 4452
3313 4538
3313 4594
3313 4712
3313 4928
3313 4974
3313 4979
3313 4990
3313 4994
3314 4240
3314 4242
3314 4278
3314 4436
3315 3381
3315 3633
3315 3640
3315 4072
3315 4110
3315 4385
3315 4411
3315 4415
3315 4956
3316 3488
3316 3550
3316 3686
3316 3696
3316 4233
3316 4416
3316 4925
3317 3377
3317 3574
3317 4006
3317 4506
3317 4633
3317 4849
3318 3766
3318 4535
3318 4659
3318 4862
3319 3356
3319 3868
3319 3999
3319 4029
3319 4443
3319 4574
3319 4669
3319 4868
3320 3620
3320 3915
3320 4029
3320 4856
3320 4920
3321 3362
3321 3553
3321 3838
3321 4136
3321 4180
3321 4195
3321 4562
3321 4613
3321 4615
3322 3523
3322 3568
3322 4319
3322 4553
3322 4762
3322 4922
3323 3751
3323 3777
3323 3899
3323 4281
3323 4861
3323 4862
3323 4884
3323 4918
3324 3559
3324 4129
3324 4592
3324 4639
3324 4757
3325 3400
3325 3444
3325 3520
3325 4678
3325 4688
3326 3348
3326 3852
3326 3884
3326 3954
3326 3962
3326 4636
3326 4750
3326 4755
3327 3623
3328 3452
3328 3456
3328 3513
3328 4715
3328 4807
3329 4382
3329 4507
3329 4965
3330 3609
3330 4073
3330 4117
3330 4428
3331 3601
3331 3629
3331 4349
3331 4583
3331 4607
3331 4896
3332 3350
3332 3845
3332 4169
3332 4375
3332 4490
3332 4578
3332 4602
3332 4704
3332 4738
3332 4786
3332 4921
3333 3629
3333 4171
3333 4343
3333 4583
3333 4607
3333 4845
3334 3643
3334 3703
3334 4016
3334 4259
3334 4281
3334 4601
3334 4830
3335 3861
3335 3916
3336 3479
3336 3499
3336 3791
3336 4055
3336 4392
3336 4549
3336 4592
3336 4796
3337 3898
3337 4617
3337 4719
3337 4784
3338 3376
3338 3401
3338 3468
3338 3565
3338 3590
3338 4069
3338 4296
3338 4308
3338 4418
3338 4847
3338 4881
3338 4976
3339 4379
3339 4384
3339 4562
3339 4597
3339 4615
3339 4673
3339 4698
3339 4902
3340 3513
3340 4694
3341 3630
3341 3647
3341 3648
3341 3680
3341 3867
3341 4258
3341 4364
3341 4633
3341 4729
3341 4838
3342 4049
3342 4979
3343 3867
3343 3882
3343 4052
3343 4199
3343 4515
3344 3866
3344 4634
3344 4907
3344 4922
3345 3458
3345 3533
3345 3545
3345 3649
3345 3670
3345 3897
3345 4321
3345 4586
3345 4787
3345 4924
3346 4038
3346 4120
3346 4221
3346 4452
3346 4974
3347 3671
3347 3687
3347 4345
3347 4386
3347 4724
3347 4779
3347 4864
3348 3502
3348 3596
3348 3634
3348 3654
3348 3713
3348 3752
3348 3829
3348 3852
3348 3946
3348 4084
3348 4126
3348 4332
3348 4751
3348 4755
3348 4769
3348 4775
3348 4920
3349 3632
3349 4996
3350 3484
3350 3767
3350 4411
3350 4465
3350 4490
3350 4777
3350 4798
3351 3393
3351 3525
3351 3592
3351 3762
3351 4205
3352 4412
3352 4498
3352 4783
3352 4827
3352 4849
3352 4935
3353 3611
3353 4133
3353 4451
3353 4499
3353 4521
3353 4916
3354 3579
3354 3585
3354 3727
3354 3765
3354 4291
3354 4487
3354 4589
3355 3859
3355 4207
3355 4957
3356 3999
3356 4115
3356 4337
3356 4431
3356 4552
3356 4574
3356 4799
3356 4868
3357 3792
3357 4485
3357 4561
3357 4612
3357 4641
3358 3445
3358 3580
3358 3703
3358 3878
3358 4012
3358 4144
3358 4610
3358 4915
3358 4996
3359 3677
3359 3702
3359 3842
3359 4138
3359 4229
3359 4252
3359 4280
3359 4319
3359 4327
3359 4391
3359 4619
3359 4645
3359 4719
3359 4800
3360 3411
3360 3610
3360 3865
3360 3892
3360 3997
3360 4171
3360 4775
3360 4827
3361 3653
3361 3711
3361 3799
3361 3800
3361 3830
3361 3879
3361 4260
3361 4418
3361 4440
3361 4763
3361 4822
3361 4857
3361 4972
3362 3365
3362 3838
3362 3984
3362 4099
3362 4451
3362 4597
3362 4615
3362 4673
3362 4681
3362 4811
3362 4921
3363 3409
3363 3539
3363 3844
3363 3965
3363 4046
3363 4056
3363 4288
3363 4349
3363 4523
3363 4546
3363 4612
3363 4930
3363 4956
3364 4168
3364 4456
3364 4622
3365 3553
3365 4030
3365 4136
3365 4379
3365 4546
3365 4562
3365 4615
3365 4673
3365 4811
3366 3968
3366 4148
3366 4245
3366 4352
3367 3404
3367 3437
3367 3448
3367 3512
3367 3655
3367 3716
3367 3761
3367 3809
3367 3855
3367 3887
3367 3976
3367 3997
3367 4284
3367 4387
3367 4467
3367 4636
3367 4652
3367 4684
3367 4697
3367 4741
3367 4808
3367 4900
3367 4999
3368 3915
3368 4332
3368 4846
3369 3400
3369 3444
3369 3520
3369 4010
3369 4108
3369 4267
3369 4377
3369 4524
3369 4528
3369 4635
3369 4707
3370 3458
3370 3624
3370 3638
3370 3704
3370 3804
3370 3897
3370 4529
3370 4942
3371 3949
3371 4259
3371 4397
3371 4637
3371 4833
3372 3711
3372 3800
3372 3840
3372 3860
3372 3890
3372 4075
3372 4105
3372 4165
3372 4462
3372 4816
3372 4859
3372 4944
3372 4954
3373 3474
3373 3521
3373 3581
3373 3592
3373 3620
3373 3934
3373 3946
3373 3997
3374 3778
3374 4288
3374 4933
3374 4935
3374 4975
3375 3558
3375 3651
3375 3685
3375 3953
3375 4150
3375 4167
3376 3401
3376 3504
3376 3531
3376 3820
3376 4296
3376 4308
3376 4976
3377 3786
3377 4229
3377 4423
3377 4936
3378 3421
3378 3608
3378 3678
3378 3688
3378 3714
3378 4138
3378 4548
3378 4725
3378 4754
3378 4847
3378 4885
3378 4893
3379 3388
3379 3432
3379 3510
3379 3659
3379 3707
3379 3904
3379 3966
3379 3998
3379 4112
3379 4230
3379 4426
3379 4470
3380 3869
3380 4109
3380 4116
3380 4235
3380 4534
3380 4825
3381 4072
3381 4344
3381 4411
3381 4415
3381 4797
3382 3390
3382 4098
3382 4230
3382 4424
3382 4439
3382 4747
3383 3582
3383 4325
3383 4402
3383 4571
3384 3950
3384 3991
3384 4107
3384 4113
3384 4712
3384 4959
3384 4974
3385 3478
3385 3546
3385 3569
3385 4636
3385 4710
3385 4795
3385 4892
3386 3660
3386 3776
3386 4023
3386 4074
3386 4486
3386 4697
3386 4897
3387 4508
3388 3390
3388 3432
3388 3461
3388 3659
3388 4111
3388 4226
3388 4230
3388 4426
3388 4437
3388 4735
3389 3619
3389 3660
3389 3704
3389 3855
3389 4906
3390 3627
3390 3789
3390 4112
3390 4266
3390 4654
3391 3464
3392 3480
3392 3694
3392 3849
3392 4010
3392 4227
3392 4888
3393 3514
3393 3672
3393 4473
3394 4217
3394 4269
3394 4340
3394 4451
3394 4633
3394 4669
3394 4793
3394 4875
3395 3432
3395 3510
3395 3573
3395 4111
3396 4107
3396 4243
3396 4358
3396 4388
3396 4967
3396 4990
3397 3516
3397 4459
3397 4853
3397 4937
3398 3438
3398 3445
3398 3535
3398 3560
3398 3580
3398 3626
3398 3825
3398 3927
3398 3994
3398 4521
3398 4554
3398 4679
3398 4927
3398 4971
3398 4996
3399 3470
3399 3697
3399 3810
3399 4061
3399 4538
3399 4906
3399 4917
3400 3451
3400 4085
3400 4303
3400 4370
3400 4377
3400 4542
3400 4663
3400 4703
3401 3468
3401 3524
3401 3565
3401 3783
3401 3865
3401 4296
3401 4308
3401 4533
3401 4731
3401 4908
3402 4434
3402 4469
3402 4504
3402 4671
3402 4737
3403 4228
3403 4375
3403 4472
3403 4655
3403 4704
3403 4921
3404 3448
3404 3774
3404 3810
3404 3951
3404 3976
3404 4015
3404 4652
3404 4683
3404 4906
3404 4922
3404 4980
3405 4593
3405 4736
3406 3546
3406 3569
3406 3816
3406 4284
3406 4567
3406 4684
3406 4721
3406 4882
3406 4907
3407 3556
3407 3597
3407 3650
3407 3757
3407 3915
3407 4920
3408 3690
3408 3945
3409 3459
3409 3730
3409 3940
3409 3957
3410 3506
3410 3607
3410 3779
3410 4138
3410 4285
3410 4293
3410 4524
3411 3620
3411 4184
3411 4328
3411 4775
3412 3842
3412 3855
3412 4183
3412 4233
3413 3578
3413 3669
3413 4652
3413 4872
3413 4922
3413 4989
3414 3632
3414 3664
3414 3705
3414 3732
3414 3831
3414 3897
3414 4031
3414 4744
3414 4934
3415 4071
3415 4382
3415 4532
3415 4535
3415 4995
3416 3807
3416 3970
3416 3984
3416 4801
3416 4835
3417 3472
3417 3724
3417 4130
3417 4181
3417 4312
3417 4633
3417 4709
3417 4866
3418 3500
3418 3660
3418 3697
3418 3816
3418 3987
3418 4989
3419 3458
3419 3844
3419 4056
3420 3501
3420 3696
3420 3842
3420 4061
3420 4301
3421 3459
3421 3487
3421 3503
3421 3508
3421 3534
3421 3608
3421 3635
3421 3650
3421 3676
3421 3725
3421 3919
3421 4036
3421 4038
3421 4146
3421 4158
3421 4160
3421 4182
3421 4206
3421 4252
3421 4272
3421 4280
3421 4293
3421 4341
3421 4483
3421 4540
3421 4617
3421 4783
3421 4840
3421 4869
3422 3698
3422 4264
3422 4942
3422 4946
3423 3530
3423 3661
3423 3693
3423 4396
3423 4402
3423 4592
3423 4648
3423 4736
3424 3867
3424 3882
3424 3926
3424 3958
3424 4119
3424 4515
3424 4818
3424 4973
3425 3690
3425 3945
3425 4110
3426 3651
3426 3685
3426 4150
3426 4675
3426 4705
3426 4794
3427 3747
3427 3976
3427 3983
3427 4086
3427 4172
3427 4202
3427 4329
3427 4383
3427 4397
3427 4399
3427 4645
3427 4905
3428 3533
3428 3642
3428 3928
3428 4553
3429 3471
3429 3482
3429 3591
3429 3740
3429 4369
3429 4372
3429 4514
3429 4646
3429 4711
3429 4754
3430 4587
3430 4981
3430 4996
3431 3435
3431 3607
3431 3928
3431 4046
3431 4617
3432 3582
3432 3620
3432 3659
3432 3768
3432 4111
3432 4149
3432 4187
3432 4424
3432 4620
3433 3825
3433 4222
3433 4255
3434 4224
3434 4238
3434 4779
3435 3458
3435 3600
3435 3816
3435 3854
3435 3920
3435 3922
3435 4067
3435 4288
3435 4349
3436 3507
3436 3826
3436 3848
3436 4557
3436 4827
3436 4920
3437 3697
3437 4081
3437 4161
3437 4683
3437 4845
3437 4906
3437 4914
3438 3632
3438 3656
3438 3792
3438 3898
3438 4095
3438 4449
3438 4587
3438 4915
3438 4968
3438 4996
3439 4186
3439 4196
3439 4234
3439 4273
3439 4304
3439 4398
3439 4430
3439 4704
3440 4045
3440 4086
3440 4090
3440 4170
3440 4676
3441 3582
3441 4230
3441 4503
3441 4638
3441 4791
3443 3530
3443 3995
3443 4005
3443 4041
3443 4129
3443 4696
3443 4939
3444 4128
3444 4256
3444 4267
3444 4320
3444 4333
3444 4377
3444 4435
3444 4518
3444 4528
3444 4688
3445 3559
3445 3566
3445 3595
3445 3626
3445 3656
3445 3768
3445 3862
3445 3877
3445 3889
3445 3964
3445 3980
3445 4005
3445 4051
3445 4116
3445 4338
3445 4392
3445 4592
3445 4770
3445 4789
3446 3634
3446 3650
3446 3929
3446 3954
3446 4772
3447 4100
3447 4307
3448 3482
3448 3488
3448 3500
3448 3525
3448 3586
3448 3842
3448 3962
3448 3987
3448 4429
3448 4634
3448 4764
3449 3526
3449 3717
3449 3861
3449 3990
3449 4067
3449 4164
3449 4420
3449 4531
3449 4877
3450 3677
3450 3935
3450 3948
3450 4143
3450 4563
3451 3673
3451 3691
3451 4311
3451 4441
3451 4474
3451 4580
3451 4975
3452 3630
3452 3675
3452 3749
3452 3752
3452 3962
3452 4332
3452 4775
3452 4920
3453 3569
3453 3761
3453 3836
3453 4598
3453 4687
3453 4914
3453 4972
3454 3520
3454 3653
3454 4356
3454 4528
3455 3941
3455 4102
3455 4325
3455 4581
3455 4990
3456 3513
3456 3732
3456 3900
3456 3962
3456 4054
3456 4152
3456 4513
3456 4715
3456 4813
3456 4920
3457 3597
3457 3749
3457 3752
3457 3803
3457 3962
3457 3997
3457 4168
3457 4861
3457 4920
3457 4953
3457 4969
3458 3649
3458 3670
3458 3909
3458 3996
3458 4015
3458 4164
3458 4349
3458 4848
3458 4924
3458 4964
3458 4983
3459 4163
3459 4272
3459 4412
3459 4653
3460 3506
3460 3702
3460 3761
3460 3923
3460 4036
3460 4139
3460 4158
3460 4214
3460 4548
3461 3627
3461 3789
3461 3904
3461 4059
3461 4098
3461 4149
3461 4419
3461 4620
3461 4654
3462 3463
3462 4196
3462 4234
3462 4285
3462 4375
3462 4398
3462 4685
3462 4716
3463 3484
3463 3490
3463 3713
3463 3767
3463 3921
3463 4153
3463 4169
3463 4196
3463 4234
3463 4316
3463 4398
3463 4430
3463 4685
3463 4742
3463 4921
3464 4100
3464 4740
3465 3631
3465 3756
3465 4060
3465 4104
3465 4317
3465 4378
3465 4662
3465 4788
3465 4843
3465 4866
3465 4980
3466 3504
3466 3632
3466 4901
3466 4996
3467 4656
3468 3524
3468 3565
3468 4296
3468 4976
3469 3709
3469 3733
3469 3738
3469 3810
3469 3986
3469 4815
3469 4999
3470 3939
3470 4907
3471 3482
3471 3591
3471 3740
3471 4372
3471 4514
3471 4646
3471 4711
3471 4754
3472 3933
3472 4006
3472 4030
3472 4090
3472 4315
3472 4359
3472 4623
3472 4633
3472 4709
3473 4242
3473 4290
3473 4305
3474 3496
3474 3997
3474 4458
3474 4745
3474 4807
3475 3632
3475 4000
3475 4396
3475 4447
3475 4609
3475 4756
3476 3918
3476 4387
3476 4619
3476 4684
3476 4773
3477 3664
3477 4020
3477 4989
3477 4999
3478 3993
3478 4684
3478 4721
3478 4922
3479 3732
3479 4657
3479 4675
3480 3562
3480 4151
3480 4454
3480 4765
3480 4778
3481 3493
3481 4345
3481 4386
3481 4724
3482 3591
3482 4369
3482 4372
3482 4514
3482 4711
3482 4998
3483 3562
3483 3849
3483 4227
3483 4778
3484 3490
3484 3616
3484 3767
3484 3921
3484 4186
3484 4196
3484 4234
3484 4241
3484 4273
3484 4316
3484 4375
3484 4398
3484 4430
3484 4472
3484 4578
3484 4602
3484 4704
3484 4716
3484 4738
3484 4742
3485 4182
3485 4216
3485 4333
3485 4617
3485 4710
3486 3533
3486 3854
3486 4010
3486 4025
3486 4265
3486 4553
3486 4983
3487 4228
3487 4293
3487 4301
3488 3569
3488 3804
3488 3810
3488 4477
3488 4577
3489 3868
3489 3893
3489 3999
3489 4153
3489 4193
3489 4314
3489 4669
3490 4234
3490 4304
3490 4685
3491 4455
3491 4775
3491 4931
3491 4969
3492 4185
3492 4495
3492 4503
3492 4924
3493 3666
3493 4154
3493 4623
3493 4660
3494 4882
3494 4968
3495 3632
3495 3805
3495 3864
3495 3888
3495 3997
3495 4189
3495 4539
3495 4561
3495 4610
3495 4971
3496 4458
3496 4585
3496 4751
3496 4775
3496 4951
3497 3575
3497 3855
3497 4025
3497 4112
3497 4595
3498 3604
3498 3713
3498 3963
3498 4336
3498 4542
3498 4611
3498 4666
3499 3504
3499 3732
3499 4443
3499 4601
3499 4644
3499 4789
3499 4940
3500 3697
3500 4684
3500 4764
3501 3523
3501 3669
3501 3809
3501 4567
3501 4687
3501 4999
3502 3513
3502 3749
3502 3757
3502 3923
3502 4669
3502 4775
3502 4781
3503 3536
3503 3568
3503 3676
3503 3790
3503 4138
3503 4301
3503 4608
3503 4659
3503 4720
3503 4736
3503 4743
3503 4763
3504 3643
3504 3703
3504 4013
3504 4392
3504 4449
3504 4585
3504 4852
3505 3594
3505 4134
3505 4239
3505 4279
3505 4283
3506 3637
3506 3670
3506 3791
3506 3807
3506 3970
3506 4252
3506 4301
3506 4404
3506 4569
3506 4699
3506 4718
3506 4719
3506 4725
3506 4772
3506 4869
3506 4931
3507 3567
3507 3650
3507 3689
3507 3754
3507 3870
3507 3892
3507 3929
3507 3953
3507 4751
3507 4867
3507 4880
3507 4895
3508 4163
3508 4331
3508 4609
3509 3635
3509 3657
3509 4101
3509 4158
3509 4159
3509 4330
3509 4805
3510 4421
3510 4424
3511 4240
3511 4522
3512 3810
3512 4782
3513 3525
3513 3556
3513 3597
3513 3650
3513 3754
3513 3803
3513 3826
3513 3829
3513 3852
3513 3882
3513 3954
3513 4042
3513 4054
3513 4247
3513 4458
3513 4775
3513 4807
3513 4810
3513 4813
3513 4827
3513 4867
3513 4895
3513 4911
3513 4920
3514 3528
3514 3610
3514 3620
3514 3650
3514 3654
3514 3675
3514 3691
3514 3749
3514 3815
3514 3826
3514 3852
3514 3897
3514 3915
3514 3997
3514 4054
3514 4084
3514 4170
3514 4332
3514 4455
3514 4666
3514 4745
3514 4810
3514 4969
3514 4982
3515 3594
3515 3621
3515 4239
3515 4649
3515 4797
3516 4074
3516 4249
3516 4459
3516 4853
3516 4964
3517 3935
3517 3985
3517 4102
3517 4475
3517 4771
3518 3868
3518 3999
3518 4077
3518 4115
3518 4799
3518 4868
3519 3721
3519 3870
3519 3953
3519 4275
3519 4501
3520 3623
3520 3973
3520 4225
3520 4303
3520 4333
3520 4377
3520 4528
3520 4663
3520 4676
3520 4688
3521 3525
3521 4332
3521 4751
3521 4847
3522 3617
3522 3763
3522 4123
3522 4152
3522 4580
3522 4614
3522 4640
3522 4650
3522 4664
3522 4672
3523 3618
3523 3759
3523 4758
3523 4872
3523 4914
3524 3565
3524 4296
3524 4533
3524 4610
3524 4881
3525 3674
3525 3815
3525 4714
3525 4943
3525 4974
3526 3603
3526 3632
3526 3732
3526 4402
3526 4616
3526 4752
3527 4491
3528 3529
3528 3537
3528 3654
3528 3815
3528 4813
3528 4920
3529 4840
3529 4891
3529 4951
3530 3693
3530 3732
3530 3739
3530 3830
3530 4485
3530 4521
3530 4571
3530 4601
3530 4657
3531 3816
3531 3842
3531 4243
3531 4886
3532 3555
3532 3560
3532 3713
3532 4161
3532 4166
3532 4336
3532 4494
3532 4525
3532 4556
3532 4622
3532 4908
3533 3576
3533 3639
3533 3698
3533 3704
3533 3730
3533 3734
3533 3844
3533 3866
3533 3928
3533 3988
3533 3989
3533 3996
3533 4046
3533 4066
3533 4288
3533 4328
3533 4349
3533 4508
3533 4529
3533 4791
3533 4930
3533 4991
3533 4997
3534 3558
3534 3570
3534 3608
3534 3814
3534 3984
3534 4038
3534 4089
3534 4101
3534 4192
3534 4216
3534 4252
3534 4342
3534 4429
3534 4442
3534 4460
3534 4573
3534 4691
3534 4692
3534 4736
3534 4744
3534 4823
3534 4885
3534 4918
3534 4952
3535 4392
3535 4616
3535 4649
3535 4706
3535 4996
3536 4214
3536 4653
3536 4805
3537 3752
3537 3997
3537 4775
3537 4911
3537 4980
3538 3853
3538 4033
3538 4330
3538 4718
3538 4850
3538 4952
3539 3588
3539 3730
3539 3794
3539 4044
3539 4288
3539 4313
3540 3603
3540 3827
3540 3869
3540 4005
3540 4013
3540 4201
3540 4449
3540 4592
3540 4609
3540 4644
3540 4679
3540 4789
3541 3997
3541 4045
3541 4622
3541 4629
3541 4841
3542 4607
3542 4647
3542 4896
3543 3676
3543 4017
3543 4022
3543 4628
3543 4631
3544 3862
3544 3871
3544 4173
3544 4201
3544 4630
3544 4687
3544 4829
3544 4890
3544 4912
3545 3649
3545 3851
3545 4010
3546 3729
3546 3918
3546 3947
3546 4424
3546 4447
3546 4782
3547 4191
3548 3799
3548 3800
3548 3860
3548 4103
3548 4207
3548 4637
3548 4838
3548 4854
3549 3589
3549 3616
3549 3646
3549 4146
3549 4192
3549 4216
3549 4852
3550 3918
3550 4023
3550 4025
3550 4764
3550 4782
3550 4795
3550 4989
3551 3623
3551 4377
3551 4627
3551 4875
3552 3951
3552 4216
3552 4335
3552 4900
3552 4906
3552 4914
3553 4379
3553 4615
3553 4681
3553 4860
3554 4211
3554 4611
3554 4801
3555 3901
3555 3963
3555 4045
3555 4258
3556 3673
3556 3675
3556 4736
3556 4813
3557 4423
3557 4854
3557 4981
3558 3735
3558 3919
3558 4293
3558 4334
3559 3566
3559 3626
3559 3628
3559 3636
3559 3694
3559 3732
3559 3791
3559 3881
3559 3888
3559 3979
3559 4012
3559 4013
3559 4423
3559 4443
3559 4587
3559 4609
3559 4657
3559 4756
3559 4965
3559 4996
3560 3604
3560 3713
3560 3978
3560 4045
3560 4166
3560 4274
3560 4336
3560 4479
3560 4525
3560 4542
3560 4666
3561 3613
3561 3816
3561 3918
3561 4697
3561 4782
3561 4907
3561 4947
3562 3694
3562 3927
3562 4151
3562 4227
3562 4727
3562 4792
3562 4858
3563 3735
3563 4182
3563 4573
3563 4805
3563 4812
3564 4195
3564 4562
3564 4615
3564 4665
3564 4681
3564 4811
3565 3820
3565 4296
3565 4308
3565 4647
3565 4731
3565 4833
3565 4908
3566 4554
3566 4686
3566 4852
3566 4939
3567 3811
3567 3962
3567 4455
3567 4564
3567 4911
3568 3608
3568 3631
3568 3669
3568 3678
3568 3955
3568 4038
3568 4252
3568 4272
3568 4285
3568 4293
3568 4407
3568 4412
3568 4420
3568 4493
3568 4524
3568 4608
3568 4619
3568 4718
3568 4744
3568 4783
3568 4784
3569 3696
3569 3816
3569 4387
3569 4577
3569 4649
3569 4687
3569 4872
3570 4014
3570 4498
3570 4925
3571 3710
3571 3999
3571 4077
3571 4153
3571 4337
3571 4431
3571 4848
3571 4868
3572 3625
3572 4012
3572 4112
3572 4247
3572 4315
3572 4568
3572 4960
3573 4021
3573 4111
3573 4185
3573 4230
3574 3673
3574 3877
3574 3933
3574 4006
3574 4181
3574 4224
3574 4309
3574 4660
3574 4786
3575 4055
3575 4561
3575 4592
3575 4604
3575 4616
3575 4996
3576 3607
3576 4179
3576 4265
3576 4983
3576 4993
3577 3665
3577 3879
3577 4129
3577 4146
3577 4619
3577 4763
3577 4823
3578 3660
3578 3986
3578 4442
3578 4587
3579 3706
3579 3840
3579 4361
3579 4477
3579 4487
3579 4507
3579 4549
3579 4589
3580 4006
3580 4116
3580 4122
3580 4139
3580 4696
3580 4759
3580 4968
3581 3662
3581 3683
3581 3913
3581 4054
3581 4715
3581 4762
3581 4879
3581 4880
3582 3789
3582 4012
3582 4187
3582 4424
3583 3651
3583 4675
3583 4957
3584 4148
3584 4662
3584 4818
3584 4925
3585 3706
3585 3727
3585 4300
3585 4361
3585 4487
3586 3976
3586 4697
3586 4907
3587 3825
3587 4222
3587 4255
3587 4270
3587 4486
3587 4977
3588 3928
3588 3995
3589 3825
3589 4483
3589 4537
3589 4608
3589 4691
3589 4737
3590 4296
3590 4617
3590 4976
3590 4996
3591 4209
3591 4372
3591 4514
3591 4646
3591 4754
3591 4873
3592 3639
3592 3654
3592 3712
3592 3746
3592 3773
3592 3826
3592 3962
3592 4008
3592 4126
3592 4165
3592 4485
3592 4695
3592 4846
3592 4952
3592 4982
3593 3621
3593 4021
3593 4039
3593 4114
3593 4134
3593 4141
3593 4283
3593 4306
3593 4649
3593 4665
3593 4816
3594 3621
3594 4021
3594 4059
3594 4114
3594 4124
3594 4125
3594 4141
3594 4157
3594 4239
3594 4279
3594 4363
3594 4468
3594 4584
3594 4600
3594 4665
3594 4760
3594 4797
3595 3632
3595 3792
3595 3924
3595 4449
3595 4609
3595 4706
3595 4779
3596 3647
3596 3746
3596 3749
3596 3951
3596 4126
3596 4205
3596 4209
3597 3650
3597 3997
3597 4055
3597 4714
3597 4735
3597 4775
3597 4807
3597 4891
3598 3688
3598 3885
3598 4138
3598 4156
3598 4413
3598 4489
3598 4692
3598 4719
3599 3802
3599 3882
3599 3895
3599 3919
3599 4002
3599 4004
3599 4011
3599 4034
3599 4119
3599 4199
3599 4440
3599 4559
3599 4605
3599 4819
3600 3928
3600 3965
3600 4056
3600 4262
3600 4288
3600 4924
3600 4942
3600 4983
3601 3650
3601 3807
3601 4338
3601 4607
3601 4896
3602 3623
3602 4545
3602 4933
3603 3732
3603 4384
3603 4449
3603 4521
3603 4539
3603 4706
3603 4745
3604 3713
3604 4556
3604 4693
3605 4192
3605 4331
3605 4412
3605 4482
3605 4853
3606 4402
3606 4462
3606 4700
3606 4781
3607 3844
3607 4044
3608 4138
3608 4229
3608 4493
3608 4931
3609 4073
3609 4117
3610 3634
3610 3757
3610 4324
3610 4575
3610 4775
3611 4133
3611 4499
3611 4622
3612 3619
3612 3827
3612 3918
3612 4147
3613 3842
3613 4467
3613 4764
3613 4858
3613 4989
3614 3648
3614 4099
3614 4142
3614 4258
3614 4528
3615 3633
3615 3640
3615 4072
3615 4110
3615 4385
3615 4956
3616 3750
3616 3807
3616 4089
3616 4327
3616 4477
3616 4617
3616 4719
3617 3763
3617 4093
3617 4152
3617 4162
3617 4502
3617 4513
3617 4580
3618 3632
3618 3994
3618 4601
3619 3651
3619 3768
3619 3917
3619 4996
3620 4564
3620 4757
3620 4775
3620 4895
3621 4157
3621 4239
3621 4797
3622 3657
3622 4052
3622 4476
3622 4655
3622 4929
3622 4978
3623 4320
3624 3701
3624 3709
3624 3716
3624 4815
3625 4006
3625 4040
3625 4335
3625 4506
3625 4568
3625 4633
3625 4709
3625 4786
3626 3862
3626 4012
3626 4592
3626 4996
3627 3789
3627 4098
3627 4187
3627 4437
3627 4465
3627 4638
3627 4735
3628 4573
3629 3790
3629 4171
3629 4366
3629 4583
3629 4647
3629 4800
3629 4845
3629 4896
3630 3915
3630 3962
3630 4205
3630 4920
3631 4334
3631 4617
3631 4948
3632 3668
3632 3955
3632 4055
3632 4129
3632 4393
3632 4449
3632 4521
3632 4538
3632 4547
3632 4657
3632 4686
3632 4753
3632 4756
3632 4781
3632 4804
3632 4968
3633 3873
3633 4072
3633 4385
3633 4390
3633 4411
3633 4433
3633 4446
3634 3729
3634 4564
3634 4695
3634 4745
3634 4751
3634 4951
3635 4252
3635 4262
3635 4310
3635 4362
3635 4569
3636 4585
3636 4746
3636 4996
3637 3645
3637 3984
3637 4489
3637 4544
3637 4548
3638 3861
3638 3989
3638 4015
3638 4288
3638 4799
3638 4818
3638 4942
3639 3892
3639 3940
3639 4757
3639 4891
3640 3873
3640 4072
3640 4288
3640 4385
3640 4411
3640 4415
3640 4433
3640 4446
3640 4956
3641 4366
3641 4573
3641 4619
3641 4736
3642 3704
3642 3929
3642 3973
3642 4016
3642 4299
3643 4012
3643 4246
3643 4461
3643 4497
3644 4135
3644 4189
3645 3646
3645 3822
3645 3890
3645 4014
3645 4252
3645 4342
3645 4354
3645 4412
3645 4460
3645 4498
3645 4575
3645 4763
3646 3764
3646 4593
3646 4719
3647 3770
3647 3870
3647 3966
3647 4144
3647 4156
3647 4180
3647 4200
3647 4671
3647 4838
3647 4839
3647 4962
3648 3781
3648 4099
3648 4144
3648 4258
3648 4399
3648 4671
3648 4729
3648 4838
3648 4839
3648 4861
3649 3704
3649 4586
3649 4991
3650 3654
3650 3691
3650 3739
3650 3741
3650 3754
3650 3757
3650 4664
3650 4714
3650 4745
3650 4755
3650 4807
3650 4846
3650 4911
3650 4951
3651 4261
3651 4296
3651 4674
3651 4705
3651 4780
3651 4794
3652 3827
3652 3935
3652 4592
3652 4732
3652 4803
3652 4939
3652 4971
3653 3859
3653 3890
3653 3949
3653 3977
3653 4096
3653 4137
3653 4203
3653 4302
3653 4418
3653 4637
3654 4775
3655 3733
3655 3842
3655 3918
3655 4223
3655 4670
3655 4803
3656 3739
3656 4577
3656 4579
3656 4592
3657 3658
3657 4118
3657 4128
3657 4476
3657 4544
3657 4555
3657 4626
3657 4887
3657 4929
3658 4118
3658 4544
3658 4887
3658 4978
3659 3904
3659 4098
3659 4111
3659 4185
3659 4187
3659 4426
3659 4654
3660 4357
3660 4582
3660 4670
3660 4989
3661 3792
3661 4057
3661 4095
3661 4336
3661 4682
3662 3749
3662 3754
3662 3929
3662 4911
3662 4920
3662 4921
3662 4953
3663 3928
3663 3957
3663 4179
3664 3877
3664 4246
3664 4471
3664 4601
3664 4715
3664 4719
3664 4861
3665 4163
3665 4216
3665 4252
3665 4331
3665 4412
3665 4429
3665 4497
3665 4823
3666 4154
3666 4277
3666 4312
3666 4353
3666 4359
3666 4623
3667 4630
3667 4890
3667 4912
3667 4970
3668 4392
3668 4852
3668 4996
3669 4284
3670 3844
3670 3897
3670 3957
3670 4044
3670 4164
3670 4308
3670 4328
3670 4349
3671 3687
3671 3736
3671 3874
3671 3885
3671 4238
3671 4257
3671 4301
3671 4345
3671 4386
3671 4723
3671 4779
3672 4262
3672 4292
3672 4356
3672 4464
3672 4518
3672 4528
3672 4717
3672 4750
3673 3721
3673 4232
3673 4311
3673 4474
3673 4519
3673 4746
3673 4989
3674 3712
3674 4007
3674 4332
3674 4574
3674 4745
3675 3795
3675 3943
3675 4745
3675 4750
3675 4751
3676 3970
3676 4138
3676 4293
3677 4036
3677 4617
3678 3807
3678 3873
3678 4412
3678 4580
3678 4719
3678 4736
3678 4784
3679 3990
3679 4126
3679 4454
3679 4695
3679 4751
3679 4775
3679 4969
3680 4253
3680 4364
3680 4671
3680 4839
3680 4972
3681 3689
3681 4093
3681 4194
3681 4484
3681 4567
3681 4580
3681 4640
3681 4733
3682 3730
3682 3844
3682 3928
3682 4523
3682 4553
3682 4933
3683 4016
3683 4215
3683 4592
3683 4644
3683 4686
3684 3863
3684 3868
3684 3999
3684 4153
3684 4669
3685 4150
3685 4204
3685 4636
3685 4674
3685 4794
3686 4595
3687 3707
3687 3885
3687 4198
3687 4345
3687 4721
3687 4724
3687 4747
3687 4779
3688 3892
3688 4033
3688 4331
3688 4412
3688 4489
3689 3992
3689 4093
3689 4351
3689 4401
3689 4475
3689 4484
3689 4558
3689 4776
3689 4871
3690 4708
3691 4640
3691 4953
3692 4564
3692 4750
3693 3759
3693 4616
3694 4888
3695 4356
3695 4892
3696 3718
3696 3819
3696 3976
3696 4577
3696 4712
3696 4763
3696 4906
3697 4722
3697 4838
3697 4882
3698 3765
3698 3784
3698 3850
3698 3851
3698 3866
3698 3916
3698 3920
3698 3922
3698 3928
3698 3965
3698 4010
3698 4066
3698 4209
3698 4299
3698 4349
3698 4878
3698 4930
3699 4204
3699 4269
3699 4287
3699 4451
3699 4512
3699 4680
3699 4848
3699 4875
3699 4966
3700 4311
3700 4710
3700 4736
3701 4598
3701 4683
3701 4764
3702 4293
3702 4332
3702 4625
3703 3888
3703 3964
3703 4554
3704 3717
3704 3824
3704 3928
3704 4010
3704 4044
3704 4067
3704 4209
3704 4265
3704 4288
3704 4350
3704 4402
3704 4508
3704 4833
3704 4930
3705 4432
3705 4644
3705 4901
3706 4291
3706 4300
3706 4361
3706 4589
3707 4198
3707 4238
3707 4345
3707 4417
3707 4444
3707 4573
3707 4724
3708 4204
3708 4512
3708 4647
3708 4875
3709 3931
3709 4061
3709 4557
3709 4687
3709 4764
3709 4882
3709 4886
3710 4604
3710 4732
3710 4934
3711 3830
3711 4302
3712 3803
3712 3915
3712 4502
3712 4714
3712 4715
3712 4813
3713 3963
3713 4161
3713 4166
3713 4336
3713 4482
3713 4542
3713 4622
3713 4666
3713 4693
3714 3807
3714 4252
3714 4301
3714 4407
3714 4805
3714 4948
3715 3784
3715 3839
3715 4553
3715 4920
3716 3810
3716 3816
3716 4684
3716 4870
3717 3794
3717 4321
3718 3810
3718 3918
3718 4467
3719 4134
3720 4557
3720 4687
3720 4787
3720 4972
3721 3793
3721 3813
3721 4167
3721 4261
3721 4276
3721 4389
3721 4582
3721 4674
3721 4675
3722 4688
3722 4728
3722 4733
3722 4748
3723 4360
3723 4412
3723 4493
3723 4890
3723 4952
3723 4998
3724 4080
3724 4170
3724 4899
3724 4923
3725 4208
3725 4214
3725 4229
3725 4763
3725 4865
3726 4025
3726 4687
3726 4758
3726 4870
3726 4947
3726 4989
3727 3765
3727 4291
3727 4300
3727 4361
3727 4549
3727 4589
3728 3833
3728 4044
3728 4656
3728 4790
3729 4503
3729 4567
3729 4684
3729 4713
3729 4795
3729 4858
3730 3844
3730 3922
3730 4010
3730 4067
3730 4288
3730 4458
3730 4975
3731 4204
3731 4471
3731 4497
3731 4752
3731 4852
3732 3739
3732 3792
3732 3917
3732 3955
3732 4393
3732 4443
3732 4461
3732 4481
3732 4901
3732 4981
3733 4467
3733 4868
3734 3965
3734 3989
3734 4328
3734 4508
3734 4943
3735 4210
3735 4275
3735 4853
3735 4952
3736 4184
3736 4238
3736 4257
3736 4371
3736 4723
3736 4724
3736 4779
3737 3754
3737 3962
3737 4672
3737 4818
3738 4434
3738 4469
3738 4504
3738 4820
3739 4402
3739 4561
3739 4657
3739 4789
3739 4852
3739 4939
3740 4294
3740 4369
3740 4754
3740 4873
3741 3915
3741 4205
3741 4594
3741 4891
3742 3909
3742 3973
3742 4039
3742 4044
3742 4818
3742 4871
3742 4930
3742 4983
3743 3978
3743 4063
3743 4109
3743 4235
3743 4347
3743 4390
3743 4423
3743 4534
3743 4536
3743 4587
3743 4606
3743 4825
3744 4100
3744 4492
3745 4111
3745 4736
3746 3846
3746 4400
3746 4846
3746 4961
3747 3882
3747 4329
3747 4505
3747 4682
3747 4905
3748 3914
3748 4293
3748 4638
3748 4710
3748 4746
3748 4892
3748 4893
3749 3829
3749 4695
3749 4751
3749 4837
3749 4856
3750 4110
3750 4310
3750 4412
3750 4442
3750 4885
3751 3841
3751 3896
3751 3947
3751 4382
3751 4535
3751 4570
3751 4861
3751 4987
3752 4126
3753 4118
3753 4445
3753 4734
3754 3925
3754 4205
3755 4152
3755 4182
3755 4301
3755 4412
3755 4736
3755 4935
3756 4060
3756 4104
3756 4317
3756 4378
3756 4538
3756 4662
3756 4677
3756 4843
3756 4866
3756 4924
3757 3765
3757 4332
3757 4564
3758 3850
3758 3861
3758 4083
3758 4288
3758 4313
3758 4328
3758 4523
3759 3842
3759 4808
3759 4907
3760 4053
3760 4242
3760 4318
3761 3810
3761 3932
3761 3968
3761 4233
3761 4527
3761 4670
3761 4713
3761 4989
3762 3889
3762 3892
3762 3962
3762 4054
3762 4714
3762 4715
3762 4720
3763 4162
3763 4580
3763 4877
3764 3807
3764 4160
3765 4291
3765 4300
3765 4361
3765 4549
3765 4589
3765 4775
3766 3790
3766 3818
3766 4071
3766 4263
3766 4861
3767 4186
3767 4234
3767 4316
3767 4690
3767 4724
3767 4738
3768 3862
3768 4129
3768 4616
3768 4796
3768 4965
3769 4352
3769 4488
3769 4541
3769 4628
3769 4818
3769 4963
3770 3783
3770 4071
3770 4183
3770 4248
3770 4526
3770 4824
3770 4862
3770 4884
3770 4981
3771 3841
3771 4328
3772 3807
3772 3831
3772 4611
3772 4839
3772 4842
3772 4981
3773 4745
3774 3810
3774 4019
3774 4764
3774 4808
3774 4904
3775 4177
3775 4184
3775 4198
3775 4345
3775 4386
3775 4723
3775 4770
3776 4057
3776 4280
3776 4809
3776 4922
3777 4117
3777 4132
3777 4219
3777 4527
3777 4570
3778 3851
3779 3967
3779 3999
3779 4032
3779 4033
3779 4163
3779 4214
3779 4608
3779 4719
3779 4784
3779 4948
3780 3923
3780 3958
3780 4011
3780 4147
3780 4199
3780 4381
3780 4520
3780 4818
3781 3966
3781 4144
3781 4200
3781 4839
3781 4962
3781 4972
3782 4080
3782 4348
3782 4451
3783 3818
3783 3947
3783 4987
3784 4288
3784 4321
3785 3907
3785 4031
3785 4377
3785 4449
3785 4608
3786 4139
3786 4252
3786 4805
3786 4847
3787 4190
3787 4907
3788 4319
3788 4545
3789 4111
3789 4416
3789 4467
3789 4495
3789 4793
3789 4867
3789 4884
3790 3857
3790 4515
3790 4818
3790 4894
3791 4616
3792 3879
3793 3953
3793 4150
3794 3851
3794 3909
3794 3957
3794 4313
3794 4946
3794 4983
3796 3818
3796 4132
3796 4219
3797 4133
3797 4499
3797 4707
3798 4138
3798 4139
3798 4341
3798 4442
3798 4807
3799 4302
3800 3977
3800 4137
3800 4851
3800 4925
3801 3857
3801 3988
3801 4520
3801 4866
3802 3882
3802 3958
3802 4142
3802 4286
3802 4352
3802 4515
3803 3815
3803 3954
3803 4007
3803 4775
3803 4872
3803 4982
3804 4233
3804 4606
3804 4782
3804 4897
3804 4989
3805 4423
3805 4997
3806 3935
3806 3948
3806 4012
3806 4563
3807 3828
3807 4138
3807 4158
3807 4253
3807 4285
3807 4293
3807 4362
3807 4412
3807 4439
3807 4532
3807 4653
3807 4763
3807 4823
3807 4885
3808 3895
3808 4147
3808 4199
3808 4367
3808 4371
3808 4488
3808 4894
3808 4909
3809 3883
3809 4387
3809 4787
3809 4858
3809 4999
3810 4557
3810 4577
3810 4739
3810 4768
3810 4802
3810 4826
3810 4892
3811 3903
3811 3997
3811 4332
3811 4769
3811 4775
3811 4904
3811 4951
3812 3942
3812 4217
3812 4236
3812 4348
3812 4451
3812 4848
3812 4875
3812 4966
3813 3937
3813 4150
3814 4066
3814 4280
3814 4334
3814 4354
3814 4464
3814 4710
3814 4783
3815 3891
3815 3962
3816 3823
3816 4684
3816 4721
3816 4882
3816 4897
3817 4052
3817 4133
3817 4174
3817 4275
3817 4524
3817 4569
3817 4618
3817 4736
3817 4885
3817 4986
3818 3845
3818 3975
3818 4019
3818 4050
3818 4104
3818 4155
3818 4183
3818 4264
3818 4380
3818 4473
3818 4570
3818 4625
3818 4850
3818 4862
3818 4878
3818 4918
3818 4938
3818 4987
3819 3842
3819 3855
3819 3993
3819 4795
3819 4897
3819 4907
3820 4170
3820 4296
3820 4731
3820 4881
3821 4051
3821 4062
3821 4147
3821 4266
3821 4768
3822 4604
3822 4784
3822 4935
3823 3918
3823 4298
3823 4598
3823 4634
3823 4673
3823 4836
3823 4849
3823 4920
3824 3844
3824 3859
3824 3957
3824 4100
3824 4299
3824 4371
3824 4946
3824 4997
3825 4255
3825 4270
3825 4486
3825 4625
3825 4977
3826 4060
3826 4558
3826 4911
3827 4706
3828 3923
3828 4160
3828 4280
3829 4084
3829 4455
3830 3977
3830 4018
3830 4075
3830 4178
3830 4831
3831 3832
3831 4016
3831 4131
3831 4393
3831 4521
3831 4571
3831 4587
3831 4609
3831 4643
3832 3971
3832 4075
3832 4105
3832 4925
3833 4168
3833 4467
3833 4656
3834 4142
3834 4381
3835 4214
3835 4228
3835 4272
3835 4301
3835 4330
3836 3872
3836 4782
3836 4906
3836 4989
3837 4240
3837 4290
3837 4305
3837 4774
3838 3848
3838 4195
3838 4615
3838 4811
3839 3928
3839 3989
3839 4371
3839 4400
3840 3875
3840 3981
3840 4043
3840 4103
3840 4357
3840 4448
3840 4828
3840 4854
3840 4925
3841 3891
3841 4263
3841 4507
3842 3904
3842 4061
3842 4065
3842 4074
3842 4387
3842 4781
3842 4802
3842 4854
3842 4855
3842 4914
3842 4985
3843 3981
3843 4043
3843 4260
3843 4647
3843 4832
3843 4854
3844 3920
3844 3922
3844 3940
3844 4083
3844 4135
3844 4209
3844 4328
3844 4586
3844 4930
3844 4991
3845 3899
3845 4264
3846 4126
3846 4362
3846 4751
3846 4755
3846 4911
3847 3922
3847 4017
3847 4561
3847 4996
3848 4048
3848 4136
3848 4373
3848 4562
3848 4615
3848 4673
3848 4698
3848 4811
3848 4928
3849 4138
3849 4151
3849 4792
3849 4800
3850 3928
3850 3973
3850 4010
3851 3861
3851 3897
3851 3906
3851 3922
3851 3928
3851 3940
3851 3989
3851 4010
3851 4039
3851 4051
3851 4265
3851 4288
3851 4328
3851 4537
3851 4553
3851 4943
3851 4997
3852 3892
3852 4755
3853 4342
3853 4619
3853 4875
3854 3897
3854 3989
3854 4209
3854 4930
3854 4991
3855 4020
3855 4023
3855 4284
3855 4387
3855 4414
3855 4557
3855 4567
3855 4595
3855 4634
3855 4758
3855 4762
3855 4808
3855 4826
3855 4914
3856 3882
3856 3895
3856 4147
3856 4251
3856 4440
3856 4898
3857 4011
3857 4061
3857 4097
3857 4142
3857 4588
3857 4664
3857 4894
3858 3981
3858 4165
3858 4203
3858 4592
3858 4857
3858 4944
3860 3949
3860 3971
3860 4009
3860 4103
3860 4105
3860 4621
3860 4637
3860 4789
3860 4831
3860 4832
3860 4857
3861 4020
3861 4410
3861 4612
3861 4856
3861 4924
3862 4755
3862 4796
3863 3893
3863 3999
3863 4193
3863 4552
3863 4574
3863 4799
3863 4841
3863 4950
3864 3881
3864 3894
3864 4706
3865 3870
3866 3957
3866 4371
3866 4450
3866 4819
3866 4973
3867 4058
3867 4212
3867 4488
3867 4649
3868 3893
3868 3999
3868 4153
3868 4193
3868 4314
3868 4339
3868 4516
3868 4574
3868 4799
3868 4834
3868 4841
3868 4950
3869 4063
3869 4235
3869 4347
3869 4534
3869 4606
3869 4825
3870 3962
3870 4042
3870 4332
3870 4458
3870 4564
3870 4951
3871 4201
3871 4630
3871 4829
3871 4890
3871 4912
3872 4636
3872 4713
3872 4907
3872 4985
3873 4072
3873 4110
3873 4320
3873 4344
3873 4385
3873 4415
3873 4433
3873 4446
3874 4198
3874 4345
3874 4724
3874 4864
3875 4018
3875 4069
3875 4165
3875 4851
3876 4011
3876 4355
3876 4487
3876 4632
3876 4693
3876 4992
3877 4449
3877 4481
3877 4781
3877 4934
3878 3917
3878 3930
3878 4396
3878 4473
3878 4965
3878 4981
3879 3981
3879 4043
3879 4085
3879 4207
3879 4822
3879 4830
3879 4854
3880 4044
3880 4313
3880 4321
3880 4943
3881 4073
3881 4599
3881 4723
3882 3883
3882 3898
3882 3944
3882 3958
3882 4004
3882 4011
3882 4094
3882 4244
3882 4266
3882 4352
3882 4381
3882 4486
3882 4488
3882 4559
3882 4605
3882 4632
3882 4814
3882 4818
3882 4894
3882 4957
3882 4963
3882 4973
3882 4979
3882 4987
3883 4011
3883 4097
3883 4147
3884 3997
3884 4054
3884 4115
3884 4891
3885 4386
3885 4730
3885 4932
3886 4037
3886 4140
3886 4658
3886 4870
3886 4899
3887 4634
3887 4739
3887 4765
3887 4768
3887 4795
3887 4803
3887 4840
3888 4246
3888 4549
3888 4648
3889 4119
3889 4423
3889 4449
3889 4461
3889 4592
3889 4927
3889 4971
3890 4096
3891 3908
3891 3998
3891 4050
3891 4071
3891 4091
3891 4219
3891 4987
3891 4993
3892 3900
3892 3925
3892 4042
3892 4750
3892 4837
3892 4880
3893 3999
3893 4552
3893 4669
3893 4868
3894 4204
3894 4236
3894 4287
3894 4451
3894 4512
3894 4517
3894 4680
3894 4848
3894 4966
3895 4142
3895 4245
3895 4354
3896 4071
3896 4884
3896 4902
3896 4993
3897 3902
3897 3996
3897 4164
3897 4209
3897 4265
3898 3958
3898 4051
3898 4212
3898 4440
3898 4520
3898 4818
3898 4987
3899 3959
3899 4402
3900 4911
3901 3956
3901 4037
3901 4140
3901 4429
3901 4545
3901 4658
3901 4899
3902 4382
3903 3913
3903 4201
3903 4560
3903 4695
3903 4751
3903 4755
3903 4935
3904 4036
3904 4465
3904 4550
3904 4638
3905 4002
3905 4352
3905 4440
3905 4523
3905 4836
3905 4874
3905 4941
3906 4179
3906 4321
3906 4511
3907 4019
3907 4264
3907 4625
3907 4884
3908 3947
3908 3975
3908 4091
3908 4138
3908 4248
3908 4750
3908 4850
3908 4987
3910 3918
3910 4065
3910 4595
3910 4687
3910 4909
3910 4914
3911 4587
3911 4789
3912 4094
3912 4273
3912 4690
3913 4205
3914 4301
3914 4327
3914 4572
3914 4593
3914 4865
3915 3925
3915 4007
3915 4126
3915 4455
3915 4917
3916 3957
3916 4010
3916 4265
3916 4523
3916 4943
3917 4616
3918 4082
3918 4567
3918 4697
3918 4741
3918 4758
3918 4870
3918 4897
3918 4999
3919 4354
3919 4736
3920 4288
3920 4349
3921 4169
3921 4375
3922 4288
3922 4511
3922 4529
3922 4586
3922 4670
3922 4924
3923 4182
3923 4310
3923 4331
3923 4362
3923 4412
3923 4498
3923 4618
3923 4783
3924 4402
3924 4443
3925 3997
3925 4332
3925 4750
3925 4775
3925 4891
3926 4142
3926 4352
3926 4515
3926 4992
3927 4022
3927 4057
3928 4010
3928 4014
3928 4164
3928 4209
3928 4265
3928 4409
3928 4924
3928 4930
3928 4933
3929 4455
3929 4757
3929 4920
3930 4609
3930 4639
3930 4644
3930 4965
3930 4981
3931 4276
3931 4631
3931 4661
3931 4785
3932 3935
3932 4450
3932 4475
3932 4771
3933 4032
3933 4122
3933 4309
3933 4403
3933 4568
3933 4660
3933 4709
3933 4753
3934 4216
3934 4572
3934 4896
3934 4906
3935 3948
3935 3985
3935 4427
3935 4475
3935 4551
3935 4771
3935 4981
3936 4105
3936 4137
3936 4208
3936 4260
3936 4859
3937 3950
3937 4102
3937 4120
3937 4326
3938 3977
3938 4178
3938 4357
3939 4267
3939 4377
3939 4518
3939 4707
3940 4025
3940 4321
3940 4942
3940 4984
3941 4113
3941 4226
3941 4250
3941 4319
3941 4452
3941 4538
3942 4204
3942 4236
3942 4451
3942 4875
3942 4966
3943 4414
3943 4458
3944 3968
3944 4147
3944 4321
3944 4664
3944 4814
3947 4850
3948 4475
3948 4518
3948 4871
3949 4103
3949 4178
3949 4203
3949 4394
3949 4637
3949 4854
3949 4857
3949 4877
3950 4215
3950 4225
3950 4430
3950 4979
3950 4990
3951 4025
3951 4552
3951 4598
3951 4652
3951 4764
3951 4870
3951 4873
3951 4892
3951 4897
3951 4962
3951 4980
3952 3990
3952 4102
3952 4287
3952 4322
3952 4388
3952 4712
3952 4967
3953 4582
3953 4674
3953 4705
3953 4918
3954 3997
3954 4493
3954 4961
3955 4082
3955 4604
3955 4804
3956 4037
3956 4054
3956 4545
3956 4899
3957 4009
3957 4015
3957 4321
3957 4495
3957 4531
3957 4946
3957 4991
3958 4212
3958 4348
3958 4515
3958 4894
3958 4909
3959 4431
3959 4659
3959 4884
3960 4003
3960 4319
3960 4378
3960 4959
3961 4327
3961 4354
3961 4404
3961 4537
3962 4007
3962 4064
3962 4126
3962 4458
3962 4714
3962 4715
3962 4867
3962 4895
3962 4911
3963 4482
3965 4553
3965 4612
3965 4685
3965 4930
3965 4991
3966 4200
3966 4903
3967 4138
3967 4220
3967 4301
3967 4400
3967 4617
3967 4653
3967 4744
3968 4011
3968 4266
3968 4814
3968 4941
3969 4011
3969 4062
3969 4626
3970 4036
3970 4158
3970 4163
3970 4280
3970 4285
3970 4330
3971 3977
3971 4018
3971 4208
3971 4954
3972 4511
3972 4850
3972 4862
3973 4067
3973 4328
3974 4033
3974 4160
3974 4192
3974 4389
3974 4608
3974 4736
3974 4812
3975 4219
3975 4263
3976 4985
3977 4105
3977 4302
3977 4764
3977 4822
3977 4925
3978 4347
3978 4390
3978 4888
3979 4392
3979 4393
3979 4423
3979 4601
3979 4609
3979 4648
3980 4257
3980 4402
3980 4996
3981 4208
3981 4394
3981 4448
3981 4813
3982 4137
3982 4822
3983 4397
3983 4667
3983 4980
3984 4653
3985 4019
3985 4427
3985 4475
3985 4501
3986 4683
3986 4689
3986 4713
3986 4906
3987 4147
3987 4687
3987 4758
3987 4803
3988 4164
3988 4446
3988 4975
3989 4018
3989 4229
3989 4321
3989 4445
3989 4511
3989 4612
3990 4226
3990 4358
3990 4712
3990 4979
3991 4158
3991 4215
3991 4266
3991 4594
3991 4967
3992 4145
3992 4152
3992 4194
3992 4502
3992 4624
3993 4025
3993 4586
3993 4773
3993 4803
3993 4907
3994 4423
3994 4615
3994 4641
3995 4449
3995 4601
3996 4265
3996 4410
3996 4531
3996 4991
3997 4205
3997 4695
3997 4714
3997 4745
3997 4755
3997 4920
3998 4171
3998 4374
3998 4416
3998 4978
3999 4029
3999 4077
3999 4115
3999 4153
3999 4193
3999 4337
3999 4339
3999 4431
3999 4516
3999 4552
3999 4650
3999 4669
3999 4799
3999 4834
3999 4841
3999 4868
3999 4907
4000 4126
4000 4720
4001 4147
4001 4244
4001 4941
4002 4147
4002 4541
4002 4601
4002 4818
4003 4243
4003 4489
4004 4220
4005 4422
4005 4574
4005 4852
4006 4152
4006 4154
4006 4170
4006 4181
4006 4206
4006 4247
4006 4312
4006 4315
4006 4368
4006 4496
4006 4568
4006 4709
4006 4849
4008 4096
4008 4775
4008 4891
4009 4925
4009 4996
4010 4337
4010 4350
4010 4548
4010 4586
4011 4087
4011 4251
4011 4818
4011 4898
4011 4909
4011 4941
4012 4217
4012 4561
4012 4601
4012 4641
4012 4643
4012 4648
4012 4804
4012 4965
4013 4449
4013 4686
4014 4744
4014 4763
4015 4074
4015 4265
4015 4328
4015 4371
4015 4800
4015 4991
4016 4129
4016 4539
4016 4596
4016 4960
4017 4396
4017 4449
4017 4461
4017 4679
4017 4781
4017 4940
4018 4046
4018 4103
4018 4854
4019 4132
4020 4557
4020 4764
4020 4965
4021 4079
4021 4134
4021 4157
4021 4239
4021 4279
4021 4283
4021 4306
4021 4600
4021 4649
4021 4665
4022 4131
4022 4276
4022 4628
4022 4631
4022 4661
4023 4636
4023 4922
4024 4154
4024 4170
4024 4359
4024 4403
4024 4633
4025 4765
4025 4800
4025 4805
4025 4907
4027 4102
4027 4215
4027 4491
4027 4615
4027 4635
4027 4979
4028 4190
4028 4484
4028 4580
4028 4877
4029 4337
4029 4516
4029 4552
4030 4353
4030 4359
4030 4391
4031 4116
4031 4129
4031 4238
4031 4497
4031 4753
4031 4915
4032 4040
4032 4056
4032 4122
4032 4130
4032 4181
4032 4353
4032 4388
4033 4038
4033 4174
4033 4214
4033 4229
4033 4252
4033 4341
4033 4532
4033 4617
4033 4715
4033 4767
4033 4783
4033 4869
4034 4244
4035 4207
4035 4997
4036 4493
4036 4763
4037 4140
4037 4545
4037 4658
4037 4899
4038 4254
4038 4341
4038 4354
4038 4362
4038 4493
4038 4572
4038 4608
4038 4865
4039 4313
4039 4475
4040 4188
4040 4786
4040 4849
4041 4080
4041 4206
4041 4335
4042 4745
4042 4951
4043 4165
4043 4253
4043 4857
4044 4046
4044 4141
4044 4288
4044 4933
4044 4946
4044 4997
4045 4218
4045 4336
4045 4556
4045 4622
4046 4111
4046 4328
4046 4349
4046 4511
4047 4062
4047 4394
4047 4828
4048 4078
4048 4195
4048 4226
4048 4379
4048 4562
4048 4597
4048 4615
4048 4620
4048 4811
4049 4319
4050 4054
4050 4281
4050 4791
4051 4199
4051 4245
4051 4723
4051 4986
4052 4301
4052 4349
4052 4599
4052 4618
4052 4743
4053 4278
4053 4305
4053 4774
4054 4856
4054 4895
4055 4682
4055 4965
4055 4981
4055 4996
4056 4199
4056 4293
4057 4116
4057 4402
4057 4610
4058 4119
4058 4520
4059 4079
4059 4114
4059 4306
4059 4665
4060 4104
4060 4317
4060 4378
4060 4662
4060 4677
4060 4843
4060 4866
4060 4910
4061 4507
4061 4741
4061 4906
4061 4988
4062 4119
4062 4874
4063 4109
4063 4534
4064 4455
4064 4714
4065 4298
4065 4567
4065 4634
4065 4652
4065 4961
4066 4174
4066 4313
4067 4692
4068 4358
4068 4466
4068 4868
4069 4178
4069 4637
4070 4164
4070 4991
4071 4407
4071 4878
4072 4110
4072 4344
4072 4411
4072 4415
4072 4433
4072 4446
4072 4732
4072 4956
4073 4428
4074 4687
4074 4782
4074 4800
4075 4357
4075 4854
4075 4944
4076 4087
4076 4152
4076 4580
4076 4614
4076 4959
4077 4154
4077 4337
4077 4552
4077 4868
4078 4655
4078 4922
4079 4114
4079 4125
4079 4239
4079 4525
4079 4620
4079 4649
4080 4189
4080 4247
4080 4335
4080 4359
4080 4568
4080 4633
4080 4660
4080 4748
4080 4786
4080 4960
4081 4284
4081 4567
4081 4906
4081 4989
4082 4107
4082 4319
4082 4326
4083 4942
4084 4332
4084 4695
4084 4749
4085 4103
4085 4812
4085 4816
4085 4831
4085 4925
4086 4130
4087 4199
4087 4296
4087 4440
4087 4605
4088 4144
4088 4187
4088 4987
4089 4301
4089 4330
4089 4341
4089 4719
4089 4736
4089 4744
4090 4154
4090 4188
4090 4462
4090 4623
4090 4633
4092 4460
4092 4498
4092 4572
4093 4360
4093 4365
4093 4502
4093 4960
4094 4352
4094 4632
4095 4518
4095 4616
4095 4852
4095 4934
4096 4207
4096 4335
4096 4822
4096 4925
4097 4251
4097 4286
4097 4355
4097 4515
4097 4986
4098 4111
4098 4405
4098 4416
4098 4424
4098 4476
4098 4503
4098 4620
4099 4175
4099 4200
4099 4671
4099 4702
4099 4972
4099 4977
4100 4225
4101 4214
4101 4238
4101 4278
4101 4285
4101 4301
4101 4835
4102 4120
4102 4243
4102 4712
4102 4785
4102 4959
4102 4991
4102 4995
4103 4165
4103 4203
4103 4207
4103 4208
4103 4259
4103 4308
4103 4418
4103 4816
4103 4832
4103 4857
4104 4317
4104 4378
4104 4514
4104 4677
4104 4788
4104 4843
4104 4866
4105 4259
4105 4804
4105 4816
4106 4821
4107 4127
4107 4325
4107 4348
4108 4267
4108 4292
4108 4377
4108 4688
4109 4235
4109 4347
4109 4390
4109 4606
4110 4344
4110 4411
4110 4415
4110 4433
4110 4956
4111 4112
4111 4230
4111 4287
4111 4405
4111 4419
4111 4424
4111 4437
4111 4465
4111 4470
4111 4495
4111 4500
4111 4503
4111 4550
4111 4638
4111 4729
4112 4187
4112 4421
4112 4424
4112 4503
4112 4620
4112 4654
4112 4747
4113 4197
4113 4215
4114 4125
4114 4134
4114 4157
4114 4239
4114 4381
4114 4649
4115 4153
4116 4422
4116 4965
4117 4428
4117 4746
4117 4765
4118 4211
4118 4544
4118 4655
4118 4658
4118 4692
4118 4766
4118 4794
4118 4887
4118 4978
4119 4142
4119 4352
4119 4653
4120 4243
4120 4250
4120 4294
4120 4319
4120 4438
4120 4974
4120 4984
4120 4990
4121 4221
4121 4319
4121 4785
4121 4979
4121 4990
4122 4188
4122 4247
4122 4277
4122 4312
4122 4335
4122 4359
4123 4152
4123 4162
4123 4580
4124 4157
4124 4239
4124 4279
4124 4649
4125 4134
4125 4157
4125 4600
4126 4757
4126 4867
4127 4506
4127 4715
4127 4967
4128 4213
4128 4544
4128 4978
4129 4599
4129 4644
4129 4648
4129 4968
4130 4247
4130 4309
4130 4353
4130 4368
4130 4639
4130 4960
4131 4145
4131 4276
4131 4509
4131 4628
4131 4631
4132 4219
4133 4499
4133 4552
4133 4916
4134 4239
4134 4283
4134 4584
4135 4435
4135 4733
4135 4748
4135 4790
4136 4233
4136 4249
4136 4546
4136 4562
4136 4597
4136 4681
4136 4811
4137 4831
4137 4958
4138 4210
4138 4228
4138 4235
4138 4272
4138 4429
4138 4460
4138 4493
4138 4532
4138 4593
4138 4608
4138 4692
4138 4699
4138 4847
4138 4931
4139 4159
4139 4192
4139 4210
4139 4293
4139 4334
4139 4812
4141 4239
4141 4363
4141 4584
4141 4649
4141 4760
4141 4777
4142 4245
4142 4251
4142 4286
4142 4352
4142 4355
4142 4520
4142 4818
4143 4268
4143 4551
4143 4771
4143 4934
4143 4945
4144 4200
4144 4253
4144 4364
4144 4839
4145 4152
4145 4194
4145 4365
4145 4484
4145 4614
4146 4159
4146 4180
4146 4214
4146 4412
4146 4532
4146 4534
4146 4593
4146 4805
4146 4935
4146 4952
4147 4251
4147 4311
4147 4352
4147 4355
4147 4447
4147 4605
4147 4883
4147 4973
4148 4266
4148 4381
4148 4515
4148 4588
4149 4230
4149 4374
4149 4421
4149 4654
4150 4261
4150 4579
4150 4582
4150 4675
4150 4694
4150 4794
4151 4305
4151 4727
4151 4792
4152 4176
4152 4190
4152 4194
4152 4351
4152 4365
4152 4558
4152 4580
4152 4614
4152 4624
4152 4640
4153 4337
4153 4431
4153 4552
4153 4650
4153 4857
4153 4941
4153 4950
4154 4309
4154 4335
4154 4496
4154 4506
4154 4627
4154 4633
4154 4660
4154 4709
4154 4960
4154 4962
4155 4473
4155 4507
4155 4791
4155 4861
4156 4310
4156 4330
4156 4347
4156 4353
4156 4744
4157 4239
4157 4649
4157 4665
4157 4797
4158 4214
4158 4227
4158 4310
4158 4330
4158 4404
4158 4719
4158 4772
4159 4327
4159 4341
4159 4719
4159 4858
4159 4913
4160 4229
4160 4301
4160 4391
4160 4763
4160 4772
4160 4783
4161 4611
4161 4629
4162 4513
4162 4613
4163 4457
4163 4503
4163 4619
4163 4718
4163 4847
4164 4612
4164 4750
4164 4933
4165 4473
4166 4274
4166 4542
4167 4389
4167 4675
4167 4700
4168 4295
4168 4414
4168 4728
4168 4790
4169 4304
4169 4375
4169 4430
4169 4468
4169 4490
4169 4685
4169 4777
4170 4247
4170 4315
4170 4335
4170 4403
4170 4623
4170 4786
4171 4766
4172 4329
4172 4383
4172 4397
4172 4399
4172 4645
4172 4667
4173 4829
4173 4890
4173 4912
4173 4970
4174 4812
4175 4200
4175 4671
4175 4729
4175 4839
4175 4962
4176 4237
4176 4580
4176 4776
4177 4238
4177 4343
4177 4724
4177 4730
4177 4779
4178 4637
4178 4857
4178 4954
4179 4209
4179 4586
4179 4793
4179 4943
4180 4195
4180 4379
4180 4546
4180 4615
4180 4698
4180 4811
4181 4786
4182 4285
4182 4341
4183 4993
4184 4198
4184 4224
4184 4345
4184 4386
4184 4417
4184 4432
4184 4449
4184 4521
4184 4779
4184 4864
4185 4374
4185 4416
4185 4470
4185 4500
4186 4273
4186 4304
4186 4338
4186 4406
4186 4472
4186 4490
4186 4690
4186 4777
4186 4798
4187 4416
4187 4500
4188 4189
4188 4359
4188 4506
4188 4633
4189 4315
4189 4623
4189 4633
4189 4689
4189 4709
4189 4786
4189 4960
4190 4513
4190 4580
4190 4624
4190 4836
4191 4651
4192 4376
4192 4473
4192 4572
4192 4767
4192 4823
4192 4865
4193 4339
4193 4431
4194 4360
4195 4373
4195 4562
4195 4597
4195 4615
4195 4714
4195 4811
4196 4338
4196 4430
4196 4602
4196 4690
4197 4452
4197 4785
4198 4224
4198 4386
4198 4724
4199 4352
4199 4488
4199 4819
4199 4941
4200 4253
4200 4364
4200 4385
4200 4702
4200 4719
4200 4838
4200 4839
4201 4890
4201 4912
4202 4329
4202 4383
4202 4505
4202 4821
4202 4905
4203 4954
4204 4236
4204 4269
4204 4291
4204 4340
4204 4348
4204 4451
4204 4680
4204 4793
4204 4805
4204 4848
4204 4875
4205 4503
4205 4702
4205 4745
4205 4755
4206 4359
4206 4368
4206 4627
4206 4960
4207 4419
4207 4903
4208 4320
4208 4357
4208 4448
4208 4830
4208 4831
4208 4832
4210 4252
4210 4255
4210 4345
4210 4736
4211 4213
4211 4555
4211 4887
4212 4367
4213 4476
4213 4544
4213 4655
4213 4668
4213 4766
4213 4929
4213 4978
4214 4407
4214 4460
4214 4477
4214 4540
4214 4569
4214 4573
4214 4595
4214 4725
4214 4999
4215 4466
4216 4293
4216 4413
4216 4489
4216 4493
4216 4617
4216 4823
4217 4348
4217 4451
4217 4517
4217 4680
4218 4494
4219 4398
4219 4926
4219 4949
4220 4270
4220 4375
4221 4319
4221 4322
4221 4466
4221 4949
4222 4320
4222 4486
4222 4582
4222 4977
4223 4232
4223 4474
4223 4935
4224 4238
4224 4297
4224 4345
4225 4307
4225 4492
4225 4928
4226 4416
4226 4735
4227 4888
4228 4429
4228 4653
4228 4801
4229 4743
4230 4465
4230 4495
4230 4638
4231 4504
4231 4737
4232 4408
4232 4480
4232 4761
4232 4890
4233 4689
4233 4764
4233 4870
4233 4907
4234 4273
4234 4398
4234 4704
4234 4738
4234 4777
4235 4825
4236 4287
4236 4512
4236 4680
4236 4697
4236 4793
4236 4848
4237 4558
4237 4613
4238 4257
4238 4386
4238 4417
4238 4428
4238 4555
4238 4723
4238 4724
4238 4779
4239 4279
4239 4306
4239 4363
4239 4454
4239 4584
4239 4649
4239 4665
4239 4760
4239 4797
4239 4988
4240 4242
4240 4271
4240 4278
4240 4522
4240 4590
4240 4774
4241 4449
4241 4690
4241 4704
4242 4318
4242 4436
4242 4774
4243 4294
4243 4325
4243 4326
4243 4388
4243 4452
4243 4466
4243 4950
4244 4305
4244 4598
4244 4818
4244 4986
4245 4862
4246 4601
4246 4668
4246 4753
4246 4770
4246 4803
4247 4277
4247 4709
4247 4996
4248 4527
4248 4824
4248 4862
4249 4289
4249 4324
4249 4459
4249 4552
4249 4749
4249 4937
4250 4466
4250 4491
4250 4728
4250 4744
4251 4367
4251 4894
4251 4963
4252 4293
4252 4331
4252 4367
4252 4442
4252 4736
4252 4763
4252 4952
4253 4396
4253 4671
4253 4702
4253 4839
4253 4994
4254 4264
4254 4473
4254 4844
4255 4270
4255 4486
4255 4977
4256 4262
4256 4320
4256 4333
4256 4370
4256 4528
4256 4703
4256 4707
4256 4737
4256 4986
4257 4337
4257 4724
4258 4474
4258 4702
4258 4727
4258 4839
4258 4962
4259 4357
4259 4637
4259 4830
4260 4621
4261 4466
4262 4292
4262 4333
4262 4377
4262 4453
4262 4464
4262 4518
4262 4678
4262 4703
4263 4473
4263 4526
4263 4570
4264 4659
4264 4861
4264 4884
4266 4874
4266 4881
4266 4909
4267 4435
4267 4464
4268 4450
4268 4563
4268 4771
4269 4348
4269 4451
4269 4452
4269 4875
4270 4977
4271 4311
4271 4774
4272 4438
4272 4576
4273 4304
4273 4338
4273 4690
4273 4738
4274 4278
4274 4336
4274 4556
4274 4566
4275 4548
4275 4573
4275 4710
4275 4987
4276 4628
4276 4631
4277 4403
4277 4496
4277 4709
4278 4497
4278 4522
4279 4363
4279 4454
4279 4532
4279 4665
4279 4760
4280 4293
4280 4301
4280 4524
4280 4763
4280 4767
4281 4380
4282 4349
4282 4410
4282 4508
4283 4665
4284 4595
4284 4716
4284 4721
4284 4722
4284 4768
4284 4787
4284 4809
4284 4900
4284 4906
4285 4310
4285 4334
4286 4515
4286 4588
4287 4340
4287 4348
4287 4451
4287 4512
4287 4680
4288 4531
4288 4895
4288 4924
4288 4933
4288 4997
4289 4324
4289 4459
4289 4937
4289 4964
4290 4305
4290 4436
4290 4522
4290 4590
4290 4696
4291 4300
4291 4361
4291 4589
4292 4301
4292 4370
4292 4435
4292 4518
4292 4688
4293 4309
4293 4540
4293 4576
4293 4593
4293 4608
4293 4725
4293 4763
4293 4806
4293 4885
4293 4936
4294 4325
4294 4388
4294 4959
4296 4308
4296 4533
4296 4603
4296 4881
4297 4326
4297 4345
4297 4724
4297 4864
4297 4919
4297 4932
4298 4595
4298 4646
4298 4858
4298 4922
4299 4349
4299 4508
4299 4942
4300 4361
4300 4487
4300 4549
4300 4589
4301 4310
4301 4330
4301 4362
4301 4391
4301 4420
4301 4503
4301 4540
4301 4699
4301 4719
4301 4788
4301 4805
4303 4333
4303 4335
4303 4678
4303 4944
4304 4338
4304 4777
4305 4318
4305 4436
4305 4522
4305 4590
4305 4774
4305 4888
4306 4363
4306 4584
4306 4614
4306 4649
4306 4665
4306 4797
4308 4533
4308 4603
4308 4731
4308 4908
4308 4976
4309 4359
4309 4742
4309 4786
4310 4400
4310 4575
4310 4692
4310 4788
4310 4885
4310 4935
4311 4668
4311 4761
4311 4910
4313 4377
4314 4650
4315 4353
4316 4685
4316 4777
4316 4798
4316 4912
4317 4677
4317 4788
4317 4814
4317 4843
4317 4866
4319 4358
4319 4401
4319 4459
4319 4491
4319 4538
4319 4581
4319 4755
4319 4984
4319 4990
4320 4333
4320 4370
4320 4377
4320 4435
4320 4451
4320 4635
4320 4663
4320 4678
4320 4707
4321 4349
4321 4523
4322 4491
4322 4967
4323 4919
4324 4459
4324 4723
4324 4937
4325 4890
4325 4959
4325 4990
4326 4401
4326 4452
4326 4878
4326 4979
4327 4483
4327 4805
4327 4860
4327 4913
4328 4529
4328 4586
4329 4397
4329 4645
4329 4749
4330 4391
4330 4407
4330 4412
4330 4442
4330 4444
4330 4489
4330 4576
4330 4725
4330 4772
4330 4998
4331 4342
4331 4457
4331 4617
4331 4618
4331 4736
4331 4956
4332 4581
4332 4880
4333 4356
4333 4453
4333 4464
4333 4495
4333 4530
4333 4655
4333 4703
4334 4572
4334 4608
4334 4736
4334 4763
4334 4812
4334 4835
4334 4936
4335 4353
4335 4623
4335 4786
4335 4849
4336 4372
4336 4611
4337 4712
4337 4841
4338 4738
4338 4798
4339 4552
4339 4650
4339 4669
4339 4868
4340 4451
4341 4362
4341 4477
4341 4736
4342 4801
4344 4385
4344 4411
4344 4415
4344 4860
4344 4937
4344 4956
4345 4417
4345 4432
4345 4701
4345 4724
4345 4730
4345 4779
4345 4864
4346 4515
4346 4737
4346 4955
4347 4534
4347 4536
4347 4825
4348 4451
4348 4512
4348 4517
4348 4793
4348 4875
4349 4529
4349 4612
4350 4371
4350 4997
4351 4360
4351 4510
4351 4642
4351 4776
4352 4520
4352 4625
4352 4814
4352 4818
4352 4915
4353 4395
4353 4506
4353 4633
4353 4709
4353 4834
4354 4432
4354 4540
4354 4743
4355 4520
4355 4898
4355 4963
4356 4377
4356 4453
4356 4688
4357 4954
4358 4388
4358 4425
4358 4466
4359 4368
4359 4403
4359 4568
4359 4623
4359 4627
4359 4709
4359 4960
4360 4437
4360 4624
4360 4776
4361 4487
4361 4589
4362 4412
4362 4444
4362 4489
4364 4702
4364 4729
4364 4839
4365 4510
4365 4511
4365 4580
4366 4845
4367 4488
4367 4664
4368 4786
4369 4372
4369 4412
4369 4514
4369 4646
4369 4711
4369 4754
4369 4819
4370 4453
4371 4586
4371 4930
4372 4514
4372 4535
4372 4754
4372 4873
4373 4562
4373 4673
4373 4698
4374 4416
4374 4421
4374 4590
4374 4638
4375 4398
4375 4472
4375 4578
4375 4690
4376 4420
4376 4477
4376 4573
4376 4725
4377 4453
4377 4464
4377 4518
4377 4532
4377 4676
4377 4678
4378 4662
4378 4843
4378 4866
4379 4384
4379 4546
4379 4560
4379 4562
4379 4615
4379 4698
4379 4811
4380 4527
4380 4987
4381 4498
4381 4883
4381 4894
4382 4589
4383 4397
4383 4399
4383 4667
4383 4905
4384 4562
4384 4615
4384 4811
4384 4843
4385 4411
4385 4415
4385 4446
4385 4956
4386 4519
4386 4932
4387 4598
4389 4563
4389 4582
4389 4694
4389 4700
4390 4536
4391 4575
4391 4617
4391 4692
4391 4719
4391 4736
4391 4805
4391 4835
4392 4393
4392 4402
4392 4461
4392 4644
4393 4396
4393 4554
4393 4643
4393 4927
4393 4981
4395 4568
4395 4623
4395 4627
4396 4582
4396 4679
4396 4965
4397 4399
4397 4645
4397 4667
4397 4749
4397 4923
4398 4704
4398 4716
4399 4645
4399 4749
4399 4778
4399 4905
4399 4923
4400 4412
4400 4524
4400 4998
4401 4452
4402 4425
4402 4447
4402 4485
4402 4641
4402 4643
4402 4679
4402 4752
4403 4552
4403 4623
4404 4718
4404 4805
4405 4416
4405 4424
4405 4451
4405 4465
4405 4500
4405 4638
4406 4690
4407 4524
4408 4519
4408 4761
4409 4473
4409 4570
4409 4836
4409 4851
4409 4862
4409 4918
4410 4942
4411 4415
4411 4426
4411 4433
4411 4484
4411 4768
4411 4956
4412 4420
4412 4426
4412 4460
4412 4526
4412 4573
4412 4608
4412 4619
4412 4743
4412 4784
4412 4806
4413 4532
4414 4656
4414 4733
4414 4748
4415 4943
4415 4956
4416 4419
4416 4424
4416 4426
4416 4439
4416 4500
4416 4503
4416 4550
4416 4638
4416 4735
4417 4534
4417 4932
4418 4568
4418 4831
4419 4426
4419 4465
4419 4747
4420 4918
4422 4447
4422 4481
4422 4657
4422 4672
4422 4971
4423 4455
4423 4471
4423 4592
4423 4789
4424 4437
4424 4550
4424 4620
4424 4638
4424 4654
4425 4781
4425 4981
4427 4450
4427 4613
4427 4771
4429 4539
4429 4540
4429 4998
4430 4690
4430 4716
4431 4516
4431 4799
4431 4834
4432 4701
4432 4932
4433 4442
4433 4446
4434 4725
4434 4955
4435 4460
4437 4875
4438 4937
4439 4620
4439 4812
4441 4474
4441 4746
4441 4910
4442 4483
4442 4493
4442 4736
4443 4604
4443 4679
4443 4753
4443 4770
4443 4927
4443 4940
4444 4763
4444 4772
4445 4509
4445 4543
4445 4734
4445 4861
4446 4775
4446 4956
4447 4449
4447 4657
4447 4775
4447 4808
4448 4944
4449 4485
4449 4643
4449 4759
4449 4770
4449 4915
4449 4927
4450 4551
4450 4563
4451 4512
4451 4517
4451 4680
4451 4793
4451 4875
4451 4910
4451 4957
4452 4785
4452 4990
4453 4518
4455 4755
4455 4837
4456 4748
4456 4813
4457 4483
4457 4489
4457 4718
4458 4807
4458 4961
4459 4937
4460 4725
4460 4767
4461 4706
4461 4915
4461 4981
4462 4497
4462 4599
4462 4686
4462 4934
4463 4944
4464 4688
4465 4470
4465 4735
4465 4944
4465 4990
4466 4581
4466 4959
4467 4721
4467 4970
4468 4649
4469 4493
4469 4504
4469 4737
4469 4955
4471 4756
4471 4804
4471 4996
4472 4738
4473 4507
4474 4746
4475 4945
4476 4626
4476 4655
4476 4978
4477 4532
4477 4806
4478 4637
4478 4770
4478 4903
4479 4629
4479 4959
4480 4746
4481 4592
4481 4657
4481 4770
4482 4611
4482 4622
4483 4743
4484 4871
4485 4554
4487 4589
4488 4818
4489 4573
4489 4617
4489 4719
4489 4747
4490 4578
4490 4716
4490 4738
4490 4742
4491 4865
4491 4959
4492 4740
4493 4593
4493 4714
4494 4545
4496 4568
4497 4804
4498 4608
4498 4763
4498 4783
4499 4916
4500 4503
4501 4964
4502 4871
4504 4737
4504 4820
4505 4645
4506 4786
4507 4862
4507 4926
4508 4975
4509 4726
4510 4580
4511 4943
4512 4793
4512 4875
4512 4966
4514 4646
4514 4711
4514 4754
4514 4873
4515 4520
4515 4909
4515 4963
4515 4986
4516 4750
4516 4868
4516 4950
4518 4528
4518 4530
4518 4707
4519 4746
4521 4781
4521 4927
4522 4590
4523 4553
4523 4942
4524 4929
4524 4948
4526 4535
4526 4852
4526 4926
4528 4676
4528 4680
4528 4707
4532 4618
4532 4691
4533 4603
4533 4731
4533 4881
4533 4976
4534 4606
4535 4791
4535 4861
4535 4862
4538 4959
4538 4979
4539 4587
4539 4842
4539 4968
4540 4710
4540 4869
4540 4881
4544 4555
4544 4626
4544 4887
4544 4929
4544 4978
4545 4899
4546 4615
4546 4811
4547 4996
4548 4573
4548 4869
4548 4931
4550 4619
4550 4638
4551 4696
4552 4574
4552 4669
4552 4834
4553 4933
4553 4942
4554 4561
4554 4596
4554 4616
4554 4759
4555 4978
4556 4622
4556 4694
4557 4577
4557 4595
4557 4634
4557 4652
4557 4697
4557 4722
4557 4768
4557 4787
4557 4906
4557 4914
4559 4694
4560 4562
4560 4615
4560 4681
4560 4811
4560 4966
4561 4610
4561 4639
4561 4643
4561 4876
4562 4689
4562 4811
4564 4720
4564 4867
4566 4611
4567 4802
4568 4633
4568 4849
4569 4763
4569 4801
4569 4805
4569 4812
4571 4927
4573 4763
4574 4734
4574 4799
4575 4617
4575 4812
4576 4725
4576 4812
4576 4952
4577 4684
4577 4795
4579 4842
4579 4876
4579 4981
4580 4776
4580 4871
4582 4674
4582 4675
4582 4694
4582 4700
4582 4705
4582 4780
4582 4879
4583 4681
4584 4665
4585 4796
4586 4953
4587 4624
4587 4648
4587 4981
4588 4643
4592 4644
4592 4682
4592 4915
4592 4940
4594 4994
4595 4652
4595 4762
4596 4679
4596 4835
4596 4965
4597 4673
4597 4811
4597 4860
4597 4942
4598 4795
4599 4679
4600 4649
4601 4616
4601 4648
4602 4664
4602 4704
4602 4742
4603 4731
4603 4854
4603 4976
4607 4647
4607 4911
4608 4619
4608 4640
4609 4616
4609 4657
4609 4770
4609 4966
4610 4981
4611 4666
4611 4754
4612 4946
4613 4614
4613 4624
4614 4910
4615 4673
4615 4698
4615 4811
4615 4860
4616 4804
4616 4996
4617 4710
4617 4812
4618 4813
4619 4719
4619 4763
4619 4835
4621 4828
4621 4830
4621 4851
4621 4859
4622 4666
4622 4693
4623 4627
4623 4786
4624 4640
4624 4642
4624 4871
4624 4877
4625 4844
4626 4887
4626 4978
4627 4786
4627 4827
4628 4631
4628 4661
4628 4722
4629 4666
4630 4890
4631 4661
4633 4709
4633 4786
4633 4960
4634 4636
4634 4741
4634 4765
4634 4809
4634 4826
4634 4883
4634 4900
4636 4787
4637 4857
4637 4925
4638 4747
4639 4753
4640 4642
4641 4757
4644 4796
4644 4804
4645 4667
4645 4749
4645 4905
4646 4754
4647 4896
4648 4781
4648 4934
4648 4981
4649 4665
4649 4760
4649 4797
4649 4843
4650 4669
4650 4841
4651 4941
4652 4670
4652 4683
4652 4906
4653 4847
4655 4978
4656 4790
4657 4672
4657 4789
4658 4899
4660 4709
4660 4821
4660 4925
4662 4677
4662 4788
4662 4843
4662 4866
4665 4760
4665 4761
4666 4838
4666 4878
4667 4749
4668 4746
4668 4910
4669 4799
4669 4868
4669 4950
4670 4720
4670 4840
4670 4855
4670 4872
4671 4972
4673 4811
4675 4694
4677 4788
4677 4854
4677 4866
4677 4950
4678 4688
4679 4696
4679 4756
4679 4913
4680 4848
4681 4811
4682 4915
4682 4939
4682 4996
4683 4872
4683 4897
4684 4907
4684 4928
4685 4716
4685 4798
4686 4934
4687 4808
4687 4907
4687 4982
4688 4900
4689 4713
4689 4739
4690 4921
4691 4805
4691 4948
4694 4879
4695 4866
4695 4891
4695 4969
4696 4706
4698 4811
4699 4736
4699 4913
4701 4723
4701 4724
4701 4764
4702 4972
4703 4911
4703 4959
4704 4716
4704 4798
4706 4752
4708 4994
4709 4849
4711 4754
4711 4873
4712 4984
4713 4803
4713 4905
4714 4860
4714 4951
4715 4891
4715 4911
4717 4727
4717 4778
4717 4800
4718 4812
4719 4784
4719 4936
4720 4807
4720 4810
4721 4762
4721 4882
4722 4782
4722 4787
4722 4808
4722 4882
4722 4914
4723 4724
4723 4779
4724 4730
4724 4932
4725 4784
4726 4734
4727 4778
4727 4888
4730 4779
4730 4991
4732 4777
4733 4748
4734 4955
4736 4783
4736 4805
4736 4823
4736 4835
4736 4869
4736 4949
4737 4820
4737 4836
4737 4955
4739 4765
4739 4858
4739 4870
4739 4882
4741 4809
4741 4815
4741 4858
4743 4823
4744 4784
4744 4823
4744 4952
4745 4775
4745 4924
4745 4951
4746 4752
4746 4761
4746 4910
4749 4923
4750 4867
4751 4757
4752 4759
4752 4934
4753 4852
4753 4927
4755 4867
4755 4911
4755 4961
4756 4834
4756 4842
4756 4965
4758 4892
4758 4897
4759 4781
4761 4910
4762 4922
4762 4999
4763 4805
4763 4998
4764 4773
4764 4795
4764 4858
4764 4989
4765 4795
4765 4999
4766 4978
4768 4809
4768 4826
4768 4922
4768 4995
4769 4917
4771 4998
4773 4808
4773 4882
4775 4837
4775 4895
4775 4920
4778 4888
4782 4826
4782 4897
4782 4907
4782 4999
4783 4936
4785 4967
4786 4989
4787 4802
4787 4989
4788 4843
4788 4866
4789 4965
4791 4863
4791 4987
4792 4888
4793 4875
4793 4957
4793 4966
4795 4840
4796 4927
4796 4940
4799 4892
4802 4870
4802 4886
4802 4900
4803 4914
4803 4985
4804 4981
4805 4893
4805 4935
4805 4998
4807 4953
4808 4988
4809 4858
4809 4882
4811 4860
4812 4817
4816 4854
4817 4915
4818 4858
4818 4941
4822 4925
4824 4987
4826 4870
4826 4906
4826 4922
4829 4890
4829 4912
4829 4970
4836 4862
4837 4867
4837 4951
4838 4839
4838 4962
4838 4972
4839 4962
4839 4972
4843 4866
4844 4987
4848 4875
4848 4957
4850 4861
4850 4878
4850 4987
4851 4925
4851 4958
4853 4937
4854 4944
4854 4954
4855 4947
4855 4988
4857 4903
4857 4925
4858 4897
4861 4884
4862 4863
4868 4950
4870 4947
4875 4957
4875 4966
4881 4908
4881 4976
4882 4945
4884 4926
4886 4894
4886 4906
4886 4999
4887 4978
4890 4912
4890 4970
4891 4895
4891 4953
4891 4969
4894 4897
4894 4936
4897 4914
4897 4922
4897 4988
4901 4965
4901 4981
4906 4914
4907 4918
4912 4970
4914 4972
4914 4989
4924 4930
4924 4943
4924 4983
4924 4991
4926 4981
4926 4987
4926 4993
4927 4996
4929 4978
4933 4997
4935 4998
4936 4952
4939 4996
4941 4963
4944 4958
4961 4982
4979 4990
4980 4989
4984 4990
4990 4994
