0 81
0 485
0 617
0 772
0 1544
0 1890
0 2694
0 2805
0 2871
0 3388
0 3411
0 3857
0 4164
0 4216
0 4495
0 4569
0 4718
1 68
1 72
1 1017
1 1022
1 1269
1 1291
1 1348
1 1449
1 1985
1 2111
1 2470
1 2481
1 2889
1 3481
1 3525
1 4013
1 4063
1 4433
1 4450
1 4464
2 31
2 132
2 179
2 182
2 204
2 220
2 221
2 237
2 238
2 636
2 845
2 869
2 956
2 1206
2 1207
2 1226
2 1286
2 1567
2 1701
2 1767
2 1811
2 2236
2 2239
2 2247
2 2303
2 2529
2 2556
2 2580
2 2601
2 2726
2 2766
2 2876
2 2980
2 3201
2 3277
2 3550
2 3565
2 3737
2 3832
2 3861
2 3921
2 4003
2 4091
2 4296
2 4392
2 4440
2 4448
2 4449
2 4615
2 4668
2 4690
2 4843
3 192
3 452
3 2141
3 2242
3 2332
3 2627
3 2758
3 3077
3 3202
3 3654
3 3835
3 4104
3 4128
3 4337
3 4441
3 4807
3 4864
3 4894
4 58
4 74
4 311
4 832
4 884
4 1713
4 1773
4 1872
4 1893
4 2206
4 2404
4 2821
4 2856
4 2932
4 3254
4 3397
4 3603
4 3895
4 3995
4 4108
4 4302
4 4447
4 4484
5 40
5 323
5 431
5 749
5 1585
5 2203
5 2370
5 2581
5 2823
5 2846
5 3422
5 3588
5 3692
5 4143
5 4466
5 4567
5 4828
5 4970
6 49
6 169
6 260
6 391
6 457
6 632
6 940
6 1154
6 1467
6 1540
6 1966
6 2191
6 2227
6 2351
6 2359
6 2458
6 2639
6 3341
6 3563
6 3605
6 3767
6 3872
6 4147
6 4212
6 4437
6 4738
6 4790
6 4888
6 4937
7 37
7 152
7 334
7 875
7 1620
7 1755
7 1800
7 1930
7 1961
7 2367
7 2383
7 2499
7 3011
7 3110
7 3185
7 3525
7 4166
7 4880
7 4886
7 4908
7 4923
8 42
8 211
8 221
8 376
8 399
8 409
8 600
8 651
8 739
8 994
8 1100
8 1105
8 1265
8 1519
8 1764
8 1854
8 1933
8 2278
8 2368
8 2396
8 2457
8 2842
8 2866
8 2876
8 2884
8 3035
8 3136
8 3201
8 3307
8 3401
8 3664
8 3669
8 4041
8 4245
8 4513
8 4545
8 4671
8 4779
8 4789
8 4790
8 4816
8 4841
8 4914
8 4938
8 4992
9 66
9 76
9 108
9 126
9 162
9 298
9 365
9 403
9 405
9 422
9 424
9 455
9 713
9 751
9 1018
9 1061
9 1424
9 1432
9 1460
9 1533
9 1647
9 1664
9 1779
9 2097
9 2137
9 2190
9 2415
9 2447
9 2537
9 2648
9 2655
9 3115
9 3137
9 3144
9 3307
9 3601
9 3711
9 3777
9 4040
9 4141
9 4241
9 4275
9 4356
9 4621
9 4630
9 4651
9 4905
9 4955
10 73
10 224
10 823
10 880
10 1174
10 1388
10 1916
10 2164
10 2677
10 3415
10 3424
10 3534
10 3640
10 3986
10 4179
10 4205
10 4304
10 4816
11 314
11 426
11 607
11 652
11 1718
11 1761
11 1860
11 1976
11 2546
11 2654
11 2743
11 3375
11 4074
11 4117
11 4312
11 4529
11 4640
11 4724
12 246
12 428
12 456
12 659
12 747
12 780
12 945
12 1259
12 1539
12 1683
12 1960
12 2112
12 2369
12 2502
12 2690
12 2728
12 3011
12 3611
12 3631
12 4329
12 4360
12 4391
13 197
13 268
13 345
13 539
13 593
13 602
13 653
13 779
13 878
13 888
13 993
13 1045
13 1327
13 1522
13 1572
13 1712
13 2102
13 2118
13 2145
13 2167
13 2173
13 2362
13 2397
13 2503
13 2820
13 3545
13 3757
13 3844
13 4133
13 4154
13 4244
13 4499
13 4530
13 4632
13 4647
13 4655
13 4733
13 4919
14 110
14 185
14 469
14 472
14 518
14 651
14 803
14 857
14 902
14 1129
14 1349
14 1506
14 2074
14 2086
14 2117
14 2130
14 2189
14 2203
14 2244
14 2650
14 2733
14 2754
14 2785
14 2863
14 2917
14 3079
14 3359
14 3533
14 3643
14 3934
14 4018
14 4191
14 4336
14 4348
14 4543
14 4710
15 311
15 348
15 419
15 466
15 624
15 1470
15 1540
15 2284
15 2309
15 3264
15 3365
15 3855
15 4701
15 4735
15 4758
15 4800
16 165
16 541
16 716
16 771
16 1384
16 1503
16 1514
16 1760
16 1761
16 2658
16 2717
16 2762
16 3036
16 3166
16 3773
16 4045
16 4114
16 4273
16 4662
16 4664
17 35
17 57
17 96
17 124
17 154
17 396
17 693
17 938
17 1075
17 1964
17 2056
17 2140
17 2315
17 2949
17 2978
17 3006
17 3191
17 3392
17 3698
17 3747
17 3777
17 3851
17 3854
17 3972
17 4006
17 4028
17 4192
17 4309
17 4691
17 4914
18 81
18 111
18 146
18 277
18 341
18 608
18 617
18 924
18 1038
18 1200
18 1208
18 1302
18 1469
18 1917
18 2092
18 2108
18 2160
18 2284
18 2325
18 2368
18 2465
18 2470
18 2480
18 2609
18 2629
18 2734
18 2745
18 3014
18 3139
18 3164
18 3235
18 3356
18 3445
18 4119
18 4235
18 4805
18 4966
19 364
19 762
19 1128
19 1750
19 1813
19 2124
19 2247
19 2323
19 2746
19 2773
19 2886
19 3315
19 3647
19 3995
19 4158
19 4188
19 4284
19 4335
19 4358
19 4579
19 4747
19 4793
19 4810
20 286
20 292
20 479
20 896
20 1022
20 1386
20 2034
20 2120
20 3118
20 3461
20 3977
20 4393
20 4521
20 4610
20 4623
20 4659
20 4705
20 4878
21 362
21 1049
21 1075
21 1352
21 1739
21 1770
21 1835
21 1972
21 2235
21 3129
21 3595
21 3656
21 3903
21 4358
21 4394
21 4537
21 4915
22 371
22 1170
22 1348
22 2374
22 2492
22 2954
22 3188
22 3223
22 3449
22 3493
22 3796
22 3987
22 4244
22 4250
22 4290
22 4385
22 4686
23 117
23 400
23 424
23 611
23 1449
23 1492
23 1809
23 1938
23 2255
23 2379
23 2793
23 3227
23 3633
23 4005
23 4549
24 231
24 691
24 1176
24 1221
24 1310
24 1378
24 1489
24 1567
24 1597
24 1686
24 2553
24 2642
24 2861
24 2949
24 3101
24 3281
24 3324
24 3636
24 3637
24 3767
24 4298
24 4755
24 4834
25 397
25 504
25 548
25 616
25 624
25 993
25 1214
25 1215
25 1413
25 1551
25 1820
25 2105
25 2131
25 2217
25 2333
25 2655
25 2963
25 2988
25 3213
25 3287
25 3342
25 3393
25 3525
25 3592
25 3603
25 3609
25 3744
25 3769
25 3999
25 4234
25 4259
25 4290
25 4501
25 4523
25 4547
25 4701
26 514
26 604
26 642
26 669
26 1043
26 1478
26 1919
26 2012
26 2129
26 2422
26 2514
26 2528
26 2673
26 2733
26 3567
26 3643
26 4110
26 4186
26 4292
26 4310
26 4348
26 4543
26 4912
27 36
27 281
27 314
27 390
27 723
27 827
27 902
27 1185
27 1240
27 1451
27 2043
27 2117
27 2157
27 2608
27 2878
27 3159
27 3283
27 3671
27 3756
27 4046
27 4124
27 4519
27 4584
27 4618
27 4718
27 4730
27 4951
28 61
28 192
28 747
28 872
28 913
28 953
28 1004
28 1019
28 1260
28 1274
28 2172
28 2187
28 2229
28 2352
28 3061
28 3218
28 3464
29 131
29 1025
29 1170
29 1203
29 1958
29 2141
29 2178
29 2384
29 2563
29 3560
29 3707
29 4124
29 4463
29 4596
29 4791
30 769
30 905
30 908
30 1016
30 1275
30 1311
30 1519
30 1614
30 1669
30 2134
30 2533
30 2716
30 2820
30 2825
30 2936
30 3113
30 3217
30 3971
30 4444
30 4477
30 4816
31 182
31 204
31 237
31 238
31 282
31 711
31 799
31 1192
31 1353
31 1431
31 1461
31 1746
31 2247
31 2294
31 2303
31 2338
31 2500
31 2601
31 2876
31 3226
31 3277
31 3985
31 4270
31 4390
31 4396
31 4544
31 4626
31 4668
31 4873
32 73
32 719
32 767
32 861
32 888
32 925
32 961
32 1032
32 1350
32 1712
32 2076
32 2949
32 2959
32 3046
32 3287
32 4302
32 4851
33 313
33 702
33 870
33 904
33 966
33 993
33 1028
33 1231
33 1488
33 2142
33 2223
33 2305
33 2469
33 2735
33 2936
33 3882
33 3910
33 4279
33 4797
33 4803
33 4906
33 4908
33 4980
34 567
34 601
34 647
34 1101
34 1141
34 1312
34 1542
34 1584
34 1681
34 1696
34 2318
34 2528
34 2543
34 2613
34 3384
34 4624
34 4743
34 4788
35 173
35 250
35 304
35 342
35 353
35 471
35 947
35 1095
35 1161
35 1372
35 1552
35 2245
35 2265
35 2385
35 2598
35 2675
35 2707
35 2989
35 3270
35 3440
35 3466
35 3569
35 4185
35 4207
35 4706
35 4719
35 4732
35 4780
36 256
36 375
36 506
36 573
36 1083
36 1098
36 1240
36 1734
36 2445
36 2507
36 2922
36 2941
36 3064
36 3249
36 3283
36 3363
36 3642
36 3898
36 4031
36 4096
36 4115
36 4145
36 4180
36 4182
36 4970
36 4995
37 471
37 651
37 915
37 1088
37 1144
37 2311
37 2325
37 2384
37 2806
37 2918
37 2976
37 3367
37 3460
37 4029
37 4401
37 4511
37 4852
38 233
38 778
38 1081
38 1345
38 1548
38 2135
38 2490
38 2554
38 3315
38 3475
38 3889
38 4013
38 4155
38 4357
38 4545
38 4667
38 4721
38 4950
38 4994
39 513
39 681
39 722
39 734
39 773
39 855
39 862
39 983
39 994
39 1685
39 1804
39 1925
39 2158
39 2253
39 2391
39 2815
39 2879
39 2901
39 3076
39 3904
39 3991
39 4081
39 4093
39 4303
39 4680
40 181
40 429
40 1072
40 1193
40 1503
40 1517
40 1798
40 2379
40 2472
40 3223
40 3409
40 3652
40 3724
40 4114
40 4190
40 4194
40 4280
40 4547
40 4639
40 4642
40 4874
40 4887
40 4942
41 56
41 77
41 741
41 794
41 815
41 1060
41 1064
41 1742
41 1867
41 2154
41 2236
41 2390
41 2815
41 2962
41 3371
41 3853
41 4224
41 4359
41 4386
41 4410
41 4651
41 4688
42 48
42 95
42 105
42 311
42 517
42 614
42 954
42 1507
42 1646
42 2035
42 2237
42 2526
42 2556
42 2644
42 2734
42 2891
42 3046
42 3060
42 3514
42 3712
42 4100
42 4159
42 4368
42 4471
42 4494
42 4512
42 4621
42 4646
42 4978
43 366
43 860
43 1089
43 1200
43 1656
43 1692
43 1889
43 1899
43 2164
43 2169
43 2366
43 2579
43 2617
43 2987
43 3118
43 3821
43 3978
43 4049
43 4138
43 4933
44 172
44 343
44 555
44 637
44 734
44 1649
44 2141
44 2342
44 2498
44 2566
44 2758
44 3116
44 3466
44 4146
44 4457
45 974
45 979
45 1154
45 1497
45 2065
45 2259
45 2521
45 2594
45 3033
45 3568
45 3722
45 3736
45 3755
45 4285
45 4581
45 4589
46 47
46 132
46 138
46 165
46 208
46 225
46 612
46 863
46 1112
46 1307
46 1501
46 1976
46 2157
46 2397
46 2576
46 2609
46 2922
46 2931
46 3283
46 3468
46 3543
46 3860
46 3937
46 3989
46 4115
46 4124
46 4181
46 4223
46 4683
46 4810
46 4835
47 152
47 286
47 314
47 501
47 825
47 1276
47 1343
47 1377
47 1779
47 1826
47 1959
47 2111
47 2166
47 2215
47 2576
47 2752
47 2881
47 3043
47 3101
47 3283
47 3570
47 3625
47 3653
47 3898
47 3988
47 4203
47 4261
47 4284
47 4401
47 4659
47 4784
48 270
48 939
48 1680
48 1803
48 2020
48 2146
48 2422
48 2596
48 2862
48 3201
48 3388
48 3632
48 3763
48 3943
48 3993
48 4621
48 4622
49 118
49 576
49 872
49 1091
49 1409
49 1487
49 1524
49 2191
49 2371
49 2616
49 2907
49 2943
49 3083
49 3654
49 4037
49 4395
49 4632
49 4768
49 4937
50 402
50 460
50 471
50 611
50 811
50 1576
50 1611
50 1953
50 1989
50 2020
50 2632
50 2947
50 3017
50 3136
50 3212
50 3761
50 3954
50 4052
50 4337
50 4481
50 4827
50 4889
50 4978
51 83
51 145
51 164
51 278
51 368
51 522
51 584
51 690
51 776
51 999
51 1580
51 2060
51 2121
51 2188
51 2282
51 2286
51 2298
51 2701
51 3380
51 3639
51 3661
51 3838
51 4319
51 4355
51 4383
51 4672
52 535
52 667
52 818
52 875
52 1136
52 1561
52 1654
52 1834
52 2219
52 2353
52 2618
52 2982
52 3119
52 4105
52 4347
52 4672
53 120
53 259
53 879
53 1102
53 1629
53 1631
53 1965
53 2305
53 3558
53 3566
53 3735
53 4013
53 4041
53 4056
53 4178
53 4292
53 4365
53 4408
53 4467
53 4471
54 371
54 512
54 627
54 1203
54 1218
54 1242
54 1410
54 1475
54 1674
54 1746
54 1799
54 2040
54 2973
54 2983
54 3129
54 3455
54 3581
54 3597
54 3621
54 3778
54 4147
54 4288
55 116
55 272
55 594
55 685
55 708
55 993
55 1135
55 1183
55 2162
55 2237
55 2446
55 2556
55 3647
55 3719
55 4528
55 4624
55 4650
55 4725
56 92
56 231
56 387
56 419
56 693
56 952
56 1182
56 1188
56 1215
56 1294
56 1899
56 2099
56 2500
56 2725
56 2879
56 2989
56 3224
56 3253
56 3406
56 3714
56 3782
56 3805
56 3812
56 3817
56 4633
57 196
57 435
57 593
57 619
57 736
57 1223
57 1268
57 1435
57 1742
57 1961
57 2140
57 2200
57 2283
57 2297
57 2415
57 2857
57 3006
57 3368
57 3490
57 3603
57 3630
57 3770
57 4037
57 4327
58 62
58 224
58 284
58 360
58 572
58 1008
58 1415
58 1508
58 1705
58 1872
58 2206
58 2404
58 2589
58 2636
58 2932
58 2941
58 3125
58 3495
58 3682
58 3723
58 3895
58 4447
58 4485
58 4661
58 4740
58 4751
59 152
59 263
59 792
59 1170
59 1495
59 2383
59 3453
59 3689
59 4004
59 4019
59 4097
59 4186
59 4874
59 4905
59 4993
60 73
60 371
60 469
60 518
60 667
60 669
60 852
60 1392
60 2122
60 2277
60 2514
60 2553
60 3130
60 3587
60 3643
60 4098
60 4118
60 4122
60 4184
60 4191
60 4416
60 4591
60 4632
61 181
61 745
61 1857
61 1986
61 2043
61 2147
61 2215
61 2384
61 3094
61 3142
61 3159
61 3963
61 4000
61 4232
61 4348
61 4377
61 4618
61 4916
62 94
62 224
62 309
62 311
62 450
62 564
62 832
62 884
62 1376
62 1415
62 1476
62 1535
62 1597
62 1632
62 1737
62 1893
62 2206
62 2245
62 2404
62 2556
62 2566
62 2821
62 2932
62 2995
62 3125
62 3229
62 3342
62 3397
62 3711
62 3723
62 3891
62 3895
62 3926
62 4267
62 4398
62 4447
62 4526
62 4661
62 4740
62 4751
62 4880
63 585
63 599
63 683
63 709
63 790
63 1255
63 2018
63 2302
63 2342
63 2394
63 2428
63 2601
63 2880
63 2980
63 4273
63 4460
63 4560
64 97
64 631
64 676
64 897
64 1070
64 1229
64 1553
64 1832
64 2050
64 2072
64 2120
64 2265
64 2674
64 2800
64 2989
64 3003
64 3023
64 3061
64 3146
64 3313
64 3336
64 4243
64 4427
64 4508
64 4803
65 98
65 318
65 743
65 791
65 1076
65 1119
65 1147
65 1213
65 1501
65 1977
65 2488
65 2491
65 3049
65 3073
65 3194
65 3553
65 3881
65 4111
65 4189
65 4256
65 4288
65 4447
65 4608
66 431
66 484
66 868
66 994
66 1310
66 2305
66 2564
66 2598
66 2655
66 3144
66 3195
66 3828
66 4141
66 4653
66 4754
67 168
67 636
67 697
67 720
67 725
67 862
67 932
67 1905
67 1980
67 2247
67 2254
67 2557
67 2715
67 2933
67 3281
67 3763
67 3859
67 4130
67 4241
67 4699
67 4773
68 931
68 1269
68 1821
68 1968
68 2019
68 2242
68 2492
68 2807
68 3495
68 3579
68 3586
68 3603
68 3633
68 3704
68 3733
68 4124
68 4419
68 4669
68 4723
69 144
69 398
69 500
69 775
69 1290
69 2121
69 2549
69 2673
69 2688
69 2968
69 3944
69 4042
69 4981
70 81
70 490
70 793
70 1266
70 1620
70 2108
70 2160
70 2179
70 2265
70 2674
70 2997
70 3014
70 3108
70 3112
70 3139
70 3315
70 3437
70 3721
70 3868
70 3946
70 4364
70 4403
70 4671
70 4705
71 648
71 779
71 1115
71 1371
71 1502
71 1765
71 1830
71 1865
71 1972
71 2165
71 2259
71 2367
71 2757
71 2920
71 3014
71 3093
71 3263
71 3828
71 4199
71 4511
71 4732
71 4857
71 4961
72 284
72 521
72 659
72 812
72 885
72 897
72 938
72 944
72 1079
72 1254
72 1407
72 2685
72 2839
72 2845
72 2854
72 3107
72 3390
72 3537
72 3628
72 3706
72 3831
72 3899
72 4090
72 4141
72 4171
72 4314
72 4405
72 4467
72 4671
72 4690
72 4794
72 4830
72 4851
72 4966
73 137
73 281
73 681
73 976
73 992
73 993
73 1000
73 1312
73 1405
73 1413
73 1517
73 1551
73 1714
73 1715
73 1809
73 1833
73 1848
73 1850
73 1870
73 1901
73 1916
73 1948
73 2157
73 2183
73 2203
73 2212
73 2240
73 2273
73 2302
73 2363
73 2610
73 2677
73 2795
73 2965
73 3044
73 3051
73 3213
73 3437
73 3463
73 3464
73 3508
73 3525
73 3551
73 3556
73 3560
73 3673
73 3683
73 3685
73 3769
73 4096
73 4249
73 4290
73 4324
73 4565
73 4686
73 4718
73 4943
74 301
74 670
74 688
74 1112
74 1340
74 1461
74 1792
74 1808
74 2326
74 2359
74 2485
74 2657
74 2749
74 2839
74 3068
74 3268
74 3425
74 3861
74 3946
74 3966
74 4820
75 136
75 597
75 826
75 1256
75 1449
75 1453
75 1672
75 1739
75 1849
75 1906
75 2075
75 2321
75 2402
75 2645
75 2715
75 2905
75 2997
75 3407
75 3462
75 3481
75 3539
75 3718
75 3748
75 3802
75 3899
75 3970
75 4053
75 4230
75 4246
75 4314
75 4774
75 4849
76 380
76 422
76 1090
76 1446
76 1533
76 1570
76 1894
76 1974
76 2319
76 2447
76 2491
76 2511
76 2519
76 2575
76 2632
76 2655
76 3120
76 3296
76 3486
76 3711
76 3952
76 3997
76 4141
76 4310
76 4501
76 4578
76 4817
76 4819
76 4836
77 362
77 620
77 658
77 1007
77 1064
77 1115
77 1368
77 1449
77 1651
77 1678
77 1685
77 1702
77 1724
77 1747
77 1874
77 1876
77 1884
77 2325
77 2337
77 2511
77 2800
77 3053
77 3067
77 3309
77 3695
77 3741
77 3767
77 3994
77 4224
77 4327
77 4603
77 4873
77 4883
77 4943
78 222
78 355
78 583
78 658
78 848
78 867
78 972
78 975
78 993
78 1130
78 1269
78 1499
78 1567
78 1612
78 1714
78 1723
78 1903
78 1948
78 2205
78 2912
78 2975
78 3055
78 3122
78 3403
78 3673
78 3680
78 3780
78 3785
78 3795
78 3801
78 4051
78 4250
78 4289
78 4414
78 4523
79 277
79 791
79 838
79 1066
79 1067
79 1127
79 1176
79 1310
79 1529
79 1597
79 2790
79 2949
79 3054
79 3095
79 3195
79 3412
79 3591
79 3869
79 3878
79 3980
79 3986
79 4249
79 4256
79 4260
79 4332
79 4354
79 4360
79 4769
79 4798
79 4821
79 4904
80 149
80 378
80 555
80 598
80 743
80 977
80 1175
80 1186
80 1367
80 1572
80 1583
80 2101
80 2102
80 2210
80 2213
80 2388
80 3010
80 3273
80 3736
80 3753
80 3988
80 4052
80 4253
80 4306
80 4334
80 4449
80 4601
80 4790
81 226
81 282
81 379
81 404
81 475
81 676
81 700
81 774
81 831
81 1112
81 1469
81 1695
81 1768
81 1796
81 1995
81 2045
81 2050
81 2088
81 2098
81 2219
81 2366
81 2543
81 2708
81 2772
81 3119
81 3146
81 3149
81 3235
81 3415
81 3437
81 3605
81 3879
81 4008
81 4364
81 4403
81 4419
81 4600
81 4704
81 4862
81 4911
82 413
82 512
82 717
82 875
82 889
82 921
82 1010
82 1084
82 1734
82 1739
82 2403
82 2918
82 3487
82 4065
82 4287
82 4595
82 4658
82 4688
83 215
83 303
83 349
83 584
83 1107
83 1682
83 2060
83 2188
83 2516
83 3400
83 3639
83 3838
83 4355
83 4383
83 4624
84 164
84 523
84 668
84 1617
84 2590
84 2640
84 2739
84 2977
84 3836
84 4293
84 4700
84 4893
85 94
85 822
85 945
85 1040
85 1403
85 1519
85 1601
85 1801
85 1989
85 2105
85 2579
85 2627
85 3852
85 4267
85 4452
85 4585
85 4624
85 4893
86 142
86 152
86 178
86 299
86 532
86 930
86 944
86 1119
86 1166
86 1611
86 1730
86 2141
86 2604
86 2956
86 3413
86 4464
86 4624
86 4725
86 4893
87 348
87 362
87 922
87 1188
87 1322
87 1528
87 1607
87 1657
87 2062
87 2115
87 2240
87 2560
87 3352
87 3407
87 3416
87 3464
87 3471
87 3595
87 3629
87 3657
87 3705
87 3817
87 3824
87 3858
87 4258
87 4279
87 4301
87 4617
88 435
88 529
88 574
88 793
88 1309
88 1341
88 1435
88 1544
88 2048
88 2078
88 2243
88 3113
88 3200
88 3374
88 3568
88 4285
89 337
89 872
89 1114
89 1196
89 1909
89 2398
89 2548
89 2649
89 2892
89 3286
89 3317
89 3379
89 3694
89 4942
90 235
90 909
90 1082
90 1139
90 1513
90 1749
90 2400
90 2481
90 2667
90 2861
90 2872
90 2942
90 3106
90 3129
90 3141
90 3239
90 3541
90 3623
90 3743
90 3746
90 4214
90 4442
90 4675
90 4835
91 435
91 526
91 690
91 780
91 960
91 985
91 1371
91 2232
91 2298
91 2570
91 2680
91 3571
91 3687
91 3838
92 213
92 703
92 1120
92 1688
92 1823
92 1875
92 2015
92 2097
92 2291
92 2520
92 2535
92 2662
92 2750
92 2793
92 2924
92 3096
92 3112
92 3705
92 3851
92 4295
92 4742
93 95
93 345
93 593
93 804
93 913
93 1535
93 1606
93 2362
93 2584
93 3247
93 3263
93 3355
93 3572
93 4028
93 4907
93 4919
93 4974
94 224
94 309
94 572
94 823
94 838
94 942
94 980
94 1165
94 1465
94 1893
94 2094
94 2206
94 2821
94 2924
94 3056
94 3227
94 3397
94 3625
94 4136
94 4158
94 4447
94 4526
94 4748
94 4856
95 159
95 178
95 242
95 459
95 561
95 708
95 812
95 858
95 966
95 1040
95 1292
95 1423
95 1480
95 1529
95 1611
95 1681
95 1962
95 2162
95 2522
95 2604
95 2627
95 2881
95 3070
95 3152
95 3212
95 3468
95 3514
95 4137
95 4152
95 4212
95 4228
95 4488
95 4534
95 4624
95 4646
95 4755
95 4780
95 4822
95 4893
95 4932
95 4978
96 331
96 462
96 963
96 1002
96 1465
96 1825
96 1878
96 1964
96 2024
96 2462
96 2563
96 2892
96 2922
96 3007
96 3119
96 3251
96 3279
96 3512
96 3570
96 3692
96 3751
96 3873
96 3934
96 4196
96 4503
96 4545
96 4923
97 207
97 476
97 611
97 852
97 866
97 880
97 972
97 1469
97 1593
97 2072
97 2265
97 2278
97 2470
97 2586
97 3230
97 3235
97 3415
97 3572
97 3866
97 4137
97 4397
97 4504
97 4642
97 4697
97 4835
98 381
98 393
98 607
98 710
98 838
98 866
98 932
98 1025
98 1110
98 1119
98 1198
98 1559
98 1588
98 1623
98 1950
98 2034
98 2454
98 2785
98 2896
98 2993
98 3054
98 3113
98 3116
98 3479
98 3571
98 3580
98 3597
98 3923
98 4064
98 4084
98 4139
98 4396
98 4414
98 4475
98 4817
98 4891
99 116
99 130
99 183
99 273
99 396
99 494
99 631
99 741
99 1002
99 1100
99 1539
99 1616
99 2262
99 2289
99 2757
99 2769
99 3140
99 3374
99 3381
99 3896
99 4589
99 4595
100 112
100 399
100 426
100 652
100 907
100 1018
100 1034
100 1269
100 1314
100 1376
100 1705
100 1715
100 2131
100 2381
100 2513
100 2532
100 2654
100 2898
100 3014
100 3296
100 3331
100 3425
100 4079
100 4466
100 4506
100 4629
100 4724
101 1495
101 1548
101 1629
101 1827
101 1929
101 2093
101 2123
101 2135
101 2203
101 2303
101 2328
101 2554
101 2675
101 2846
101 3348
101 3689
101 4024
101 4074
101 4466
101 4759
101 4865
102 297
102 380
102 689
102 1038
102 1040
102 1090
102 1355
102 1391
102 1398
102 1446
102 2114
102 2308
102 2516
102 2519
102 2580
102 2949
102 3445
102 3836
102 3869
102 4238
103 215
103 336
103 456
103 659
103 747
103 857
103 1552
103 1982
103 2445
103 2728
103 2835
103 2892
103 2939
103 3290
103 3734
103 4360
103 4898
103 4943
104 627
104 1421
104 1634
104 1641
104 2002
104 2111
104 2280
104 2287
104 2339
104 2443
104 3005
104 3074
104 3088
104 3194
104 3210
104 3494
104 3541
104 3569
104 3637
104 4103
104 4306
104 4349
104 4427
104 4468
104 4559
105 317
105 569
105 731
105 904
105 1644
105 2137
105 2141
105 2212
105 2469
105 2730
105 2735
105 2860
105 2883
105 3297
105 3614
105 4024
105 4533
105 4906
105 4920
106 124
106 322
106 369
106 519
106 715
106 852
106 909
106 1042
106 1053
106 1417
106 1436
106 1843
106 1859
106 2003
106 2083
106 2130
106 2731
106 2852
106 2875
106 3001
106 3137
106 3141
106 3177
106 3344
106 3483
106 3652
106 3855
106 3930
106 4222
106 4228
106 4282
106 4345
106 4679
106 4778
106 4948
107 409
107 557
107 710
107 964
107 1074
107 1103
107 1621
107 1847
107 2083
107 2493
107 2628
107 2852
107 2942
107 3071
107 3372
107 3451
107 3650
107 3657
107 4257
108 424
108 437
108 838
108 972
108 1391
108 1517
108 1702
108 2447
108 2641
108 2650
108 2655
108 2841
108 2928
108 3089
108 3415
108 3665
108 3941
108 4141
108 4459
108 4860
109 168
109 569
109 1066
109 2127
109 2204
109 2287
109 2517
109 3973
109 4347
109 4770
109 4978
110 159
110 651
110 754
110 803
110 1044
110 1320
110 1495
110 1981
110 2194
110 2244
110 2417
110 2733
110 3104
110 3449
110 3454
110 3531
110 3533
110 4058
110 4180
110 4295
110 4336
110 4582
110 4604
111 226
111 553
111 1017
111 1475
111 1710
111 2072
111 2160
111 2385
111 2629
111 2667
111 2989
111 3014
111 3047
111 3082
111 3259
111 3848
111 4069
111 4137
111 4207
111 4393
111 4816
112 145
112 557
112 907
112 1336
112 1502
112 1605
112 1668
112 2088
112 2259
112 2544
112 2583
112 2654
112 2867
112 3130
112 4506
112 4629
112 4714
112 4724
113 156
113 514
113 547
113 669
113 735
113 753
113 813
113 819
113 857
113 970
113 1043
113 1044
113 1102
113 1192
113 1278
113 1429
113 1440
113 1538
113 1545
113 2066
113 2194
113 2514
113 2650
113 2906
113 3343
113 3452
113 3566
113 3600
113 3752
113 3768
113 4155
113 4292
113 4582
113 4690
113 4696
113 4738
113 4936
114 399
114 422
114 424
114 581
114 1363
114 1391
114 1422
114 1451
114 2575
114 2987
114 3120
114 3169
114 3295
114 3735
114 3909
114 3982
114 4171
114 4501
114 4807
115 226
115 290
115 507
115 1222
115 1469
115 1711
115 1917
115 1935
115 1988
115 2092
115 2120
115 2126
115 2278
115 2480
115 2592
115 2989
115 3139
115 3879
115 3940
115 4341
116 402
116 471
116 532
116 790
116 794
116 1681
116 1953
116 2054
116 2162
116 2469
116 2973
116 2993
116 3006
116 3212
116 3540
116 4495
116 4666
116 4678
116 4788
116 4798
117 346
117 507
117 607
117 929
117 1274
117 1360
117 1985
117 2382
117 2452
117 2950
117 3077
117 3213
117 3233
117 3649
117 3884
117 4636
118 236
118 294
118 624
118 676
118 684
118 719
118 972
118 1051
118 1192
118 1302
118 1475
118 1832
118 1978
118 2010
118 2050
118 2150
118 2157
118 2160
118 2176
118 2209
118 2277
118 2393
118 2810
118 2992
118 3014
118 3131
118 3235
118 3260
118 3445
118 3874
118 3879
118 3958
118 4117
118 4139
118 4230
118 4235
118 4331
118 4388
118 4411
118 4719
119 169
119 283
119 475
119 506
119 1070
119 1167
119 1469
119 1691
119 1711
119 2045
119 2052
119 2104
119 2195
119 2358
119 2480
119 3014
119 3385
119 3460
119 4107
119 4207
119 4240
119 4366
119 4601
119 4733
119 4911
120 301
120 826
120 882
120 1305
120 1362
120 1593
120 1739
120 1895
120 1941
120 2423
120 2536
120 2786
120 2793
120 2916
120 2982
120 3108
120 3109
120 3590
120 3675
120 3946
120 4253
120 4453
120 4535
120 4538
120 4736
120 4761
121 590
121 611
121 949
121 1077
121 1080
121 1268
121 1311
121 1421
121 2415
121 3098
121 3174
121 3875
121 4693
121 4880
121 4929
122 841
122 905
122 1209
122 1680
122 2305
122 2430
122 2957
122 3239
122 3298
122 3349
122 3783
122 3784
122 3980
122 4281
122 4592
122 4771
123 519
123 694
123 766
123 930
123 1098
123 1225
123 1457
123 1575
123 1670
123 2052
123 2922
123 2947
123 3136
123 3279
123 4042
123 4164
123 4210
123 4537
123 4548
123 4610
124 181
124 341
124 370
124 435
124 462
124 536
124 562
124 672
124 691
124 974
124 975
124 1054
124 1078
124 1287
124 1709
124 1723
124 1865
124 2261
124 2397
124 2527
124 2609
124 3019
124 3135
124 3163
124 3278
124 3279
124 3359
124 3386
124 3406
124 3436
124 3459
124 3673
124 3829
124 4006
124 4012
124 4046
124 4060
124 4126
124 4373
124 4447
124 4735
124 4829
124 4921
125 155
125 167
125 463
125 1264
125 1351
125 2224
125 3293
125 3420
125 3638
125 3670
125 3752
125 3835
125 3884
125 4036
125 4263
125 4500
125 4505
125 4867
126 422
126 1745
126 1757
126 1759
126 2239
126 2485
126 3650
126 3869
126 4199
126 4285
126 4337
126 4683
126 4830
126 4939
127 390
127 501
127 1018
127 1186
127 1274
127 1291
127 1417
127 2042
127 2464
127 2576
127 2578
127 2794
127 3057
127 3285
127 3898
127 3907
127 4089
127 4132
127 4438
127 4632
127 4654
127 4680
128 193
128 245
128 507
128 623
128 1007
128 1674
128 1685
128 2028
128 2154
128 2783
128 2887
128 3194
128 3657
128 3663
128 4027
128 4137
128 4276
128 4756
129 583
129 1112
129 1256
129 1358
129 1460
129 1780
129 2009
129 2031
129 2053
129 2626
129 2646
129 2786
129 2825
129 2916
129 2997
129 3094
129 3566
129 3885
129 3890
129 3958
129 4113
129 4128
129 4211
129 4801
130 417
130 954
130 974
130 1601
130 1740
130 1744
130 1750
130 2175
130 2943
130 3129
130 3249
130 3310
130 3492
130 3523
130 3608
130 3845
130 3864
130 4081
130 4369
130 4534
131 239
131 253
131 442
131 500
131 557
131 647
131 801
131 1620
131 2178
131 2435
131 2784
131 2795
131 2803
131 2865
131 2968
131 3030
131 4004
131 4588
131 4696
132 188
132 225
132 256
132 444
132 645
132 920
132 990
132 1185
132 1232
132 1307
132 1959
132 2153
132 2232
132 2345
132 2384
132 2576
132 2609
132 2869
132 2883
132 2922
132 3240
132 3575
132 3827
132 3898
132 3937
132 4105
132 4703
133 189
133 215
133 281
133 332
133 1649
133 1655
133 1723
133 2387
133 2649
133 3042
133 3465
133 3490
133 3713
133 3986
133 4142
133 4356
133 4857
134 159
134 233
134 474
134 1334
134 1527
134 1617
134 2684
134 2840
134 3660
134 4099
134 4339
134 4679
134 4713
135 201
135 218
135 318
135 889
135 892
135 1218
135 1386
135 1421
135 1605
135 1711
135 2094
135 2110
135 2220
135 2252
135 2271
135 2280
135 2358
135 2388
135 2443
135 2583
135 2659
135 2928
135 3010
135 3041
135 3074
135 3180
135 4148
135 4149
135 4399
136 648
136 964
136 1074
136 1177
136 1535
136 1954
136 2048
136 2241
136 2380
136 2916
136 3020
136 3108
136 3526
136 3608
136 3790
136 3946
136 3967
136 4036
136 4188
136 4277
136 4373
136 4460
136 4468
136 4677
137 339
137 355
137 801
137 961
137 1197
137 1449
137 1573
137 1733
137 2217
137 3154
137 3287
137 3525
137 3535
137 3633
137 3801
137 3948
137 4079
137 4284
137 4412
137 4709
137 4954
138 390
138 745
138 1432
138 1734
138 1970
138 1986
138 2161
138 2204
138 2402
138 2547
138 2615
138 2704
138 2877
138 3159
138 3283
138 3285
138 3363
138 4029
138 4124
138 4614
138 4837
138 4970
139 266
139 727
139 923
139 1017
139 1071
139 1158
139 1203
139 1971
139 2507
139 2576
139 3159
139 4034
139 4306
139 4319
139 4535
139 4794
140 324
140 388
140 631
140 701
140 743
140 987
140 1091
140 1146
140 1154
140 1208
140 1309
140 1354
140 1386
140 1430
140 1458
140 1595
140 1616
140 1618
140 1698
140 1709
140 1718
140 1740
140 1744
140 1763
140 1775
140 1979
140 1999
140 2006
140 2048
140 2261
140 2365
140 2478
140 2753
140 2827
140 2880
140 2960
140 2980
140 2987
140 3007
140 3057
140 3102
140 3148
140 3182
140 3261
140 3310
140 3368
140 3630
140 3804
140 3864
140 3896
140 3906
140 3993
140 4003
140 4026
140 4039
140 4073
140 4196
140 4206
140 4549
140 4589
140 4833
141 482
141 765
141 965
141 1105
141 1116
141 1197
141 1249
141 1252
141 1299
141 1318
141 1434
141 1625
141 1782
141 2004
141 2031
141 2094
141 2433
141 2473
141 2488
141 2594
141 2901
141 3590
141 4077
141 4306
141 4334
141 4394
141 4430
141 4780
141 4939
142 390
142 420
142 754
142 881
142 1953
142 2579
142 2679
142 3076
142 3761
142 3922
142 4166
142 4276
142 4646
142 4666
143 428
143 526
143 690
143 776
143 829
143 884
143 1042
143 1201
143 1372
143 1702
143 2188
143 2298
143 2301
143 2516
143 3026
143 3447
143 3639
143 3812
143 4383
144 500
144 557
144 775
144 788
144 993
144 1025
144 1171
144 1251
144 1527
144 1730
144 1805
144 2041
144 2104
144 2178
144 2299
144 2435
144 2563
144 3521
144 4596
144 4805
145 239
145 250
145 254
145 260
145 285
145 394
145 486
145 510
145 532
145 551
145 759
145 981
145 1343
145 1374
145 1555
145 1739
145 1748
145 1917
145 2104
145 2165
145 2201
145 2238
145 2241
145 2286
145 2314
145 2447
145 2787
145 3178
145 3207
145 3884
145 3914
145 3918
145 3923
145 4181
145 4200
145 4202
145 4291
145 4358
145 4469
145 4703
146 1104
146 1178
146 1229
146 2108
146 2858
146 2890
146 3139
146 3230
146 3487
146 3489
146 3829
146 4797
147 167
147 176
147 190
147 199
147 239
147 260
147 487
147 671
147 696
147 700
147 1265
147 1379
147 2238
147 2663
147 3178
147 3375
147 3975
147 4097
147 4161
147 4217
147 4302
147 4376
148 775
148 861
148 918
148 1025
148 1166
148 1280
148 1394
148 1597
148 1840
148 1958
148 1985
148 2178
148 2299
148 2435
148 2522
148 2688
148 3048
148 4353
148 4957
149 270
149 966
149 1502
149 1765
149 1914
149 2538
149 2831
149 2835
149 3466
149 3523
149 3554
149 3594
149 3890
149 4328
149 4379
149 4457
149 4707
149 4864
150 228
150 352
150 406
150 413
150 416
150 436
150 579
150 880
150 1483
150 1672
150 1718
150 1721
150 1844
150 1987
150 2069
150 2195
150 2359
150 2625
150 2645
150 3328
150 4163
150 4164
150 4167
150 4346
150 4529
150 4574
151 830
151 1349
151 1561
151 1771
151 1822
151 1867
151 1893
151 1975
151 2023
151 2353
151 3032
151 3050
151 3327
151 4742
151 4984
152 357
152 650
152 750
152 773
152 948
152 1868
152 2112
152 2474
152 2980
152 2982
152 3793
152 3841
152 3909
152 4029
152 4109
152 4146
152 4166
152 4926
153 258
153 292
153 502
153 829
153 839
153 909
153 931
153 998
153 1047
153 1143
153 1397
153 1457
153 1719
153 2375
153 2493
153 2690
153 2729
153 2759
153 2803
153 2814
153 3239
153 3480
153 3756
153 3943
153 4136
153 4563
153 4839
154 242
154 631
154 687
154 855
154 955
154 1016
154 1131
154 1182
154 1358
154 1463
154 1498
154 1587
154 1685
154 1724
154 1793
154 1827
154 2007
154 2174
154 2414
154 2681
154 2689
154 3088
154 3209
154 3407
154 3553
154 3794
154 3804
154 3934
154 4120
154 4180
154 4276
154 4410
154 4915
155 158
155 168
155 208
155 233
155 319
155 669
155 806
155 808
155 829
155 845
155 887
155 1010
155 1078
155 1108
155 1189
155 1190
155 1361
155 1454
155 1624
155 1626
155 1650
155 1653
155 1704
155 1751
155 1852
155 2071
155 2197
155 2198
155 2227
155 2253
155 2259
155 2293
155 2457
155 2518
155 2603
155 2640
155 2685
155 2757
155 2829
155 2840
155 2870
155 2903
155 2905
155 2913
155 2977
155 3041
155 3173
155 3200
155 3246
155 3261
155 3262
155 3331
155 3502
155 3522
155 3546
155 3577
155 3672
155 3836
155 3867
155 3877
155 4209
155 4293
155 4381
155 4528
155 4563
155 4685
155 4692
155 4713
155 4764
155 4941
155 4989
156 767
156 827
156 900
156 1017
156 1049
156 1191
156 1394
156 1399
156 1408
156 1601
156 1604
156 1670
156 1790
156 1862
156 1867
156 1931
156 2234
156 2483
156 2785
156 2812
156 2993
156 3027
156 3273
156 3324
156 3364
156 3502
156 3518
156 3559
156 3706
156 3892
156 3986
156 4043
156 4260
156 4315
156 4791
156 4834
156 4861
156 4891
156 4986
157 234
157 277
157 314
157 608
157 1038
157 1104
157 1456
157 1672
157 1917
157 2262
157 2470
157 2651
157 3197
157 4008
157 4023
157 4069
157 4170
157 4185
157 4305
157 4364
157 4478
157 4593
157 4959
158 516
158 598
158 636
158 1108
158 1357
158 2127
158 2198
158 3439
158 3672
158 3788
158 3851
158 4532
158 4997
159 467
159 499
159 575
159 579
159 714
159 784
159 792
159 840
159 978
159 984
159 1062
159 1115
159 1362
159 1380
159 1395
159 1608
159 1692
159 1694
159 1702
159 1738
159 1769
159 1912
159 2214
159 2307
159 2335
159 2361
159 2373
159 2399
159 2416
159 2430
159 2507
159 2721
159 2749
159 2767
159 2808
159 2826
159 3130
159 3487
159 3516
159 3589
159 3720
159 3759
159 3775
159 3797
159 3838
159 3919
159 4264
159 4288
159 4381
159 4382
159 4404
159 4424
159 4497
159 4518
159 4520
159 4528
159 4627
159 4635
159 4763
159 4802
159 4837
159 4911
159 4949
159 4991
160 173
160 179
160 230
160 474
160 483
160 610
160 1054
160 1318
160 1370
160 2099
160 2508
160 2816
160 3083
160 3237
160 3894
160 4111
160 4232
160 4338
160 4412
160 4495
160 4677
160 4780
161 243
161 483
161 485
161 676
161 1089
161 1321
161 1372
161 1553
161 1917
161 1995
161 2052
161 2065
161 2224
161 2265
161 2293
161 2368
161 2480
161 2522
161 3396
161 4001
161 4022
161 4441
161 4455
162 165
162 382
162 453
162 954
162 981
162 1034
162 1955
162 3144
162 3156
162 3757
162 4255
162 4473
162 4935
163 438
163 795
163 1018
163 1147
163 1180
163 1208
163 1910
163 1981
163 1999
163 2442
163 2880
163 3077
163 3367
163 3449
163 3566
163 4236
163 4905
164 165
164 450
164 497
164 541
164 565
164 596
164 611
164 646
164 771
164 938
164 957
164 958
164 1072
164 1085
164 1208
164 1447
164 1450
164 1647
164 1798
164 1842
164 2093
164 2379
164 2492
164 2547
164 2652
164 2743
164 2777
164 2779
164 2856
164 2900
164 3024
164 3036
164 3166
164 3532
164 3543
164 3587
164 3906
164 4273
164 4576
164 4639
164 4662
164 4771
164 4834
164 4841
165 309
165 481
165 582
165 771
165 773
165 1503
165 1631
165 2324
165 2379
165 2504
165 2804
165 2856
165 3242
165 3277
165 3789
165 4338
165 4639
165 4763
165 4771
166 197
166 257
166 389
166 410
166 570
166 731
166 797
166 853
166 1027
166 1375
166 2186
166 2284
166 2309
166 2336
166 2681
166 3263
166 3854
166 4208
166 4305
166 4479
166 4670
166 4698
166 4953
167 172
167 176
167 199
167 239
167 241
167 250
167 329
167 359
167 397
167 485
167 487
167 609
167 627
167 638
167 641
167 805
167 1092
167 1108
167 1129
167 1166
167 1251
167 1272
167 1294
167 1402
167 1548
167 1748
167 2238
167 2241
167 2330
167 2392
167 2616
167 2882
167 3004
167 3299
167 3432
167 3602
167 3624
167 3670
167 3728
167 3749
167 3940
167 3962
167 3979
167 4114
167 4236
167 4256
167 4302
167 4500
167 4507
167 4581
167 4685
168 233
168 321
168 372
168 677
168 789
168 808
168 845
168 1237
168 1470
168 1626
168 1733
168 2144
168 2199
168 2259
168 2393
168 2530
168 2531
168 2679
168 2739
168 2765
168 2945
168 3330
168 3571
168 3630
168 4176
168 4218
168 4293
168 4322
168 4598
169 341
169 578
169 751
169 964
169 1000
169 1171
169 1253
169 1328
169 1488
169 1659
169 1917
169 2171
169 2338
169 2494
169 2585
169 2742
169 3184
169 3227
169 3387
169 3878
169 4326
169 4671
169 4756
169 4820
170 598
170 661
170 802
170 885
170 972
170 1363
170 2021
170 2451
170 2521
170 2773
170 2837
170 2916
170 3228
170 3539
170 3693
170 3810
170 3899
170 3940
170 4061
170 4069
170 4408
170 4640
170 4881
171 379
171 762
171 935
171 1000
171 1079
171 1112
171 1672
171 2304
171 2440
171 2570
171 2593
171 2611
171 2849
171 2958
171 2959
171 3068
171 3227
171 4009
171 4178
171 4209
171 4377
171 4642
171 4754
172 219
172 279
172 285
172 372
172 397
172 551
172 641
172 1379
172 1881
172 1912
172 2167
172 2469
172 2705
172 2735
172 3080
172 3116
172 3125
172 3293
172 3619
172 3653
172 4321
172 4615
172 4656
172 4908
173 288
173 851
173 866
173 1152
173 1666
173 1951
173 2056
173 2099
173 2243
173 2443
173 2474
173 2488
173 2532
173 2989
173 3096
173 3773
173 3900
173 4077
173 4107
173 4181
173 4306
173 4334
173 4427
173 4468
173 4601
173 4684
173 4780
173 4869
173 4910
174 837
174 1509
174 1585
174 1745
174 1877
174 1935
174 2328
174 2687
174 2708
174 2772
174 3053
174 3548
174 4095
174 4452
174 4715
174 4881
174 4917
175 281
175 390
175 728
175 889
175 1240
175 1274
175 1701
175 1976
175 2215
175 2520
175 2599
175 2926
175 2974
175 3746
175 3925
175 3931
175 4294
175 4618
176 241
176 250
176 516
176 686
176 1264
176 1555
176 1690
176 1813
176 2103
176 2455
176 2689
176 2813
176 3414
176 3446
176 4200
176 4263
176 4316
176 4361
176 4500
176 4507
177 285
177 297
177 332
177 442
177 484
177 641
177 700
177 912
177 1282
177 1294
177 1751
177 2060
177 2328
177 2549
177 2663
177 2705
177 3094
177 3106
177 3432
177 3914
177 4112
177 4376
177 4507
177 4525
177 4539
178 232
178 537
178 1032
178 1542
178 1679
178 2528
178 2572
178 2734
178 3147
178 4002
178 4312
178 4852
178 4893
179 423
179 545
179 970
179 1116
179 1252
179 1572
179 2063
179 2078
179 2196
179 3020
179 3079
179 3194
179 4156
179 4306
179 4755
179 4780
180 494
180 719
180 744
180 817
180 856
180 1019
180 1237
180 1270
180 1297
180 1580
180 2018
180 2148
180 2149
180 2254
180 2348
180 2515
180 2539
180 3000
180 4280
180 4313
180 4402
180 4460
180 4517
180 4532
180 4606
180 4825
180 4876
181 324
181 400
181 562
181 652
181 1039
181 1437
181 1486
181 1709
181 1722
181 1744
181 2099
181 2171
181 2182
181 2361
181 2544
181 3219
181 3296
181 3406
181 3492
181 3568
181 3939
181 4236
181 4575
181 4908
182 267
182 697
182 898
182 1154
182 1207
182 1239
182 2055
182 2254
182 2276
182 2688
182 3277
182 3550
182 4281
182 4560
182 4699
182 4914
183 443
183 469
183 477
183 538
183 627
183 633
183 725
183 822
183 902
183 1295
183 2047
183 2378
183 2487
183 2515
183 2672
183 2772
183 3039
183 3283
183 3931
183 4444
183 4566
183 4762
183 4846
184 207
184 210
184 236
184 572
184 635
184 1131
184 1158
184 1172
184 1233
184 1266
184 1780
184 1832
184 2170
184 2236
184 2480
184 2651
184 2819
184 3082
184 3879
184 3890
184 4230
184 4245
184 4428
184 4622
184 4911
185 292
185 387
185 477
185 495
185 595
185 628
185 681
185 707
185 749
185 753
185 1122
185 1281
185 1322
185 1352
185 1463
185 1589
185 1643
185 1648
185 1741
185 1839
185 2062
185 2087
185 2168
185 2223
185 2500
185 2725
185 2940
185 3121
185 3149
185 3243
185 3290
185 3500
185 3512
185 3595
185 3621
185 3750
185 3768
185 3876
185 3913
185 4042
185 4157
185 4197
185 4265
185 4358
185 4480
185 4810
185 4900
186 479
186 632
186 1091
186 1192
186 1373
186 1375
186 1467
186 1468
186 1524
186 1541
186 2250
186 2401
186 2639
186 2779
186 3085
186 3465
186 3771
186 3805
186 3981
186 4204
186 4393
186 4431
186 4610
186 4705
186 4878
186 4937
186 4972
187 914
187 1185
187 1409
187 1734
187 2096
187 2172
187 2514
187 2819
187 3143
187 3354
187 3908
187 4124
187 4304
187 4499
187 4529
187 4726
187 4909
187 4933
187 4945
187 4970
188 395
188 729
188 822
188 923
188 1065
188 1274
188 1982
188 2332
188 2576
188 2609
188 2878
188 3108
188 3492
188 4031
188 4744
188 4845
189 337
189 363
189 494
189 649
189 918
189 1114
189 1196
189 1237
189 1455
189 1508
189 2387
189 2398
189 2475
189 2481
189 2548
189 2638
189 2649
189 2744
189 3079
189 3147
189 3488
189 3611
189 3616
189 3694
189 3713
189 3773
189 4099
189 4174
189 4202
189 4255
189 4271
189 4312
189 4340
189 4473
189 4551
189 4558
189 4942
190 219
190 307
190 510
190 534
190 797
190 1188
190 1210
190 1294
190 1444
190 1968
190 2045
190 2140
190 2241
190 2261
190 2274
190 2455
190 2801
190 3207
190 3494
190 3596
190 4200
190 4238
190 4263
190 4354
190 4695
190 4723
191 1057
191 1066
191 1110
191 1127
191 1421
191 1489
191 1498
191 1622
191 1642
191 1790
191 1975
191 2155
191 2178
191 2314
191 2632
191 2781
191 3052
191 3087
191 3171
191 3214
191 3225
191 3472
191 3593
191 3611
191 3792
191 4066
191 4258
191 4793
191 4891
192 295
192 856
192 1631
192 2332
192 2342
192 3156
192 3839
192 3890
192 4146
192 4223
192 4405
192 4703
193 650
193 687
193 722
193 796
193 814
193 950
193 1155
193 1348
193 1463
193 1570
193 1690
193 1708
193 2035
193 2174
193 2189
193 2226
193 2307
193 2364
193 2671
193 2750
193 2866
193 2879
193 2984
193 3175
193 3216
193 3599
193 3767
193 4224
193 4337
193 4410
193 4785
193 4850
193 4897
194 227
194 295
194 452
194 461
194 734
194 773
194 869
194 1299
194 1308
194 1317
194 2082
194 2242
194 2332
194 2398
194 2538
194 2565
194 2758
194 2831
194 3180
194 3290
194 3466
194 3586
194 3868
194 3922
194 3991
194 4275
194 4289
194 4333
194 4379
194 4707
194 4743
194 4843
194 4894
194 4940
195 866
195 951
195 1267
195 1462
195 2010
195 2108
195 2133
195 2242
195 2409
195 3001
195 3061
195 3205
195 3547
195 4052
195 4147
196 455
196 682
196 1486
196 1875
196 1895
196 2095
196 2507
196 3226
196 3381
196 3748
196 4125
196 4206
196 4361
196 4738
197 312
197 449
197 662
197 719
197 799
197 1085
197 1305
197 1548
197 2449
197 2479
197 2559
197 2582
197 2622
197 2849
197 2982
197 4081
197 4370
197 4759
197 4857
197 4950
198 368
198 563
198 1129
198 1671
198 2105
198 2340
198 3015
198 3122
198 3206
198 3402
198 3620
198 4293
198 4357
198 4626
198 4967
199 241
199 250
199 412
199 546
199 641
199 700
199 1048
199 1227
199 1264
199 1272
199 2241
199 2274
199 2330
199 2813
199 2845
199 4084
199 4202
199 4263
199 4291
199 4736
200 1395
200 1594
200 1837
200 2307
200 2354
200 2510
200 2721
200 2723
200 2749
200 2767
200 3306
200 3542
200 3570
200 3720
200 3759
200 3863
200 4192
200 4336
200 4381
200 4660
200 4876
201 222
201 243
201 364
201 368
201 535
201 718
201 847
201 916
201 928
201 952
201 1200
201 1352
201 1716
201 1879
201 1946
201 2264
201 2310
201 2407
201 2587
201 2831
201 3342
201 3392
201 3446
201 3603
201 3652
201 3681
201 3841
201 4229
201 4301
201 4358
201 4373
201 4406
201 4441
201 4928
202 502
202 1678
202 1723
202 1731
202 2394
202 2475
202 2922
202 2940
202 2985
202 3106
202 3170
202 3333
202 3686
202 3700
202 3750
202 3994
202 4060
202 4121
202 4221
203 605
203 653
203 665
203 717
203 1327
203 2005
203 2397
203 3478
203 3595
203 4195
203 4530
203 4557
203 4632
204 237
204 238
204 249
204 716
204 898
204 1039
204 1042
204 1226
204 1286
204 1353
204 1418
204 1620
204 1651
204 1721
204 1767
204 2051
204 2110
204 2221
204 2239
204 2254
204 2256
204 2284
204 2294
204 2303
204 2529
204 2531
204 2779
204 3185
204 3199
204 3419
204 3459
204 3550
204 3619
204 3752
204 3763
204 3864
204 3966
204 4089
204 4091
204 4281
204 4296
204 4449
204 4454
204 4515
204 4544
204 4552
204 4620
204 4668
204 4699
204 4843
204 4873
204 4887
205 322
205 692
205 731
205 891
205 1030
205 1116
205 1147
205 1336
205 1447
205 1683
205 2459
205 2720
205 2812
205 2835
205 2897
205 3138
205 3154
205 3188
205 3286
205 3657
205 3933
205 4141
205 4170
205 4406
205 4542
206 392
206 1492
206 1600
206 1726
206 1813
206 1923
206 2248
206 2369
206 2517
206 2689
206 2751
206 2773
206 2923
206 3267
206 3315
206 3344
206 3400
206 4086
206 4188
206 4335
206 4434
206 4579
206 4693
206 4747
206 4810
207 477
207 793
207 930
207 1273
207 1710
207 2265
207 2350
207 2454
207 2470
207 2999
207 3014
207 3016
207 3674
207 4022
207 4119
207 4176
207 4208
207 4341
207 4481
207 4857
207 4882
207 4986
208 246
208 597
208 693
208 696
208 845
208 1108
208 1471
208 1511
208 1589
208 1617
208 2198
208 2427
208 2531
208 2726
208 2765
208 2802
208 2867
208 3379
208 3968
208 3992
208 4197
208 4214
208 4692
208 4713
209 222
209 272
209 371
209 504
209 542
209 867
209 993
209 1269
209 1462
209 1567
209 1955
209 1965
209 2185
209 2206
209 2382
209 2610
209 3213
209 3535
209 3580
209 3607
209 3729
209 3799
209 4162
209 4244
210 283
210 515
210 1553
210 1664
210 2092
210 2247
210 2278
210 2598
210 2743
210 2989
210 3146
210 3220
210 3475
210 3608
210 3879
210 4069
210 4185
210 4245
210 4262
210 4364
211 239
211 241
211 641
211 1013
211 1218
211 1748
211 2238
211 2241
211 2392
211 2455
211 2620
211 2705
211 3086
211 3375
211 3432
211 3638
211 3922
211 4290
212 232
212 741
212 1734
212 1758
212 1762
212 1789
212 2064
212 2198
212 2285
212 2371
212 2570
212 2715
212 2786
212 2905
212 3108
212 3137
212 3312
212 3377
212 3530
212 3736
212 3912
212 4163
212 4171
212 4568
212 4687
212 4734
212 4736
213 530
213 556
213 872
213 1287
213 1570
213 1823
213 2276
213 2291
213 2524
213 2594
213 2997
213 3655
213 3950
213 4612
213 4652
213 4846
214 377
214 432
214 623
214 650
214 749
214 750
214 760
214 883
214 1221
214 1342
214 1372
214 1389
214 1392
214 1708
214 1714
214 1795
214 1861
214 1863
214 1896
214 2035
214 2154
214 2189
214 2245
214 2301
214 2331
214 2364
214 2412
214 2510
214 2746
214 2797
214 2800
214 3975
214 4120
214 4162
214 4180
214 4303
214 4337
214 4540
215 428
215 456
215 592
215 780
215 915
215 1167
215 1536
215 1539
215 2009
215 2462
215 2594
215 2727
215 2728
215 2745
215 2835
215 3077
215 3716
215 3732
215 4360
215 4430
215 4512
215 4808
215 4858
215 4966
216 361
216 542
216 587
216 1096
216 1258
216 1344
216 1346
216 1672
216 2021
216 2075
216 2192
216 2513
216 2580
216 2646
216 2668
216 2852
216 3331
216 3386
216 3549
216 3606
216 3946
216 3997
216 4253
216 4374
216 4418
216 4419
216 4918
216 4957
216 4986
217 351
217 525
217 635
217 640
217 657
217 695
217 751
217 875
217 892
217 1093
217 1814
217 2050
217 2183
217 2336
217 2535
217 2667
217 2693
217 3275
217 3825
217 4358
217 4375
217 4637
217 4651
217 4749
218 320
218 414
218 434
218 474
218 527
218 540
218 865
218 1054
218 1066
218 1123
218 1124
218 1175
218 1185
218 1299
218 1325
218 1583
218 1762
218 2004
218 2063
218 2078
218 2094
218 2211
218 2252
218 2287
218 2327
218 2358
218 2373
218 2419
218 2443
218 2488
218 2609
218 2878
218 3022
218 3083
218 3096
218 3363
218 3437
218 3569
218 3827
218 3894
218 3925
218 3990
218 4070
218 4148
218 4153
218 4189
218 4232
218 4251
218 4256
218 4275
218 4283
218 4289
218 4306
218 4427
218 4516
218 4755
218 4780
219 413
219 920
219 1251
219 1444
219 1510
219 2167
219 2405
219 2490
219 2705
219 2926
219 3178
219 3207
219 3432
219 3638
219 3653
219 3694
219 3728
219 3971
219 4502
219 4705
220 329
220 408
220 441
220 711
220 716
220 898
220 1206
220 1412
220 1531
220 1606
220 1618
220 1730
220 1802
220 2082
220 2247
220 2601
220 2709
220 2832
220 2876
220 3407
220 3658
220 3740
220 4194
220 4281
220 4396
220 4515
220 4603
220 4668
220 4699
220 4931
221 267
221 1285
221 1388
221 1533
221 2256
221 2277
221 2516
221 3277
221 3763
221 4025
221 4200
221 4281
221 4511
221 4920
222 358
222 820
222 1110
222 1328
222 1501
222 1574
222 1848
222 2136
222 3104
222 3172
222 3262
222 3393
222 3795
222 3821
222 4347
222 4505
223 476
223 638
223 712
223 782
223 1113
223 1146
223 1418
223 1865
223 1975
223 1997
223 2003
223 2100
223 2112
223 2235
223 2274
223 2331
223 2420
223 2611
223 2863
223 2890
223 2982
223 3019
223 3046
223 3303
223 3367
223 3816
223 4044
223 4076
223 4177
223 4199
223 4347
223 4417
223 4446
223 4852
223 4886
224 309
224 564
224 572
224 884
224 1171
224 1384
224 1481
224 1508
224 1737
224 1779
224 1887
224 1893
224 2177
224 2192
224 2206
224 2254
224 2306
224 2476
224 2624
224 2636
224 2711
224 2821
224 2932
224 3128
224 3397
224 3682
224 3895
224 4144
224 4376
224 4474
224 4740
224 4751
224 4838
224 4889
225 448
225 1185
225 1289
225 1959
225 1986
225 2055
225 2187
225 2251
225 2497
225 2619
225 2820
225 2926
225 2955
225 3465
225 3641
225 3898
225 3989
225 4140
225 4308
225 4553
225 4618
225 4707
225 4970
226 686
226 924
226 1038
226 1104
226 1302
226 1329
226 1567
226 1792
226 2050
226 2065
226 2139
226 2179
226 2245
226 2504
226 2629
226 2896
226 2934
226 2992
226 3139
226 3900
226 4058
226 4243
226 4428
226 4732
227 295
227 506
227 776
227 1332
227 1927
227 1930
227 2242
227 2332
227 2342
227 2481
227 2758
227 3076
227 3586
227 4707
227 4756
227 4837
227 4873
228 341
228 367
228 840
228 1295
228 1546
228 1602
228 1618
228 1861
228 2357
228 2570
228 2593
228 2640
228 2734
228 2741
228 2974
228 3004
228 3518
228 4009
228 4016
228 4056
228 4226
228 4318
228 4377
228 4498
228 4540
228 4561
228 4640
228 4663
228 4671
228 4720
228 4748
228 4849
228 4869
228 4966
229 240
229 341
229 521
229 618
229 688
229 1453
229 1978
229 2090
229 2235
229 2525
229 2839
229 3184
229 3402
229 3495
229 3736
229 3765
229 3786
229 3863
229 3899
229 4171
229 4193
229 4251
229 4377
229 4421
229 4558
229 4726
230 320
230 414
230 527
230 1054
230 1116
230 1374
230 1495
230 1625
230 1772
230 1835
230 1905
230 1973
230 2099
230 2177
230 2443
230 2488
230 2830
230 2887
230 3009
230 3096
230 3294
230 3556
230 3569
230 3637
230 3642
230 4149
230 4306
230 4325
230 4412
230 4417
230 4524
230 4902
230 4914
231 400
231 408
231 1092
231 1589
231 2021
231 2022
231 2089
231 2335
231 2543
231 3187
231 3352
231 4043
231 4074
231 4158
231 4199
231 4628
231 4918
232 290
232 947
232 986
232 1799
232 2089
232 2121
232 2258
232 2562
232 2590
232 2656
232 3402
232 3455
232 3789
232 3913
232 3952
232 4144
232 4147
232 4149
232 4485
232 4980
233 246
233 451
233 667
233 784
233 829
233 1237
233 1361
233 1384
233 1535
233 1542
233 1624
233 1704
233 2028
233 2204
233 2293
233 2531
233 2640
233 2689
233 2718
233 2765
233 2828
233 2867
233 2883
233 3192
233 3302
233 3760
233 3845
233 4205
233 4214
233 4221
233 4258
233 4269
233 4272
233 4396
233 4530
233 4692
233 4800
233 4975
234 251
234 271
234 600
234 951
234 1266
234 1321
234 1662
234 1917
234 2089
234 2104
234 2108
234 2441
234 2650
234 2658
234 3052
234 3205
234 4207
234 4230
234 4247
234 4884
234 4913
235 264
235 367
235 380
235 401
235 498
235 618
235 699
235 779
235 810
235 937
235 964
235 1153
235 1259
235 1266
235 1496
235 1501
235 1721
235 1755
235 1820
235 1907
235 1945
235 1974
235 1975
235 2051
235 2141
235 2188
235 2359
235 2380
235 2451
235 2496
235 2503
235 2576
235 2585
235 2631
235 2675
235 2696
235 2699
235 2775
235 2927
235 2958
235 3004
235 3040
235 3077
235 3108
235 3132
235 3162
235 3268
235 3320
235 3339
235 3368
235 3373
235 3387
235 3481
235 3634
235 3674
235 3815
235 3939
235 4083
235 4121
235 4133
235 4190
235 4210
235 4421
235 4436
235 4538
235 4556
235 4574
235 4663
235 4768
235 4774
235 4801
235 4821
235 4937
235 4971
236 244
236 681
236 1131
236 1469
236 1553
236 2283
236 2696
236 2775
236 2813
236 3061
236 3205
236 3828
236 3841
236 3967
236 4109
236 4119
236 4266
236 4341
236 4732
237 262
237 267
237 409
237 518
237 1151
237 1811
237 2247
237 2254
237 2734
237 2769
237 2832
237 2978
237 3542
237 3675
237 4091
237 4097
237 4296
237 4552
237 4626
237 4646
237 4668
237 4780
238 267
238 291
238 408
238 452
238 719
238 756
238 793
238 1042
238 1781
238 2247
238 2254
238 2337
238 2506
238 2832
238 3277
238 3550
238 3739
238 3966
238 4241
238 4552
239 272
239 279
239 434
239 510
239 641
239 759
239 1451
239 1545
239 2163
239 2241
239 2455
239 2525
239 2705
239 3222
239 3239
239 3299
239 3475
239 3670
239 3943
239 4181
239 4500
240 1067
240 1713
240 2141
240 2332
240 2342
240 2581
240 2758
240 3817
240 4146
240 4537
240 4707
240 4789
240 4864
240 4883
241 260
241 272
241 285
241 297
241 442
241 510
241 609
241 641
241 663
241 1045
241 1076
241 1163
241 1227
241 1444
241 1514
241 1755
241 1912
241 2100
241 2241
241 2426
241 2455
241 2466
241 2663
241 2705
241 2757
241 2856
241 2899
241 3152
241 3299
241 3342
241 3375
241 3405
241 3670
241 3884
241 3989
241 4063
241 4213
241 4401
241 4487
241 4502
241 4581
241 4615
241 4723
241 4852
241 4867
242 481
242 523
242 586
242 778
242 787
242 836
242 936
242 1050
242 1248
242 1462
242 1495
242 1548
242 1585
242 1801
242 2123
242 2135
242 2203
242 2277
242 2356
242 2370
242 2383
242 2393
242 2554
242 2675
242 2696
242 3168
242 3184
242 3314
242 3348
242 3487
242 3560
242 3689
242 3801
242 3816
242 4024
242 4357
242 4567
242 4828
242 4865
242 4982
243 475
243 838
243 891
243 1469
243 2027
243 2098
243 2170
243 2242
243 2487
243 2989
243 3126
243 3131
243 3267
243 3415
243 3657
243 3733
243 3946
243 4055
243 4071
243 4364
244 428
244 1019
244 1175
244 2181
244 2323
244 2458
244 2728
244 2745
244 2815
244 3147
244 3172
244 3334
244 4360
244 4375
244 4808
245 276
245 472
245 750
245 1311
245 1390
245 1499
245 1611
245 1691
245 1698
245 1740
245 1925
245 1953
245 1957
245 2255
245 2374
245 2712
245 2767
245 2892
245 3198
245 3209
245 3392
245 3979
245 4195
245 4229
245 4342
245 4371
245 4384
245 4588
246 353
246 377
246 451
246 597
246 667
246 766
246 789
246 1030
246 1305
246 1617
246 1624
246 1653
246 1686
246 1857
246 1969
246 1998
246 2125
246 2204
246 2227
246 2257
246 2259
246 2685
246 3155
246 3330
246 3417
246 3471
246 3812
246 3885
246 4074
246 4209
246 4272
246 4293
246 4376
246 4642
246 4752
247 284
247 592
247 697
247 773
247 1016
247 1206
247 1524
247 1649
247 2207
247 2284
247 2359
247 2452
247 2536
247 2551
247 2626
247 2646
247 3108
247 3109
247 3312
247 3331
247 3402
247 3418
247 3614
247 4057
247 4436
247 4641
248 266
248 341
248 396
248 1150
248 1397
248 1563
248 1588
248 1631
248 1912
248 2373
248 2397
248 2626
248 2786
248 2842
248 2974
248 2976
248 3323
248 3387
248 3510
248 3566
248 3647
248 3783
248 3788
248 3992
248 4210
248 4314
248 4365
248 4678
248 4820
248 4903
249 395
249 596
249 1226
249 1286
249 2196
249 2247
249 2848
249 3089
249 3277
249 3437
249 3550
249 3762
249 3855
249 3954
249 4355
249 4381
250 328
250 332
250 425
250 463
250 496
250 977
250 1282
250 1401
250 1444
250 1555
250 1781
250 2241
250 2245
250 2330
250 2425
250 2455
250 3335
250 3615
250 3638
250 3682
250 3756
250 4059
250 4097
250 4376
250 4469
250 4723
250 4931
251 304
251 350
251 553
251 1131
251 1178
251 1302
251 1383
251 1469
251 1475
251 1592
251 1722
251 2092
251 2186
251 2598
251 2989
251 3112
251 3126
251 3205
251 3259
251 3263
251 3372
251 3644
251 4069
251 4119
251 4403
251 4540
251 4687
251 4910
252 670
252 687
252 855
252 862
252 1059
252 1121
252 1902
252 2113
252 2951
252 2972
252 3039
252 3309
252 3407
252 3698
252 3884
252 3889
252 3956
252 3961
252 3991
252 4027
252 4236
252 4337
253 696
253 725
253 845
253 1402
253 1545
253 1751
253 1940
253 2002
253 2152
253 2212
253 3440
253 3635
253 3725
253 4219
253 4279
253 4528
253 4674
254 1153
254 1189
254 1684
254 1747
254 1758
254 1762
254 1858
254 1895
254 2285
254 2296
254 2565
254 2626
254 2927
254 3068
254 3123
254 3138
254 3188
254 3695
254 4101
254 4164
254 4710
254 4744
255 679
255 774
255 821
255 903
255 1016
255 1599
255 2249
255 2305
255 2349
255 2731
255 2750
255 2783
255 2795
255 3076
255 3341
255 3897
255 3991
255 3994
255 4410
255 4746
256 523
256 584
256 629
256 947
256 1274
256 1302
256 2096
256 2157
256 2215
256 2284
256 2445
256 2464
256 2476
256 2609
256 3101
256 3707
256 4468
257 299
257 731
257 905
257 1285
257 1947
257 2109
257 2192
257 2610
257 2700
257 2981
257 3185
257 3769
257 4063
257 4577
257 4578
258 968
258 1117
258 1125
258 1134
258 2318
258 2973
258 3140
258 3192
258 3286
258 3378
258 3463
258 3708
258 4136
258 4224
258 4494
258 4863
258 4933
258 4948
259 392
259 671
259 752
259 1543
259 1654
259 1824
259 2073
259 2075
259 2333
259 2396
259 2592
259 2624
259 2698
259 2839
259 2997
259 3449
259 3748
259 3749
259 4251
259 4318
259 4934
260 397
260 425
260 516
260 546
260 1351
260 1444
260 2238
260 2241
260 2244
260 2392
260 2425
260 2455
260 2503
260 2660
260 3105
260 3178
260 3180
260 4238
260 4376
260 4444
260 4500
260 4979
261 1239
261 1297
261 1322
261 1402
261 1410
261 1416
261 1452
261 1710
261 1755
261 1963
261 2377
261 2569
261 2642
261 2656
261 2665
261 3202
261 3204
261 3208
261 3246
261 3420
261 3474
261 3475
261 3535
261 3541
261 3776
261 3841
261 3894
261 4112
261 4425
262 711
262 2051
262 2109
262 2247
262 2254
262 2443
262 2695
262 2910
262 3154
262 3621
262 4281
262 4770
262 4871
263 344
263 790
263 848
263 909
263 1444
263 1830
263 1942
263 1961
263 2300
263 2621
263 2971
263 3056
263 3424
263 3793
263 3836
263 4347
263 4845
263 4857
263 4923
263 4984
263 4996
264 897
264 964
264 1249
264 1253
264 1531
264 1673
264 1737
264 2194
264 2415
264 2423
264 2545
264 2624
264 2769
264 2825
264 3074
264 3190
264 3331
264 3378
264 3420
264 3461
264 3600
264 3715
264 3845
264 4013
264 4075
264 4252
264 4579
264 4748
264 4820
264 4827
264 4934
264 4962
265 350
265 360
265 379
265 498
265 736
265 969
265 1043
265 1323
265 1613
265 2397
265 2626
265 2664
265 2839
265 3111
265 3399
265 3555
265 3707
265 4450
266 618
266 670
266 980
266 989
266 1117
266 1238
266 1312
266 1563
266 1800
266 1841
266 1849
266 1945
266 2016
266 2069
266 2399
266 2576
266 2741
266 2753
266 2817
266 2916
266 3039
266 3566
266 4101
266 4207
266 4253
266 4272
266 4641
266 4722
267 291
267 411
267 619
267 756
267 1042
267 1961
267 2205
267 2229
267 2256
267 2303
267 2320
267 2443
267 2529
267 2914
267 2980
267 3084
267 3190
267 3277
267 3506
267 3673
267 4056
267 4221
267 4241
267 4296
267 4345
267 4515
267 4668
267 4699
267 4843
267 4873
267 4881
267 4931
268 381
268 691
268 715
268 731
268 781
268 911
268 1135
268 1340
268 1392
268 1468
268 1569
268 1601
268 1642
268 1663
268 1758
268 2255
268 2740
268 2812
268 2833
268 2845
268 2877
268 3281
268 3322
268 3477
268 3593
268 3663
268 3781
268 3975
268 3986
268 4084
268 4146
268 4194
268 4902
268 4927
268 4935
269 360
269 571
269 693
269 893
269 954
269 974
269 1073
269 1208
269 1486
269 1941
269 2056
269 2095
269 2315
269 2435
269 2436
269 2442
269 2639
269 2848
269 2957
269 2975
269 3093
269 3098
269 3143
269 3789
269 3822
269 3953
269 4072
269 4146
269 4575
269 4746
269 4764
269 4812
270 452
270 641
270 734
270 1006
270 1063
270 1208
270 1716
270 2242
270 2332
270 2342
270 2758
270 3586
270 3868
270 4104
270 4146
270 4371
270 4559
270 4707
270 4864
270 4978
271 555
271 685
271 1057
271 1319
271 1662
271 2093
271 2486
271 3410
271 3859
271 4326
271 4649
271 4667
271 4986
272 510
272 515
272 534
272 1122
272 1219
272 1264
272 1279
272 1374
272 1443
272 1671
272 2251
272 2343
272 2392
272 2400
272 2589
272 2705
272 2882
272 3205
272 3335
272 3350
272 3793
272 4202
272 4238
272 4302
272 4723
273 632
273 701
273 1879
273 2078
273 2139
273 2715
273 3269
273 3955
273 4610
273 4937
273 4954
273 4975
274 290
274 1075
274 1134
274 1200
274 1203
274 1304
274 1643
274 1657
274 1815
274 1946
274 1990
274 3101
274 3144
274 3216
274 3217
274 3357
274 3420
274 3703
274 3833
274 4229
274 4265
274 4930
275 422
275 936
275 1090
275 1359
275 1506
275 1509
275 1565
275 1607
275 1705
275 2335
275 2344
275 2782
275 2803
275 2836
275 3264
275 4402
275 4460
276 299
276 316
276 726
276 734
276 936
276 1254
276 1342
276 1674
276 1675
276 1954
276 2159
276 2697
276 2698
276 2951
276 3371
276 3767
276 3938
276 3998
276 4292
276 4303
276 4395
276 4959
277 433
277 673
277 701
277 768
277 991
277 1056
277 1135
277 1156
277 1594
277 1621
277 1645
277 1790
277 1834
277 1867
277 1900
277 2111
277 2151
277 2383
277 2500
277 2615
277 2790
277 2862
277 3109
277 3116
277 3171
277 3197
277 3384
277 3395
277 3402
277 3591
277 3594
277 3727
277 3881
277 3967
277 4070
277 4220
277 4318
277 4352
277 4427
277 4509
277 4527
277 4528
277 4617
277 4682
277 4744
277 4904
277 4927
278 302
278 366
278 748
278 770
278 1087
278 1546
278 1718
278 1748
278 1755
278 1771
278 1786
278 2210
278 2311
278 2390
278 2885
278 3303
278 3384
278 3858
278 3869
278 4842
278 4890
278 4923
279 357
279 391
279 397
279 478
279 829
279 1294
279 1351
279 2343
279 2373
279 2660
279 3197
279 3299
279 3392
279 3664
279 4615
279 4639
279 4990
280 369
280 442
280 859
280 942
280 1171
280 1286
280 1420
280 1445
280 1455
280 1544
280 1624
280 1761
280 2023
280 2235
280 2329
280 2400
280 2670
280 2694
280 3044
280 3101
280 3285
280 3411
280 3629
280 4043
281 557
281 795
281 990
281 1188
281 1307
281 1610
281 1860
281 1959
281 1984
281 2147
281 2165
281 2215
281 2224
281 2590
281 2869
281 3092
281 3240
281 3469
281 3629
281 3817
281 3907
281 4180
281 4203
281 4240
281 4945
282 304
282 485
282 920
282 951
282 1220
282 1681
282 2179
282 2441
282 2530
282 2629
282 2674
282 2797
282 3061
282 3384
282 3533
282 3921
282 3993
282 4185
282 4230
282 4400
282 4918
283 369
283 805
283 965
283 1351
283 1668
283 1711
283 2115
283 2120
283 2145
283 2170
283 2443
283 2999
283 3146
283 3256
283 3605
283 3633
283 3748
283 4151
283 4732
284 885
284 1020
284 1337
284 1625
284 2136
284 2171
284 2400
284 2638
284 2839
284 2847
284 2900
284 2916
284 2997
284 3257
284 3351
284 3419
284 3636
284 3966
284 4040
284 4183
284 4277
284 4436
284 4676
284 4677
284 4985
285 1294
285 2167
285 2286
285 2942
285 3191
285 3273
285 3293
285 3516
285 3638
285 3811
285 4316
285 4500
285 4505
285 4786
286 352
286 391
286 632
286 959
286 966
286 1012
286 1192
286 1540
286 1686
286 2139
286 2191
286 2307
286 2519
286 2635
286 3698
286 4393
286 4415
286 4610
286 4739
286 4768
286 4878
286 4975
287 457
287 543
287 567
287 684
287 927
287 1356
287 2067
287 2089
287 2442
287 2783
287 2961
287 3051
287 3192
287 3422
287 4960
288 289
288 345
288 582
288 680
288 1057
288 1249
288 1441
288 1655
288 1723
288 1896
288 2280
288 2337
288 2508
288 2708
288 2768
288 3020
288 3317
288 3418
288 4111
288 4232
288 4288
288 4306
288 4412
288 4427
288 4541
288 4780
289 472
289 679
289 760
289 1023
289 1024
289 1117
289 1506
289 1740
289 1753
289 1819
289 2049
289 2277
289 2423
289 2455
289 2514
289 3587
289 3737
289 4098
289 4122
289 4416
289 4619
289 4738
290 315
290 585
290 1092
290 1132
290 1135
290 1146
290 1149
290 1188
290 1726
290 1776
290 1963
290 2108
290 2310
290 2393
290 2500
290 2644
290 2690
290 3143
290 3204
290 3228
290 3272
290 3357
290 3362
290 3381
290 3572
290 3776
290 3981
290 4076
290 4301
290 4373
290 4924
291 419
291 674
291 711
291 898
291 1226
291 1353
291 1412
291 1438
291 2665
291 3089
291 3401
291 3947
291 4278
291 4626
291 4681
291 4805
291 4873
292 324
292 393
292 563
292 617
292 655
292 710
292 901
292 931
292 1095
292 1110
292 1273
292 1365
292 1394
292 1395
292 1399
292 1403
292 1411
292 1633
292 1965
292 2400
292 2454
292 2812
292 2855
292 2993
292 3101
292 3161
292 3327
292 3345
292 3577
292 3610
292 3663
292 3754
292 3986
292 4031
292 4064
292 4142
292 4617
292 4636
292 4891
293 316
293 757
293 857
293 902
293 959
293 1342
293 1842
293 2000
293 2035
293 2189
293 2207
293 2405
293 2452
293 2901
293 3117
293 3269
293 3758
293 3853
293 3904
293 4328
293 4702
293 4768
293 4844
293 4943
294 304
294 313
294 361
294 375
294 963
294 1038
294 1119
294 1229
294 1393
294 1475
294 1523
294 1544
294 2023
294 2104
294 2170
294 2209
294 2260
294 2472
294 2573
294 3139
294 3141
294 3205
294 3445
294 4246
294 4411
294 4569
295 313
295 378
295 452
295 734
295 1144
295 1206
295 1676
295 2332
295 2342
295 2392
295 2565
295 2600
295 3219
295 3296
295 3329
295 3376
295 3465
295 3523
295 3586
295 3868
295 4104
295 4146
295 4241
295 4289
295 4295
295 4379
295 4457
295 4864
295 4883
296 396
296 462
296 693
296 974
296 1435
296 1483
296 1507
296 1565
296 1590
296 1723
296 1810
296 1867
296 1941
296 1981
296 2062
296 2107
296 2269
296 2347
296 2436
296 2465
296 2608
296 2700
296 2873
296 2880
296 2913
296 2960
296 3007
296 3013
296 3065
296 3249
296 3278
296 3320
296 3358
296 3456
296 3691
296 3716
296 3777
296 3968
296 3990
296 4078
296 4081
296 4088
296 4285
296 4347
296 4488
296 4533
296 4864
296 4879
296 4905
297 1045
297 1167
297 1285
297 1291
297 1364
297 1444
297 1696
297 1748
297 1988
297 2241
297 2330
297 2455
297 2663
297 2705
297 2813
297 3053
297 3207
297 3219
297 3432
297 3884
297 4316
297 4321
297 4723
297 4727
298 321
298 728
298 891
298 993
298 1172
298 1624
298 2361
298 2416
298 2723
298 2767
298 2922
298 3556
298 3664
298 4053
298 4264
298 4381
298 4632
298 4635
298 4673
299 377
299 755
299 794
299 843
299 1026
299 1685
299 1792
299 1800
299 1876
299 2214
299 2282
299 2421
299 2451
299 2571
299 2800
299 2845
299 3008
299 3198
299 3644
299 3767
299 3808
299 4318
299 4355
299 4985
300 657
300 993
300 1491
300 1833
300 1985
300 2273
300 3202
300 3224
300 3363
300 4290
300 4337
300 4339
300 4394
301 307
301 379
301 493
301 507
301 573
301 580
301 644
301 835
301 897
301 995
301 1184
301 1337
301 1442
301 1496
301 1535
301 1631
301 1659
301 1673
301 1714
301 1823
301 1844
301 1971
301 2005
301 2270
301 2305
301 2310
301 2319
301 2333
301 2371
301 2418
301 2496
301 2645
301 2825
301 2839
301 2912
301 2958
301 3093
301 3111
301 3139
301 3189
301 3207
301 3224
301 3312
301 3351
301 3419
301 3481
301 3511
301 3561
301 3566
301 3581
301 3614
301 3679
301 3748
301 3752
301 3816
301 4057
301 4183
301 4252
301 4367
301 4447
301 4461
301 4537
301 4568
301 4577
301 4744
301 4784
301 4793
301 4802
301 4824
301 4836
301 4871
301 4883
302 739
302 831
302 848
302 1640
302 1738
302 1830
302 1865
302 2147
302 2241
302 2668
302 3174
302 3286
302 3330
302 3925
302 3934
302 4186
302 4435
303 414
303 474
303 1249
303 1271
303 2177
303 2196
303 2275
303 2443
303 2508
303 2594
303 2780
303 3088
303 3440
303 3494
303 4077
303 4111
303 4156
303 4306
303 4673
303 4780
304 475
304 485
304 493
304 684
304 1037
304 1133
304 1135
304 1233
304 1302
304 1321
304 1592
304 1654
304 2098
304 2104
304 2166
304 2189
304 2254
304 2629
304 2989
304 3014
304 3016
304 3122
304 3138
304 3259
304 3437
304 3445
304 3633
304 3860
304 4077
304 4245
304 4494
304 4708
304 4730
304 4732
304 4736
305 613
305 785
305 1324
305 1524
305 1961
305 2191
305 3341
305 3474
305 3655
305 3748
305 4623
305 4659
305 4684
305 4705
306 416
306 525
306 635
306 640
306 892
306 1666
306 2071
306 2221
306 2262
306 2407
306 2583
306 2708
306 2720
306 2750
306 2772
306 3062
306 3431
306 3563
306 3747
306 4017
306 4039
306 4283
306 4340
306 4452
306 4565
306 4939
307 482
307 952
307 1256
307 1511
307 1560
307 1858
307 2442
307 2668
307 2958
307 3283
307 3476
307 3515
307 4054
307 4274
307 4393
307 4845
308 765
308 1077
308 1100
308 1116
308 1368
308 1389
308 1879
308 2388
308 2594
308 3020
308 3057
308 3436
308 3726
308 3752
308 3866
308 4111
308 4153
308 4306
308 4592
308 4780
308 4831
308 4880
309 311
309 564
309 715
309 736
309 884
309 1508
309 1713
309 1737
309 1792
309 1893
309 2042
309 2476
309 2932
309 3723
309 3895
309 4041
309 4237
309 4447
309 4559
309 4719
309 4740
310 437
310 721
310 1438
310 1554
310 1794
310 2186
310 2360
310 2690
310 2796
310 2811
310 2859
310 3130
310 3396
310 3787
310 4102
310 4389
310 4711
310 4714
310 4830
311 392
311 564
311 884
311 952
311 1637
311 1737
311 1872
311 1893
311 1895
311 1956
311 2206
311 2711
311 3051
311 3712
311 4444
311 4447
311 4740
312 632
312 822
312 976
312 1276
312 1439
312 1482
312 1577
312 1606
312 1659
312 1855
312 1985
312 2446
312 3341
312 3603
312 4212
312 4610
313 1033
313 1067
313 1254
313 1692
313 1750
313 1757
313 1940
313 1961
313 2492
313 2621
313 3263
314 737
314 842
314 990
314 1109
314 1158
314 1161
314 1961
314 1986
314 2042
314 2187
314 2299
314 2877
314 2886
314 2924
314 3285
314 3671
314 3937
314 4132
314 4258
314 4284
314 4933
314 4961
315 700
315 928
315 952
315 989
315 1075
315 1161
315 1352
315 1433
315 1462
315 1776
315 1963
315 2268
315 2310
315 2321
315 2500
315 2542
315 2597
315 2725
315 2798
315 3022
315 3072
315 3080
315 3323
315 3455
315 3474
315 3498
315 3512
315 3782
315 3813
315 3973
315 4632
315 4710
316 342
316 407
316 433
316 572
316 667
316 670
316 679
316 687
316 855
316 883
316 967
316 1428
316 1463
316 1887
316 1935
316 1954
316 1957
316 1970
316 2022
316 2033
316 2088
316 2189
316 2520
316 2887
316 2913
316 3214
316 3371
316 3662
316 3790
316 4142
316 4444
316 4750
316 4826
317 569
317 1271
317 1935
317 2142
317 2397
317 2469
317 2735
317 3122
317 3519
317 3688
317 3978
317 4158
317 4279
317 4797
317 4819
317 4906
317 4908
318 555
318 1112
318 1232
318 1252
318 1583
318 1696
318 1931
318 2004
318 2081
318 2135
318 2236
318 2508
318 2737
318 2872
318 3213
318 3328
318 3494
318 3502
318 4181
318 4223
318 4417
319 397
319 449
319 1085
319 1112
319 1217
319 1305
319 2139
319 2220
319 2559
319 2707
319 2886
319 3005
319 4105
319 4123
319 4592
319 4759
319 4910
319 4950
320 540
320 679
320 742
320 977
320 1080
320 1377
320 1692
320 1919
320 2184
320 2443
320 2508
320 2931
320 3083
320 3346
320 3569
320 3764
320 4077
320 4149
320 4302
320 4306
320 4359
320 4780
321 474
321 787
321 795
321 831
321 950
321 965
321 975
321 1008
321 1084
321 1147
321 1318
321 1486
321 1523
321 1697
321 1867
321 2185
321 2216
321 2404
321 2873
321 3100
321 3292
321 3436
321 3636
321 3646
321 4005
321 4142
321 4209
321 4253
321 4516
321 4545
322 909
322 968
322 1117
322 1585
322 1822
322 3084
322 3141
322 3193
322 3337
322 3441
322 3696
322 3802
322 3939
322 3982
322 4033
322 4242
322 4284
322 4826
323 430
323 481
323 523
323 787
323 833
323 1256
323 2135
323 2203
323 2570
323 2608
323 2846
323 3339
323 3351
323 3689
323 4159
323 4215
323 4935
324 360
324 650
324 758
324 834
324 917
324 952
324 963
324 974
324 995
324 1078
324 1128
324 1157
324 1406
324 1570
324 1740
324 1931
324 1979
324 2113
324 2161
324 2182
324 2261
324 2263
324 2590
324 3029
324 3346
324 3358
324 3449
324 3455
324 3608
324 3674
324 3747
324 3969
324 4020
324 4060
324 4144
324 4236
324 4239
324 4691
324 4929
325 719
325 790
325 824
325 974
325 1293
325 1479
325 1550
325 1789
325 2149
325 2348
325 2402
325 2515
325 3264
325 4043
325 4307
325 4481
325 4554
325 4916
326 341
326 358
326 736
326 904
326 937
326 1102
326 1187
326 1389
326 1390
326 2064
326 2297
326 2561
326 2592
326 2819
326 2839
326 3108
326 3185
326 3679
326 3912
326 4054
326 4079
326 4232
326 4671
327 521
327 543
327 553
327 683
327 799
327 820
327 1207
327 1348
327 1384
327 1425
327 1734
327 1843
327 2133
327 2275
327 2478
327 3677
327 3915
327 3977
327 4583
327 4711
327 4899
328 507
328 799
328 1410
328 1552
328 1672
328 1741
328 2595
328 2931
328 3213
328 3638
328 4013
328 4111
328 4644
329 425
329 478
329 516
329 534
329 544
329 638
329 759
329 1055
329 1210
329 1251
329 1279
329 1364
329 1570
329 2165
329 2238
329 2770
329 2880
329 3207
329 3557
329 3602
329 3884
329 4107
329 4109
329 4968
330 560
330 972
330 974
330 1302
330 1422
330 1553
330 1988
330 2470
330 2922
330 3061
330 3230
330 3260
330 3270
330 3415
330 4364
330 4961
331 383
331 758
331 783
331 1013
331 1147
331 1697
331 1892
331 1903
331 1919
331 2090
331 2119
331 2304
331 2313
331 2552
331 3375
331 3425
331 4353
331 4366
331 4398
331 4400
331 4611
331 4707
331 4764
332 641
332 663
332 1170
332 1264
332 1351
332 1472
332 1748
332 2286
332 2583
332 2660
332 2808
332 3047
332 3293
332 3299
332 3334
332 3985
332 4238
332 4291
332 4316
332 4469
332 4977
333 512
333 543
333 611
333 807
333 1051
333 1080
333 1389
333 2324
333 2415
333 2763
333 3100
333 3423
333 3808
333 4040
333 4177
333 4499
333 4609
333 4693
333 4799
334 547
334 761
334 770
334 782
334 931
334 999
334 1115
334 1277
334 1323
334 1755
334 1759
334 1865
334 2095
334 2189
334 2219
334 2614
334 2757
334 2862
334 2959
334 3056
334 3304
334 3346
334 3619
334 3638
334 3759
334 3905
335 692
335 840
335 909
335 968
335 1082
335 1459
335 1466
335 2040
335 2648
335 2708
335 2722
335 2743
335 2859
335 3236
335 3239
335 3298
335 3889
335 4081
335 4282
335 4407
335 4664
335 4769
335 4817
335 4959
335 4996
336 428
336 1554
336 2077
336 2369
336 2410
336 2421
336 2535
336 3334
336 4116
336 4333
336 4360
336 4739
336 4872
337 412
337 652
337 1509
337 2398
337 2480
337 2518
337 2998
337 3182
337 3488
337 3611
337 4271
337 4551
338 461
338 961
338 1036
338 1477
338 1880
338 1916
338 2146
338 2218
338 2592
338 2912
338 3051
338 3525
338 3785
338 3814
338 3889
338 4127
338 4234
338 4324
338 4570
339 719
339 790
339 1039
339 1359
339 1524
339 1580
339 1662
339 2282
339 2290
339 2344
339 2462
339 2494
339 3264
339 3267
339 4442
339 4460
340 595
340 923
340 1030
340 1255
340 1274
340 1500
340 1734
340 1748
340 2111
340 2413
340 2524
340 3626
340 4075
340 4140
340 4240
340 4335
340 4876
341 411
341 554
341 587
341 648
341 819
341 965
341 980
341 1172
341 1212
341 1305
341 1354
341 1407
341 1418
341 1600
341 1665
341 1718
341 1739
341 1844
341 1868
341 1886
341 1938
341 1944
341 1971
341 2037
341 2140
341 2337
341 2394
341 2475
341 2647
341 2725
341 2817
341 2825
341 2969
341 2974
341 3108
341 3268
341 3316
341 3401
341 3419
341 3544
341 3606
341 3748
341 3887
341 4127
341 4164
341 4331
341 4362
341 4365
341 4498
341 4574
341 4697
341 4771
341 4860
341 4869
341 4915
341 4966
341 4979
342 700
342 1299
342 1391
342 1492
342 1814
342 2101
342 2196
342 2241
342 2337
342 2338
342 2513
342 2644
342 2815
342 3078
342 3101
342 3263
342 3889
342 4103
342 4362
342 4370
342 4405
342 4417
342 4468
342 4514
342 4751
343 452
343 501
343 848
343 869
343 897
343 2072
343 2081
343 2369
343 2565
343 2758
343 3018
343 3523
343 3586
343 3868
343 3890
343 4146
343 4371
343 4473
343 4864
344 384
344 1033
344 1136
344 1199
344 1603
344 1755
344 1988
344 2052
344 2331
344 2684
344 2985
344 2990
344 3051
344 3080
344 3193
344 3278
344 3390
344 4180
345 878
345 1411
345 2029
345 2173
345 2397
345 2551
345 2584
345 2794
345 2858
345 3591
345 3965
345 4089
345 4154
345 4499
345 4655
345 4784
345 4974
346 417
346 473
346 1110
346 1204
346 1544
346 1614
346 1669
346 1699
346 2047
346 2134
346 2156
346 2464
346 2651
346 2799
346 3141
346 3304
346 3544
346 3754
346 4322
346 4474
346 4766
346 4789
346 4851
346 4976
347 848
347 1188
347 1202
347 1356
347 1393
347 1707
347 1797
347 1970
347 2313
347 2555
347 2827
347 2948
347 3018
347 3187
347 3394
347 3670
347 3754
347 4382
347 4647
347 4737
348 354
348 410
348 624
348 643
348 658
348 942
348 1056
348 1118
348 1201
348 1375
348 1771
348 1793
348 1906
348 2070
348 2178
348 2284
348 2440
348 2702
348 2751
348 2858
348 2966
348 3042
348 3271
348 3605
348 3747
348 3988
348 4095
348 4305
348 4473
348 4479
348 4670
348 4703
348 4756
348 4758
348 4954
349 364
349 543
349 590
349 612
349 639
349 807
349 823
349 860
349 899
349 1062
349 1080
349 1089
349 1168
349 1584
349 1615
349 1656
349 1716
349 1768
349 1821
349 1852
349 1914
349 1959
349 2151
349 2164
349 2366
349 2391
349 2415
349 2599
349 2617
349 2635
349 2826
349 2960
349 3099
349 3118
349 3423
349 3428
349 3741
349 3875
349 3923
349 3978
349 4435
349 4440
349 4458
349 4693
349 4799
349 4830
349 4850
349 4929
349 4956
349 4974
350 383
350 503
350 962
350 1095
350 1297
350 1756
350 1901
350 1904
350 2451
350 2592
350 2735
350 2962
350 3310
350 3336
350 3386
350 3811
350 3951
350 4113
350 4242
350 4314
350 4331
350 4348
350 4420
350 4478
350 4599
350 4677
350 4722
350 4733
350 4817
351 503
351 736
351 916
351 933
351 937
351 1036
351 1079
351 1159
351 1289
351 1382
351 1390
351 1418
351 1563
351 1826
351 1854
351 1938
351 1993
351 2027
351 2176
351 2180
351 2312
351 2373
351 2592
351 2722
351 2769
351 2817
351 2989
351 3038
351 3068
351 3086
351 3091
351 3188
351 3224
351 3386
351 3399
351 3443
351 3606
351 3900
351 3946
351 3990
351 4064
351 4113
351 4127
351 4163
351 4253
351 4396
351 4534
351 4640
351 4824
351 4900
352 357
352 431
352 1241
352 1327
352 1416
352 1493
352 1531
352 2180
352 2397
352 2600
352 2892
352 3472
352 3478
352 3519
352 3688
352 3929
352 4154
352 4244
352 4250
352 4442
352 4632
352 4784
353 453
353 476
353 763
353 951
353 1439
353 1475
353 1553
353 1711
353 1850
353 2108
353 2120
353 2160
353 2262
353 2651
353 3023
353 3082
353 3225
353 3331
353 3437
353 3749
353 4052
353 4380
353 4481
353 4504
353 4709
354 474
354 731
354 1334
354 2121
354 2477
354 2772
354 3235
354 3437
354 3457
354 3461
354 4017
354 4159
354 4378
354 4676
354 4698
354 4782
355 608
355 652
355 707
355 838
355 1028
355 1306
355 1405
355 1630
355 1714
355 1939
355 2374
355 2610
355 3486
355 3850
355 4410
355 4572
356 474
356 1299
356 2443
356 2468
356 3074
356 3194
356 3345
356 3594
356 3727
356 4047
356 4149
356 4181
356 4240
356 4306
356 4524
356 4554
356 4780
357 836
357 1058
357 1238
357 1443
357 1596
357 2480
357 2846
357 3286
357 3386
357 3854
357 4131
357 4624
357 4632
357 4744
357 4974
358 411
358 587
358 1102
358 1207
358 1298
358 1405
358 1895
358 1899
358 2115
358 2282
358 2371
358 2586
358 2744
358 2850
358 3385
358 3410
358 3480
358 3748
358 4056
358 4226
358 4260
358 4418
358 4467
358 4577
358 4677
358 4697
358 4736
358 4806
358 4941
359 652
359 866
359 1230
359 1601
359 1629
359 1682
359 2071
359 2615
359 3225
359 3276
359 3318
359 3364
359 3407
359 3442
359 3559
359 3616
359 3676
359 3746
359 4285
359 4332
359 4740
359 4767
359 4891
360 438
360 1078
360 1907
360 2092
360 2175
360 2347
360 2682
360 2967
360 3420
360 3834
360 3934
360 3974
360 4020
360 4049
360 4642
360 4987
361 553
361 936
361 1178
361 1190
361 1256
361 2032
361 2050
361 2244
361 2651
361 2735
361 2789
361 3016
361 3812
361 3999
361 4243
361 4426
361 4600
361 4659
361 4879
361 4913
362 387
362 453
362 589
362 823
362 849
362 900
362 1015
362 1045
362 1165
362 1200
362 1476
362 1607
362 1624
362 1643
362 1684
362 1701
362 1770
362 1777
362 1779
362 1879
362 2013
362 2062
362 2083
362 2084
362 2121
362 2259
362 2377
362 2393
362 2569
362 2869
362 2987
362 3009
362 3080
362 3204
362 3284
362 3294
362 3357
362 3531
362 3569
362 3705
362 3955
362 3956
362 4013
362 4155
362 4358
362 4660
362 4678
362 4743
362 4931
362 4939
363 649
363 882
363 1114
363 1342
363 1761
363 1904
363 2288
363 2387
363 2548
363 2649
363 2691
363 2744
363 2956
363 3375
363 3414
363 3488
363 3694
363 3713
363 4136
363 4255
363 4473
363 4551
363 4593
363 4684
363 4753
363 4809
363 4961
364 398
364 628
364 928
364 964
364 1224
364 2013
364 2360
364 2393
364 2500
364 2735
364 3181
364 3187
364 3444
364 3527
364 3530
364 3558
364 4270
364 4358
364 4413
364 4876
365 380
365 581
365 1060
365 1062
365 1071
365 1306
365 1426
365 1504
365 1647
365 1894
365 2074
365 3434
365 3621
365 3823
365 3974
365 4058
365 4155
365 4173
365 4412
365 4512
366 446
366 602
366 801
366 1358
366 1963
366 2213
366 2379
366 2801
366 2811
366 3371
366 3407
366 3790
366 3954
366 4276
366 4303
366 4503
366 4660
366 4776
367 411
367 542
367 578
367 1093
367 1557
367 1632
367 1854
367 2141
367 2582
367 2592
367 2631
367 2770
367 2827
367 2837
367 2901
367 3312
367 3324
367 3402
367 3566
367 3593
367 3668
367 3736
367 4419
368 423
368 588
368 869
368 1013
368 1147
368 1887
368 1892
368 2313
368 2345
368 2360
368 2410
368 2973
368 3683
368 4177
368 4218
368 4366
368 4631
368 4684
369 692
369 715
369 1209
369 1292
369 1604
369 1776
369 1820
369 2462
369 2963
369 2990
369 3103
369 3289
369 3366
369 3657
369 3802
369 4130
369 4550
369 4940
370 422
370 424
370 900
370 906
370 1414
370 1446
370 1449
370 3114
370 3120
370 4053
370 4141
370 4703
370 4754
370 4834
371 444
371 548
371 595
371 725
371 961
371 1022
371 1059
371 1214
371 1499
371 1578
371 1663
371 1700
371 1860
371 1880
371 1919
371 1948
371 2108
371 2110
371 2210
371 2288
371 2386
371 2595
371 2714
371 2908
371 2937
371 3006
371 3066
371 3227
371 3389
371 3464
371 3534
371 3548
371 3680
371 3745
371 3769
371 3794
371 3803
371 3999
371 4013
371 4290
371 4295
371 4306
371 4462
371 4693
371 4778
371 4885
371 4968
371 4979
371 4994
372 429
372 1007
372 1348
372 2152
372 2864
372 3053
372 3623
372 3948
372 4258
372 4640
372 4699
373 476
373 588
373 740
373 1098
373 1610
373 1654
373 1735
373 1891
373 2216
373 2721
373 2936
373 3032
373 3180
373 3264
373 3278
373 3427
373 3489
373 3664
373 3897
373 3926
373 4235
373 4268
373 4529
373 4621
374 475
374 516
374 840
374 1292
374 1391
374 1599
374 1656
374 2412
374 2462
374 2872
374 3009
374 3037
374 3071
374 3188
374 3239
374 3451
374 3578
374 4228
374 4667
374 4792
375 390
375 1048
375 1075
375 1357
375 1618
375 1790
375 2096
375 2226
375 2381
375 2576
375 2654
375 2890
375 3362
375 3963
375 4683
376 409
376 449
376 477
376 532
376 1313
376 1479
376 2089
376 2107
376 2441
376 2474
376 4239
376 4278
376 4727
376 4951
377 505
377 587
377 623
377 738
377 814
377 843
377 1227
377 1246
377 1493
377 1559
377 1690
377 1708
377 1792
377 1863
377 1935
377 2088
377 2255
377 2318
377 2697
377 2728
377 2761
377 2874
377 2943
377 2962
377 3034
377 3427
377 3744
377 3746
377 3920
377 3938
377 3966
377 4826
377 4875
377 4906
377 4979
378 405
378 414
378 555
378 609
378 743
378 779
378 977
378 1054
378 1175
378 1186
378 1316
378 1405
378 1933
378 2030
378 2452
378 2508
378 3049
378 3194
378 3455
378 4070
378 4304
378 4468
378 4545
378 4755
378 4780
378 4870
378 4890
378 4970
379 498
379 520
379 552
379 1081
379 1382
379 1429
379 1447
379 1825
379 1849
379 2027
379 2357
379 2381
379 2496
379 2503
379 2626
379 2696
379 2943
379 3024
379 3161
379 3632
379 3788
379 4108
379 4178
379 4227
380 422
380 519
380 679
380 726
380 751
380 774
380 1061
380 1432
380 1460
380 1647
380 2154
380 2208
380 2447
380 2464
380 2653
380 2664
380 3120
380 3219
380 3254
380 3444
380 3509
380 3520
380 3601
380 3711
380 3718
380 4339
380 4604
380 4633
381 583
381 866
381 1255
381 1522
381 1601
381 1840
381 1896
381 1931
381 2007
381 2937
381 2995
381 3116
381 3437
381 3562
381 3770
381 3800
381 3862
381 3915
381 4865
382 820
382 1256
382 1271
382 1384
382 1637
382 1661
382 1871
382 2709
382 2757
382 2797
382 3129
382 3213
382 3608
382 3714
382 4384
382 4450
382 4643
382 4909
383 392
383 860
383 995
383 1256
383 1267
383 1834
383 1886
383 2038
383 2553
383 2570
383 2786
383 2929
383 3024
383 3385
383 3399
383 3510
383 3992
383 3996
383 4420
383 4485
383 4734
384 608
384 651
384 706
384 709
384 719
384 759
384 868
384 1482
384 1512
384 1550
384 3239
384 3750
384 3755
384 4130
384 4680
384 4780
384 4862
385 499
385 712
385 1197
385 1521
385 1593
385 1633
385 1694
385 1702
385 2046
385 2112
385 2243
385 2699
385 2723
385 3145
385 4118
385 4176
385 4405
386 475
386 476
386 485
386 553
386 615
386 650
386 678
386 763
386 863
386 1592
386 1926
386 1949
386 1977
386 2010
386 2120
386 2160
386 2265
386 2543
386 2605
386 2610
386 2662
386 3092
386 3135
386 3821
386 4070
386 4170
386 4207
386 4336
386 4364
386 4403
386 4498
386 4564
386 4732
387 707
387 817
387 969
387 1221
387 1410
387 1484
387 1643
387 2070
387 2285
387 2601
387 2656
387 3005
387 3438
387 3497
387 3531
387 3576
387 3813
387 3814
387 3817
387 4109
387 4110
387 4404
388 408
388 422
388 916
388 1786
388 1844
388 2070
388 2177
388 2371
388 2422
388 2519
388 2557
388 2575
388 2632
388 2655
388 2722
388 3120
388 3256
389 480
389 511
389 570
389 1074
389 1334
389 1556
389 2103
389 2122
389 2161
389 2284
389 2336
389 2377
389 2439
389 2452
389 2474
389 2573
389 2683
389 2706
389 2751
389 3124
389 3412
389 3500
389 3554
389 4318
389 4455
389 4479
389 4676
389 4698
389 4703
389 4735
389 4756
389 4758
389 4795
389 4867
389 4999
390 511
390 632
390 683
390 728
390 827
390 879
390 894
390 913
390 920
390 947
390 990
390 1019
390 1130
390 1203
390 1240
390 1260
390 1307
390 1514
390 1843
390 1906
390 1951
390 1976
390 1982
390 1992
390 2147
390 2161
390 2162
390 2166
390 2187
390 2215
390 2231
390 2232
390 2258
390 2316
390 2325
390 2521
390 2547
390 2609
390 2619
390 2661
390 2706
390 2748
390 2857
390 2926
390 2954
390 3057
390 3069
390 3092
390 3240
390 3287
390 3363
390 3396
390 3563
390 3566
390 3579
390 3921
390 3928
390 3937
390 3963
390 3988
390 3989
390 4013
390 4014
390 4034
390 4045
390 4046
390 4180
390 4559
390 4584
390 4613
390 4618
390 4808
390 4832
390 4845
390 4854
390 4951
390 4952
390 4961
390 4995
391 1373
391 1469
391 2199
391 2970
391 3872
391 4069
391 4431
391 4610
391 4659
391 4705
391 4826
391 4937
392 573
392 578
392 673
392 763
392 937
392 1097
392 1103
392 1112
392 1470
392 1597
392 1618
392 1631
392 1863
392 2228
392 2804
392 2839
392 2919
392 2976
392 3025
392 3174
392 3218
392 3399
392 3485
392 3627
392 4128
392 4362
392 4537
392 4568
392 4597
392 4675
392 4934
393 406
393 691
393 991
393 1126
393 1408
393 1582
393 1725
393 2060
393 2545
393 2932
393 3035
393 3103
393 3124
393 3274
393 3322
393 3472
393 3510
393 3576
393 3711
393 3806
393 3986
393 4001
393 4984
394 632
394 840
394 1540
394 1593
394 1748
394 2159
394 2374
394 2719
394 2959
394 3141
394 4141
394 4403
394 4610
394 4705
394 4836
394 4990
395 872
395 958
395 1106
395 1194
395 1522
395 1906
395 2168
395 2576
395 2578
395 2619
395 3159
395 3465
395 3671
395 4401
395 4989
395 4995
396 1231
396 1427
396 1709
396 1779
396 1844
396 2056
396 2086
396 2143
396 2445
396 2461
396 2908
396 2932
396 2952
396 3152
396 3425
396 3436
396 3541
396 3745
396 3815
396 3902
396 4026
396 4081
396 4192
396 4325
397 434
397 442
397 653
397 766
397 817
397 1222
397 1379
397 1416
397 1673
397 1748
397 2165
397 2202
397 2330
397 2392
397 2536
397 2710
397 2748
397 2882
397 3299
397 3638
397 3749
397 3807
397 3947
397 3962
397 4202
397 4302
397 4421
397 4657
398 477
398 576
398 687
398 706
398 1122
398 1229
398 1316
398 1655
398 1947
398 2012
398 2408
398 2422
398 2668
398 2739
398 2938
398 2975
398 3590
398 3750
398 3852
398 4097
398 4476
398 4622
398 4790
398 4833
398 4938
398 4996
399 713
399 751
399 1029
399 1090
399 1445
399 2106
399 2511
399 2519
399 2555
399 2655
399 3183
399 4141
399 4999
400 1360
400 2528
400 2589
400 2726
400 3245
400 3246
400 3247
400 3371
400 3852
400 4193
400 4231
400 4444
400 4516
400 4616
400 4622
400 4679
400 4772
400 4996
401 435
401 482
401 521
401 698
401 752
401 826
401 1429
401 1614
401 1860
401 2075
401 2161
401 2204
401 2333
401 2357
401 2494
401 2503
401 2551
401 2704
401 2863
401 2899
401 3460
401 3669
401 3685
401 3946
401 4016
401 4113
401 4121
401 4213
401 4313
401 4315
401 4576
401 4597
401 4631
401 4646
402 459
402 531
402 537
402 882
402 945
402 1066
402 1215
402 1314
402 1480
402 1536
402 1542
402 1611
402 1681
402 1918
402 2054
402 2156
402 2284
402 2296
402 2482
402 2501
402 2524
402 2572
402 2613
402 2638
402 2808
402 2929
402 2956
402 3103
402 3353
402 3451
402 3468
402 3665
402 4494
402 4624
403 422
403 751
403 868
403 958
403 1012
403 1019
403 1322
403 1770
403 2510
403 2511
403 2655
403 3091
403 3355
403 3994
403 4141
403 4323
404 453
404 986
404 1502
404 1647
404 1854
404 2447
404 2634
404 3093
404 3274
404 3341
404 3525
404 4037
404 4145
404 4776
404 4808
404 4972
405 424
405 524
405 751
405 2030
405 2387
405 2575
405 3411
405 3556
405 4141
405 4315
405 4543
405 4569
405 4760
406 421
406 467
406 588
406 819
406 1390
406 1718
406 1867
406 2125
406 2564
406 2582
406 2786
406 3086
406 3268
406 3548
406 4114
406 4277
406 4374
406 4413
406 4418
406 4422
406 4670
406 4678
406 4730
406 4869
406 4948
407 478
407 759
407 1212
407 1374
407 1444
407 2350
407 2705
407 3293
407 3797
407 3918
407 3941
407 4200
407 4291
407 4316
407 4500
408 606
408 636
408 714
408 1042
408 1618
408 1759
408 2239
408 3059
408 3277
408 3483
408 3550
408 3950
408 4281
408 4296
408 4336
408 4426
408 4515
408 4931
409 434
409 697
409 1161
409 1338
409 1389
409 1424
409 1680
409 1803
409 1988
409 1999
409 2087
409 2395
409 2408
409 2501
409 2523
409 2591
409 2743
409 3022
409 3370
409 3444
409 3513
409 3644
409 3662
409 3699
409 3813
409 4235
409 4442
409 4451
409 4614
409 4648
409 4652
409 4679
409 4805
409 4898
410 466
410 544
410 570
410 692
410 963
410 1598
410 1646
410 1757
410 1909
410 2279
410 2683
410 2706
410 3836
410 4097
410 4191
410 4242
410 4317
410 4484
410 4767
410 4929
411 598
411 1344
411 1378
411 1618
411 1739
411 1961
411 2380
411 2456
411 2536
411 2769
411 2784
411 2817
411 2830
411 2986
411 3748
411 3966
411 4013
411 4422
411 4957
412 413
412 563
412 740
412 1234
412 1592
412 1695
412 1791
412 1814
412 1913
412 2002
412 2041
412 2120
412 2190
412 2413
412 2566
412 2571
412 2862
412 3113
412 3440
412 3476
412 3676
412 3971
412 4098
412 4300
412 4429
412 4506
412 4689
412 4779
412 4804
412 4976
413 508
413 716
413 729
413 877
413 1220
413 1683
413 1711
413 2162
413 2272
413 2417
413 2487
413 2489
413 2495
413 2561
413 2592
413 2792
413 2979
413 3459
413 3974
413 4702
413 4768
413 4924
414 973
414 1312
414 1634
414 1647
414 1969
414 2099
414 2101
414 2177
414 2252
414 2287
414 2331
414 2388
414 2473
414 2508
414 2513
414 2540
414 2684
414 3083
414 3127
414 3598
414 4107
414 4256
414 4399
414 4780
415 837
415 1087
415 1152
415 1186
415 2094
415 2101
415 2134
415 2337
415 2473
415 2592
415 3162
415 4181
415 4253
415 4304
415 4486
415 4972
416 445
416 521
416 525
416 635
416 783
416 892
416 1666
416 1763
416 2010
416 2193
416 2583
416 2691
416 2708
416 2750
416 3431
416 4375
416 4452
416 4466
416 4666
416 4715
416 4881
417 489
417 664
417 852
417 853
417 987
417 1319
417 1537
417 1788
417 2498
417 2589
417 2864
417 3433
417 3537
417 3644
417 3654
417 4182
417 4306
417 4373
417 4586
417 4605
417 4728
418 832
418 1373
418 1709
418 1890
418 1918
418 2129
418 2164
418 2182
418 2935
418 3006
418 3007
418 3102
418 3456
418 3854
418 4219
418 4458
418 4653
418 4656
418 4765
418 4832
419 466
419 689
419 737
419 1046
419 1394
419 1556
419 1996
419 2166
419 2284
419 2309
419 2336
419 2439
419 2452
419 2477
419 2541
419 2683
419 3308
419 3321
419 3422
419 4261
419 4285
419 4561
419 4670
419 4698
419 4735
419 4756
419 4767
419 4855
419 4883
420 679
420 1112
420 1677
420 1800
420 1979
420 2172
420 2482
420 2956
420 3390
420 4198
420 4624
420 4827
420 4893
421 573
421 1120
421 1256
421 1445
421 1658
421 1844
421 1895
421 1947
421 2626
421 2645
421 2696
421 3390
421 3419
421 3634
421 4163
421 4453
421 4467
421 4891
422 453
422 455
422 545
422 629
422 649
422 713
422 751
422 858
422 868
422 1004
422 1060
422 1071
422 1192
422 1229
422 1261
422 1432
422 1451
422 1671
422 1894
422 1974
422 2008
422 2201
422 2411
422 2447
422 2491
422 2519
422 2580
422 2648
422 2655
422 2666
422 2722
422 2973
422 2994
422 3120
422 3144
422 3429
422 3434
422 3466
422 3470
422 3588
422 3601
422 3602
422 3711
422 3944
422 3985
422 3987
422 4141
422 4356
422 4450
422 4459
422 4501
422 4520
422 4548
422 4564
422 4604
422 4620
422 4754
422 4760
422 4836
422 4891
422 4955
422 4964
423 474
423 1249
423 1375
423 1551
423 1685
423 1953
423 2280
423 2325
423 2508
423 2594
423 2609
423 3186
423 3194
423 3340
423 3345
423 4103
423 4107
423 4232
423 4241
423 4370
423 4666
424 519
424 545
424 713
424 751
424 858
424 1261
424 1346
424 1390
424 1398
424 1414
424 1422
424 1426
424 1432
424 1446
424 1451
424 1931
424 1971
424 1974
424 2041
424 2097
424 2442
424 2580
424 2655
424 2722
424 2914
424 3144
424 3509
424 3585
424 3704
424 3727
424 3836
424 4141
424 4155
424 4310
424 4370
424 4459
424 4520
424 4548
424 4562
424 4654
424 4708
424 4766
424 4836
425 463
425 546
425 616
425 708
425 1401
425 1748
425 1960
425 2070
425 2124
425 2241
425 2395
425 2599
425 3137
425 3395
425 3602
425 4112
425 4202
425 4321
425 4765
425 4775
426 804
426 2381
426 2434
426 2567
426 3425
426 3970
426 4506
426 4629
426 4662
427 552
427 1042
427 1107
427 1388
427 1427
427 2397
427 2474
427 2592
427 2690
427 2859
427 3307
427 3748
427 3964
427 4711
428 454
428 456
428 527
428 659
428 747
428 780
428 798
428 915
428 1035
428 1077
428 1167
428 1227
428 1252
428 1536
428 1539
428 1711
428 1933
428 2048
428 2077
428 2260
428 2314
428 2369
428 2400
428 2410
428 2411
428 2444
428 2458
428 2460
428 2502
428 2535
428 2571
428 2727
428 2805
428 3011
428 3058
428 3083
428 3108
428 3394
428 3423
428 3688
428 3732
428 3772
428 3808
428 3819
428 3838
428 3870
428 3916
428 4329
428 4339
428 4357
428 4360
428 4438
428 4512
428 4555
428 4731
428 4765
428 4840
428 4858
428 4907
428 4928
428 4960
429 490
429 541
429 565
429 646
429 938
429 974
429 1030
429 1058
429 1072
429 1147
429 1361
429 1525
429 2379
429 2599
429 2762
429 2777
429 2856
429 2900
429 3036
429 3079
429 3315
429 3603
429 3947
429 4111
429 4114
429 4436
429 4531
429 4642
429 4677
430 787
430 1255
430 1731
430 1929
430 2061
430 2074
430 2203
430 2879
430 2988
430 3294
430 3575
430 3588
430 4624
430 4791
431 539
431 804
431 1081
431 1286
431 1420
431 1526
431 1814
431 2155
431 2892
431 2929
431 3186
431 3377
431 4244
431 4387
431 4632
432 481
432 801
432 883
432 982
432 1203
432 1516
432 1675
432 1685
432 1785
432 1795
432 1938
432 2000
432 2014
432 2035
432 2154
432 2174
432 2192
432 2207
432 2251
432 2724
432 2739
432 2742
432 2760
432 2774
432 2795
432 3209
432 3828
432 3938
432 3991
432 4048
432 4640
432 4769
432 4871
433 797
433 1258
433 1383
433 2190
433 2916
433 2925
433 3065
433 3113
433 3238
433 3251
433 3649
433 3735
433 3805
433 4426
433 4620
433 4664
433 4676
433 4679
433 4749
433 4751
434 587
434 1264
434 1294
434 1347
434 1401
434 1709
434 2514
434 2620
434 2882
434 3207
434 3226
434 3653
434 3845
434 3856
434 3884
434 4507
435 835
435 1479
435 2527
435 2561
435 3001
435 3608
435 3779
435 4097
435 4367
435 4418
435 4589
435 4593
435 4806
436 618
436 1149
436 1153
436 1758
436 2047
436 2064
436 2177
436 2409
436 2448
436 2625
436 3144
436 3386
436 3628
436 3700
436 3803
436 4594
436 4625
436 4678
436 4690
436 4844
437 552
437 558
437 574
437 621
437 674
437 798
437 881
437 1107
437 1116
437 1397
437 1520
437 1539
437 1636
437 1822
437 2098
437 2301
437 2429
437 2493
437 2664
437 2690
437 2709
437 2768
437 2796
437 2859
437 2962
437 2991
437 3228
437 3462
437 3540
437 3608
437 3787
437 3791
437 3939
437 3964
437 4004
437 4038
437 4102
437 4218
437 4246
437 4257
437 4294
437 4472
437 4571
437 4711
438 934
438 1157
438 1233
438 1259
438 1278
438 1434
438 1614
438 1664
438 2069
438 2937
438 3698
438 3778
438 4126
438 4367
439 632
439 1366
439 1373
439 1485
439 1487
439 1559
439 2191
439 3097
439 3881
439 4204
439 4610
439 4690
439 4937
440 489
440 496
440 601
440 629
440 988
440 1386
440 1403
440 1440
440 1538
440 1858
440 1940
440 2389
440 2413
440 2566
440 2864
440 2907
440 3065
440 3067
440 3280
440 4128
440 4257
441 1268
441 1298
441 2247
441 2913
441 3133
441 3277
441 3434
441 4281
441 4321
441 4343
441 4470
441 4594
442 546
442 551
442 1282
442 1859
442 2142
442 2241
442 2455
442 2651
442 3178
442 3557
442 4302
442 4672
442 4970
442 4997
443 606
443 997
443 1258
443 1401
443 1605
443 1664
443 2471
443 2709
443 2940
443 3476
443 3486
443 3721
443 3779
443 4086
443 4151
443 4444
443 4611
443 4818
443 4978
443 4996
444 618
444 897
444 962
444 1407
444 1431
444 1546
444 1751
444 1903
444 2355
444 2720
444 3467
444 3552
444 3845
444 3946
444 4171
444 4253
444 4342
444 4561
444 4934
445 518
445 582
445 889
445 1032
445 1179
445 1513
445 1642
445 1686
445 1734
445 1986
445 2002
445 2040
445 2609
445 2924
445 3074
445 3360
445 3671
445 3693
445 3898
445 3908
445 4046
445 4115
445 4124
445 4180
445 4349
445 4502
445 4606
445 4613
445 4845
445 4914
445 4945
445 4963
446 584
446 670
446 798
446 941
446 1601
446 1676
446 1724
446 1804
446 1935
446 2035
446 2088
446 2613
446 2742
446 2913
446 3210
446 3854
446 4365
446 4395
446 4826
447 554
447 736
447 750
447 1546
447 2231
447 2363
447 2503
447 2536
447 2647
447 2741
447 2817
447 2839
447 2929
447 3386
447 3481
447 3536
447 3662
447 3771
447 4164
447 4165
447 4177
447 4403
448 1068
448 1172
448 1617
448 1930
448 2250
448 2486
448 2507
448 2735
448 2959
448 2990
448 3220
448 3509
448 3860
448 4097
448 4830
448 4904
448 4952
449 603
449 694
449 853
449 896
449 1055
449 1305
449 1754
449 2250
449 2479
449 2559
449 2622
449 2707
449 3282
449 3522
449 3957
449 4105
449 4123
449 4230
449 4292
449 4530
449 4592
449 4759
449 4910
449 4950
450 490
450 541
450 771
450 909
450 1305
450 1688
450 1798
450 2324
450 2482
450 2576
450 2652
450 2654
450 3203
450 3892
450 3986
450 4087
450 4114
450 4381
450 4639
450 4651
450 4662
451 919
451 1610
451 1617
451 2306
451 2377
451 3153
451 4352
451 4857
451 4872
451 4905
451 4940
452 850
452 1185
452 1601
452 2141
452 2332
452 3095
452 3323
452 3952
452 4146
452 4675
452 4952
453 713
453 1090
453 1300
453 1739
453 2308
453 2632
453 2654
453 2748
453 3114
453 3172
453 4290
453 4513
454 659
454 780
454 1536
454 1557
454 1744
454 1829
454 2369
454 2382
454 2535
454 2835
454 3109
454 3356
454 3806
454 3841
454 4328
454 4928
455 545
455 713
455 997
455 1722
455 2447
455 2632
455 3120
455 3435
455 3559
455 4141
455 4604
456 612
456 724
456 753
456 1536
456 2077
456 3042
456 3415
456 3819
456 3916
456 4099
456 4339
456 4360
456 4438
456 4750
456 4928
457 511
457 749
457 798
457 1439
457 1467
457 2191
457 2351
457 2548
457 2585
457 2771
457 4155
457 4373
457 4754
458 472
458 651
458 1188
458 1253
458 1541
458 1545
458 1614
458 2122
458 2277
458 2540
458 3088
458 3533
458 3643
458 4402
458 4710
458 4761
459 601
459 1124
459 1542
459 1917
459 2638
459 2823
459 2956
459 3504
459 3519
459 3539
459 3712
459 4428
459 4900
459 4948
460 563
460 1262
460 1387
460 1646
460 1814
460 2340
460 3032
460 3176
460 3391
460 3943
460 4061
460 4082
460 4164
460 4306
460 4529
460 4538
460 4611
460 4679
460 4816
461 542
461 1375
461 1432
461 1825
461 2141
461 2332
461 2342
461 2758
461 2940
461 3936
461 4306
461 4600
462 708
462 778
462 794
462 917
462 1133
462 1159
462 1205
462 1230
462 1435
462 1740
462 1763
462 1941
462 2006
462 2179
462 2315
462 2362
462 2400
462 2898
462 3004
462 3006
462 3121
462 3148
462 3225
462 3251
462 3261
462 3358
462 3700
462 3747
462 3779
462 4035
462 4239
462 4259
462 4477
462 4519
462 4773
463 489
463 515
463 516
463 609
463 638
463 1044
463 1163
463 1250
463 1444
463 1505
463 1555
463 1587
463 1748
463 2377
463 2425
463 2482
463 2660
463 3333
463 3432
463 3585
463 3794
463 3832
463 3897
463 4176
463 4421
463 4634
464 885
464 1082
464 1094
464 1228
464 1534
464 1575
464 1838
464 1865
464 2096
464 2393
464 2437
464 2626
464 3052
464 3657
464 4622
465 531
465 560
465 671
465 850
465 866
465 1636
465 1725
465 1759
465 1793
465 2066
465 2103
465 2129
465 2133
465 2277
465 2335
465 2442
465 2514
465 2650
465 2682
465 3030
465 3549
465 3643
465 3804
465 3825
465 4103
465 4191
466 570
466 574
466 584
466 665
466 689
466 694
466 1201
466 1299
466 1366
466 1495
466 1556
466 1808
466 2021
466 2243
466 2284
466 2324
466 2336
466 2393
466 2452
466 2477
466 2683
466 2695
466 2825
466 2968
466 3271
466 3338
466 4024
466 4051
466 4242
466 4298
466 4305
466 4455
466 4590
466 4735
466 4756
466 4767
466 4822
466 4835
467 1344
467 1395
467 1521
467 1738
467 1860
467 2307
467 2361
467 2612
467 2767
467 3775
467 3871
467 3972
467 4268
467 4405
467 4414
467 4588
467 4907
468 631
468 719
468 1039
468 1550
468 1616
468 1853
468 2394
468 2474
468 2971
468 3333
468 3400
468 3868
468 4242
468 4280
468 4387
468 4484
468 4876
469 472
469 1230
469 1315
469 1728
469 2066
469 2254
469 2335
469 2432
469 2512
469 2540
469 2917
469 3002
469 3291
469 3417
469 3533
469 3754
469 3787
469 4110
469 4122
469 4191
469 4292
469 4936
470 479
470 604
470 979
470 1043
470 1303
470 1508
470 2049
470 2059
470 2277
470 2506
470 2906
470 3079
470 3180
470 3281
470 3374
470 3597
470 3643
470 4050
470 4088
470 4292
470 4336
471 567
471 601
471 1139
471 1350
471 2054
471 2860
471 3664
471 4267
471 4322
471 4570
471 4646
471 4727
471 4827
472 819
472 857
472 1044
472 1269
472 1526
472 1831
472 2080
472 2129
472 2214
472 2673
472 3002
472 3212
472 4122
472 4337
472 4555
472 4610
472 4619
472 4645
473 561
473 588
473 729
473 1814
473 1891
473 2005
473 2740
473 2899
473 3142
473 3179
473 3217
473 3382
473 3476
473 4137
473 4605
473 4610
473 4621
473 4622
473 4816
474 605
474 610
474 620
474 765
474 959
474 1054
474 1116
474 1175
474 1313
474 1318
474 1486
474 1633
474 1862
474 2078
474 2101
474 2252
474 2443
474 2508
474 2555
474 2593
474 2640
474 2928
474 3003
474 3010
474 3194
474 3501
474 3569
474 3655
474 3862
474 4181
474 4468
475 553
475 684
475 863
475 948
475 1013
475 1192
475 1237
475 1652
475 1711
475 1832
475 1917
475 1995
475 2179
475 2278
475 2368
475 2605
475 2652
475 3016
475 3040
475 3131
475 3139
475 3297
475 3345
475 3437
475 3500
475 3521
475 3720
475 3963
475 4069
475 4115
475 4161
475 4185
475 4217
475 4235
475 4539
475 4757
475 4913
476 671
476 843
476 1037
476 1890
476 2065
476 2098
476 2120
476 2165
476 2245
476 2290
476 2465
476 2508
476 2665
476 2814
476 3119
476 3205
476 3744
476 3876
476 3926
476 4045
476 4324
476 4732
476 4997
477 639
477 665
477 697
477 1098
477 1247
477 1286
477 1308
477 1387
477 1448
477 1640
477 1655
477 1774
477 1864
477 2039
477 2190
477 2206
477 2216
477 2344
477 2378
477 2406
477 2422
477 2441
477 2587
477 2638
477 2659
477 2710
477 2864
477 2884
477 2939
477 3032
477 3047
477 3087
477 3132
477 3133
477 3174
477 3216
477 3217
477 3265
477 3307
477 3410
477 3508
477 3590
477 3620
477 3720
477 3724
477 3956
477 4041
477 4056
477 4284
477 4300
477 4517
477 4529
477 4611
477 4621
477 4644
477 4674
477 4729
477 4783
477 4790
477 4818
477 4831
477 4841
478 515
478 518
478 1294
478 1343
478 2134
478 2241
478 2295
478 2455
478 2590
478 2620
478 2787
478 2882
478 2961
478 3402
478 3624
478 4027
478 4262
478 4302
478 4316
478 4490
478 4500
479 1270
479 1366
479 1467
479 1486
479 1487
479 2393
479 3021
479 4393
479 4610
479 4705
479 4937
480 605
480 1322
480 1334
480 1546
480 2222
480 2241
480 2706
480 2853
480 4242
480 4253
480 4262
480 4477
480 4479
480 4855
481 523
481 756
481 1361
481 1548
481 1585
481 1771
481 1827
481 2048
481 2203
481 2554
481 3348
481 3422
481 3533
481 3618
481 3735
481 4040
481 4473
481 4721
481 4828
482 630
482 980
482 1157
482 1276
482 1429
482 1723
482 1734
482 2057
482 2508
482 2582
482 2704
482 2817
482 3139
482 3239
482 3386
482 3695
482 3871
482 4060
482 4196
482 4334
482 4351
482 4677
482 4936
483 844
483 1376
483 1558
483 1570
483 1960
483 2643
483 2939
483 3108
483 3123
483 3217
483 3302
483 3382
483 3489
483 4248
483 4476
483 4529
483 4594
483 4924
483 4940
484 830
484 1350
484 1533
484 1967
484 2134
484 2575
484 2580
484 3124
484 3589
484 3771
484 4141
484 4754
485 972
485 1020
485 1583
485 1780
485 2023
485 2108
485 2120
485 2130
485 2914
485 2989
485 3135
485 3437
485 4069
485 4380
485 4796
485 4942
486 540
486 555
486 811
486 986
486 1031
486 1112
486 1685
486 2419
486 2424
486 2505
486 3194
486 4153
486 4181
486 4275
486 4601
486 4884
487 641
487 1166
487 1210
487 1444
487 2312
487 2440
487 3178
487 3207
487 3293
487 3335
487 3557
487 3638
487 3918
487 4291
487 4336
487 4348
487 4881
488 714
488 1554
488 1617
488 1946
488 2264
488 2649
488 2694
488 3139
488 3160
488 3208
488 3221
488 3272
488 3275
488 3955
488 4267
488 4490
488 4658
489 939
489 1278
489 1324
489 1347
489 1571
489 1587
489 1695
489 1730
489 1735
489 2008
489 2047
489 2215
489 2322
489 2471
489 2925
489 3450
489 3476
489 3596
489 3721
489 3949
489 4032
489 4192
489 4402
489 4443
489 4609
489 4672
489 4727
489 4757
489 4790
489 4816
490 565
490 596
490 820
490 921
490 1450
490 1525
490 1598
490 1760
490 2324
490 2365
490 2461
490 2547
490 2729
490 2762
490 2779
490 2792
490 2804
490 2856
490 2886
490 2900
490 2965
490 2973
490 3543
490 3545
490 4194
490 4280
490 4662
490 4744
490 4771
490 4801
490 4887
491 561
491 827
491 1907
491 2190
491 2393
491 2566
491 2590
491 2710
491 3222
491 3753
491 4589
491 4622
491 4763
492 819
492 850
492 1205
492 1552
492 2074
492 2277
492 2558
492 3449
492 3530
492 3643
492 4058
492 4098
492 4151
492 4169
492 4292
492 4598
492 4619
493 603
493 793
493 1458
493 1469
493 1917
493 2120
493 2368
493 2418
493 2480
493 2629
493 2651
493 2819
493 3270
493 3667
493 3688
493 4312
493 4481
493 4587
493 4600
494 515
494 649
494 1124
494 1221
494 1348
494 1577
494 2048
494 2649
494 3084
494 3147
494 3151
494 3713
494 3773
494 4189
494 4213
494 4271
495 579
495 611
495 687
495 1215
495 1362
495 1476
495 1544
495 1700
495 1741
495 1777
495 2062
495 2484
495 2647
495 2725
495 2787
495 2790
495 3025
495 3158
495 3226
495 3253
495 3305
495 3347
495 3475
495 3531
495 3613
495 3897
495 3942
495 4358
496 672
496 769
496 1011
496 1098
496 1142
496 1243
496 1424
496 1440
496 1558
496 1708
496 1996
496 2566
496 3148
496 3247
496 3304
496 3307
496 3524
496 3735
496 3873
496 4151
496 4381
496 4621
496 4694
496 4702
496 4766
496 4789
496 4997
497 596
497 646
497 784
497 1450
497 1798
497 2109
497 3630
497 3736
497 3920
497 4114
497 4194
497 4639
497 4733
497 4935
498 507
498 809
498 909
498 1286
498 1344
498 1811
498 2353
498 2373
498 2570
498 2669
498 2742
498 2923
498 2974
498 2986
498 3171
498 3309
498 3336
498 3816
498 3904
498 4419
499 682
499 947
499 1521
499 1769
499 1837
499 2164
499 2227
499 2416
499 2465
499 2753
499 3020
499 3306
499 3759
499 3919
499 3991
499 4304
499 4397
499 4405
499 4678
499 4802
500 641
500 675
500 787
500 788
500 968
500 1202
500 1410
500 1435
500 1563
500 1687
500 1958
500 2178
500 2435
500 2549
500 2558
500 2688
500 2784
500 2806
500 2968
500 3061
500 3426
500 4110
500 4284
500 4385
500 4463
500 4596
500 4897
501 581
501 582
501 877
501 1421
501 1924
501 2292
501 2445
501 2576
501 2835
501 2962
501 3572
501 4014
501 4253
501 4553
502 566
502 640
502 715
502 812
502 975
502 1008
502 1212
502 1221
502 1302
502 1341
502 1599
502 1671
502 1918
502 2092
502 2347
502 2442
502 3102
502 3148
502 3152
502 3248
502 3570
502 3818
502 3917
502 4012
502 4601
502 4653
503 1253
503 1312
503 2243
503 2512
503 2758
503 3108
503 3362
503 3679
503 4164
503 4251
503 4253
503 4558
503 4690
503 4916
503 4957
504 548
504 767
504 1047
504 1079
504 1227
504 1234
504 1679
504 1761
504 3075
504 3081
504 3578
504 3757
504 3779
504 3785
504 4455
504 4477
505 598
505 949
505 1030
505 1125
505 1417
505 1460
505 1590
505 1660
505 2216
505 2375
505 2444
505 2743
505 2759
505 2771
505 2814
505 2967
505 2973
505 3342
505 3469
505 3734
505 3953
505 4123
505 4275
505 4778
505 4856
505 4959
506 642
506 752
506 893
506 968
506 1506
506 1956
506 2129
506 2277
506 2296
506 2366
506 2492
506 2559
506 2602
506 2673
506 2733
506 2818
506 3079
506 3303
506 3600
506 3609
506 3643
506 4110
506 4130
506 4142
506 4432
506 4582
506 4591
506 4738
506 4862
507 856
507 880
507 932
507 1121
507 1195
507 1269
507 1718
507 1805
507 1882
507 1991
507 2021
507 2118
507 2284
507 2451
507 2738
507 2793
507 2970
507 3215
507 3223
507 3234
507 3258
507 3408
507 3548
507 3592
507 3633
507 3715
507 3755
507 3769
507 3861
507 4009
507 4013
507 4225
507 4269
507 4360
507 4508
507 4664
507 4963
507 4965
507 4994
508 529
508 568
508 652
508 897
508 912
508 1640
508 1792
508 1814
508 2422
508 2536
508 2925
508 3058
508 3174
508 3430
508 3596
508 3627
508 4237
508 4522
508 4694
508 4745
508 4926
508 4933
508 4983
508 4996
509 868
509 1161
509 1384
509 1442
509 1490
509 1788
509 1903
509 2119
509 2308
509 2511
509 2542
509 3594
509 3601
509 4371
509 4471
509 4501
509 4683
509 4686
509 4716
510 545
510 551
510 634
510 641
510 666
510 834
510 1063
510 1251
510 1374
510 1718
510 2343
510 2620
510 2660
510 2705
510 2857
510 3011
510 3728
510 4365
510 4500
510 4505
510 4507
510 4615
510 4873
511 598
511 1938
511 2034
511 2432
511 4135
511 4301
511 4843
511 4863
511 4869
511 4883
512 755
512 1339
512 2052
512 2190
512 2481
512 2843
512 2925
512 3035
512 3410
512 3735
512 3755
512 3901
512 4216
512 4679
512 4779
512 4785
512 4794
512 4851
513 772
513 880
513 929
513 1142
513 1460
513 1602
513 2169
513 2843
513 3213
513 3274
513 3287
513 3474
513 3758
513 4247
513 4530
513 4565
513 4788
513 4962
514 702
514 735
514 1052
514 1664
514 2131
514 2277
514 2380
514 2506
514 2514
514 2537
514 2560
514 2754
514 3161
514 3643
514 3757
514 3896
514 3947
514 4169
514 4191
514 4372
514 4598
514 4789
514 4909
514 4912
514 4936
515 638
515 646
515 663
515 759
515 945
515 1210
515 1264
515 1279
515 1364
515 1389
515 1433
515 1577
515 1584
515 1748
515 2167
515 2241
515 2286
515 2415
515 2660
515 2705
515 2757
515 2820
515 2997
515 2999
515 3299
515 3335
515 3557
515 3670
515 3749
515 3953
515 4057
515 4421
515 4657
515 4658
515 4711
515 4880
516 546
516 599
516 609
516 1220
516 1279
516 1577
516 2025
516 2165
516 2264
516 2425
516 3335
516 3691
516 3728
516 3876
516 4265
516 4302
516 4634
516 4859
516 4999
517 594
517 601
517 614
517 1055
517 1542
517 2151
517 2162
517 2164
517 2478
517 2621
517 2733
517 3017
517 3504
517 3761
517 4152
517 4358
517 4624
517 4646
517 4666
517 4733
518 574
518 607
518 622
518 970
518 1052
518 1102
518 1291
518 1348
518 1422
518 1506
518 1672
518 1724
518 2074
518 2080
518 2122
518 2194
518 2338
518 2514
518 2539
518 2540
518 2754
518 2763
518 2906
518 3002
518 3079
518 3343
518 3517
518 3519
518 3533
518 3785
518 4118
518 4151
518 4169
518 4191
518 4336
518 4598
518 4738
518 4865
518 4936
519 782
519 900
519 904
519 2013
519 2257
519 3628
519 4054
519 4459
519 4490
519 4501
519 4858
520 564
520 588
520 783
520 824
520 851
520 1092
520 1516
520 1723
520 1849
520 2313
520 2398
520 2460
520 2975
520 3620
520 3909
520 3942
520 3984
520 4135
520 4177
520 4398
520 4400
520 4456
520 4684
521 578
521 579
521 826
521 874
521 1003
521 1079
521 1093
521 1102
521 1159
521 1573
521 1602
521 1657
521 2333
521 2373
521 2461
521 2503
521 2897
521 2986
521 2989
521 3339
521 3679
521 3736
521 3771
521 3900
521 4351
521 4372
521 4453
521 4736
521 4763
521 4800
522 776
522 817
522 1099
522 1996
522 2060
522 2140
522 3131
522 3687
522 3766
522 3838
522 4033
522 4763
522 4938
523 641
523 1050
523 1238
523 1248
523 1257
523 1342
523 1796
523 1860
523 1929
523 2083
523 2123
523 2203
523 2328
523 2554
523 2746
523 3097
523 3145
523 3150
523 3348
523 3422
523 3553
523 3646
523 4024
523 4116
523 4268
523 4302
523 4357
523 4448
523 4466
523 4489
523 4567
523 4621
523 4667
523 4721
523 4828
524 1037
524 1178
524 1400
524 1460
524 1469
524 1843
524 1940
524 2164
524 2236
524 2480
524 3014
524 3604
525 635
525 640
525 657
525 727
525 841
525 892
525 953
525 1168
525 1529
525 1666
525 1910
525 2193
525 2682
525 2693
525 2708
525 2713
525 2719
525 2720
525 2772
525 2788
525 3031
525 3431
525 3596
525 3653
525 4208
525 4254
525 4375
525 4452
525 4598
525 4675
525 4715
525 4743
525 4865
525 4881
526 560
526 690
526 776
526 948
526 1114
526 1135
526 1550
526 1787
526 2060
526 2188
526 2298
526 2304
526 2441
526 2516
526 3447
526 3687
526 3761
526 3811
526 3838
526 4355
526 4383
526 4653
526 4728
527 1175
527 1380
527 2213
527 2280
527 2339
527 2409
527 2503
527 2567
527 2627
527 2826
527 2915
527 3194
527 3277
527 4111
527 4149
527 4517
527 4755
528 757
528 838
528 854
528 903
528 1057
528 1208
528 1399
528 1468
528 1498
528 1582
528 1654
528 2026
528 2434
528 2574
528 3206
528 3210
528 3345
528 3408
528 3531
528 3767
528 4902
529 1302
529 1553
529 2126
529 2313
529 2470
529 2809
529 3112
529 3239
529 3796
529 3922
529 4207
529 4212
529 4253
529 4428
529 4646
529 4879
529 4924
530 556
530 800
530 886
530 1050
530 1287
530 2166
530 2291
530 2293
530 2662
530 3029
530 3097
530 3457
530 3851
530 4271
530 4304
530 4379
530 4391
530 4439
530 4483
530 4580
530 4612
530 4649
530 4742
530 4846
531 1427
531 1528
531 2103
531 2109
531 2129
531 2194
531 2417
531 2514
531 3313
531 3343
531 3600
531 3873
531 4118
531 4153
531 4499
531 4598
531 4723
531 4797
531 4912
531 4921
532 594
532 1305
532 1576
532 1646
532 1681
532 2156
532 2463
532 2482
532 2564
532 2873
532 2956
532 3013
532 3314
532 3504
532 3665
532 3981
532 4218
532 4646
532 4648
532 4675
532 4706
532 4723
532 4838
532 4982
533 737
533 1366
533 1404
533 1609
533 1803
533 1814
533 1892
533 1897
533 1913
533 2038
533 2216
533 2939
533 3099
533 3382
533 3697
533 4300
533 4309
533 4444
533 4745
533 4747
533 4841
533 4872
534 641
534 728
534 1279
534 1320
534 1695
534 2201
534 2241
534 2490
534 3169
534 3918
534 4061
534 4238
534 4565
534 4877
534 4955
535 761
535 848
535 1024
535 1033
535 1186
535 1673
535 1924
535 1936
535 1942
535 2011
535 2087
535 2128
535 2297
535 2755
535 3263
535 3277
535 3367
535 3431
535 3591
535 3807
535 3863
535 3935
535 4016
535 4050
535 4095
535 4264
535 4459
535 4498
535 4558
535 4718
535 4857
535 4923
536 637
536 672
536 1029
536 1363
536 1810
536 1871
536 2595
536 3060
536 3785
536 3829
536 3855
536 4006
536 4020
536 4060
536 4081
536 4488
536 4501
537 601
537 614
537 812
537 1183
537 1338
537 1646
537 1936
537 1953
537 2054
537 2072
537 2237
537 2438
537 2478
537 2482
537 2564
537 2604
537 2666
537 2828
537 2838
537 2956
537 3037
537 4228
537 4368
537 4521
537 4534
537 4607
537 4822
537 4869
537 4887
537 4893
537 4970
538 599
538 737
538 993
538 1203
538 2190
538 2743
538 2931
538 3304
538 3467
538 3537
538 3581
538 3643
538 3814
538 3871
538 4216
538 4290
538 4884
538 4992
539 593
539 605
539 804
539 824
539 878
539 1029
539 1338
539 1443
539 1906
539 2102
539 2397
539 2584
539 2589
539 3478
539 3545
539 3688
539 3757
539 3777
539 4104
539 4154
539 4244
539 4309
539 4499
539 4632
539 4655
539 4658
539 4784
539 4974
540 954
540 973
540 986
540 1169
540 1421
540 1558
540 1635
540 1910
540 2184
540 3035
540 3980
540 4052
540 4173
540 4306
540 4334
540 4412
540 4569
540 4735
541 742
541 771
541 1760
541 2324
541 2378
541 2379
541 2599
541 2603
541 2727
541 2804
541 3947
541 4070
541 4340
541 4361
541 4430
541 4511
541 4531
541 4639
541 4805
542 579
542 644
542 799
542 1023
542 1112
542 1171
542 1369
542 1455
542 1486
542 1726
542 2136
542 2193
542 2334
542 2423
542 2551
542 2671
542 2678
542 2915
542 2919
542 2958
542 3068
542 3153
542 3224
542 3403
542 3406
542 3562
542 3795
542 3875
542 3877
542 3922
542 4113
542 4121
542 4171
542 4223
542 4258
542 4440
542 4599
542 4720
542 4736
542 4744
542 4897
542 4935
543 564
543 590
543 611
543 807
543 975
543 1080
543 1089
543 1431
543 1914
543 2415
543 2617
543 2635
543 2901
543 3118
543 3423
543 3575
543 4138
543 4433
543 4440
543 4582
543 4689
543 4693
543 4839
544 813
544 836
544 928
544 997
544 1050
544 1107
544 1175
544 2250
544 2399
544 2846
544 3314
544 3348
544 3573
544 3689
544 3702
544 4024
544 4116
544 4432
544 4460
544 4466
544 4667
544 4982
545 589
545 863
545 1031
545 1152
545 1383
545 2199
545 2268
545 2406
545 2511
545 3120
545 4066
545 4630
545 4864
546 974
546 1282
546 1310
546 1351
546 1374
546 1761
546 2126
546 2241
546 2330
546 2376
546 2410
546 2455
546 2583
546 3405
546 4693
546 4723
547 1231
547 1588
547 1817
547 2123
547 2594
547 3553
547 3569
547 3605
547 3685
547 4334
547 4417
547 4427
547 4468
547 4492
547 4607
547 4780
548 905
548 1279
548 1306
548 1809
548 1848
548 2080
548 2191
548 2218
548 2538
548 2610
548 2933
548 3233
548 3484
548 3560
548 3769
548 3996
548 4269
548 4501
548 4525
549 597
549 709
549 719
549 744
549 856
549 1037
549 1494
549 1550
549 2471
549 2515
549 2541
549 2900
549 3000
549 3264
549 4280
549 4387
549 4402
549 4606
550 596
550 742
550 936
550 1193
550 1366
550 1503
550 1798
550 1933
550 2107
550 2324
550 2518
550 2599
550 2603
550 2652
550 2779
550 3036
550 3166
550 3277
550 3543
550 3599
550 4114
550 4121
550 4273
550 4451
550 4531
550 4585
550 4690
550 4771
550 4929
551 631
551 994
551 1444
551 2159
551 2201
551 2455
551 2747
551 3381
551 3602
551 3638
552 621
552 674
552 687
552 721
552 881
552 1002
552 1107
552 1188
552 1250
552 1438
552 1525
552 1566
552 1636
552 1944
552 2186
552 2624
552 2664
552 2690
552 2859
552 3098
552 3401
552 3701
552 3964
552 3982
552 4102
552 4218
552 4286
552 4299
552 4571
552 4611
552 4711
552 4885
552 4938
553 604
553 624
553 639
553 684
553 1184
553 1229
553 1321
553 1553
553 1647
553 1768
553 2072
553 2104
553 2160
553 2425
553 2465
553 2519
553 2734
553 2854
553 2989
553 3061
553 3082
553 3131
553 3139
553 3249
553 3563
553 3659
553 3710
553 3769
553 3974
553 4245
553 4428
553 4540
553 4732
553 4862
553 4937
553 4946
554 736
554 933
554 1001
554 1040
554 2005
554 2101
554 2278
554 2353
554 2587
554 2673
554 3405
554 3943
554 4001
554 4290
554 4471
554 4652
554 4663
555 636
555 826
555 1252
555 1261
555 1318
555 1553
555 1625
555 1773
555 1994
555 2254
555 2508
555 2986
555 3044
555 3051
555 3494
555 3501
555 3569
555 3804
555 3898
555 4205
555 4223
555 4232
555 4325
555 4341
555 4468
555 4601
555 4635
555 4934
556 800
556 812
556 842
556 1120
556 1688
556 1823
556 1875
556 2291
556 2520
556 2662
556 2692
556 3612
556 3698
556 3851
556 3950
556 4185
556 4276
556 4439
556 4508
556 4574
556 4580
556 4612
556 4742
557 600
557 775
557 1235
557 2178
557 2741
557 2968
557 3742
557 4327
557 4463
557 4963
558 621
558 881
558 1520
558 1566
558 1636
558 1899
558 1990
558 2474
558 2664
558 2690
558 2768
558 2991
558 3303
558 3462
558 3540
558 3691
558 3728
558 3736
558 3816
558 3857
558 3964
558 4102
558 4246
558 4286
558 4350
558 4389
558 4741
558 4885
559 707
559 1188
559 1417
559 1528
559 1684
559 1707
559 2310
559 2679
559 2778
559 3108
559 3291
559 3295
559 3323
559 3527
559 3648
559 3659
559 3996
559 4143
559 4301
559 4363
559 4593
559 4780
560 724
560 1090
560 1513
560 1647
560 1829
560 2047
560 2171
560 2220
560 2296
560 2536
560 2592
560 2695
560 2817
560 2931
560 3030
560 4277
560 4467
560 4640
560 4971
561 606
561 959
561 1277
561 1371
561 2100
561 2561
561 2852
561 3174
561 3404
561 3427
561 3450
561 3535
561 3753
561 3926
561 4617
561 4727
561 4760
561 4789
562 868
562 1256
562 1262
562 1486
562 1671
562 1722
562 1763
562 1821
562 1999
562 2022
562 2113
562 2209
562 2264
562 2935
562 3140
562 3261
562 3284
562 3392
562 3598
562 3616
562 3646
562 3806
562 3895
562 3902
562 4020
562 4026
562 4072
562 4073
562 4183
562 4511
562 4811
563 1485
563 2047
563 2538
563 2771
563 2862
563 2864
563 2906
563 2931
563 3247
563 3410
563 3449
563 4120
563 4529
563 4816
563 4914
563 4921
563 4997
564 572
564 884
564 1415
564 1417
564 1458
564 1713
564 1872
564 1893
564 2077
564 2206
564 2392
564 2821
564 2879
564 3125
564 3229
564 3528
564 3895
564 4281
564 4447
564 4484
564 4751
565 596
565 656
565 803
565 938
565 1072
565 1478
565 1503
565 1568
565 1798
565 2177
565 2518
565 2658
565 2790
565 2842
565 2856
565 2900
565 2955
565 3199
565 3874
565 3947
565 4190
565 4576
565 4887
566 1269
566 1379
566 1582
566 2303
566 2374
566 2610
566 2639
566 2933
566 3090
566 3132
566 3367
566 3551
566 4013
566 4041
566 4250
566 4500
566 4686
567 601
567 800
567 1480
567 1763
567 2054
567 2197
567 2428
567 2604
567 2627
567 2706
567 3468
567 3549
567 3614
567 4485
567 4572
567 4624
567 4978
568 625
568 885
568 893
568 984
568 1894
568 2781
568 2879
568 3059
568 3176
568 3238
568 3242
568 3922
568 4031
568 4254
568 4386
568 4566
568 4609
569 702
569 835
569 870
569 904
569 2074
569 2469
569 2786
569 2883
569 2905
569 3034
569 3381
569 3576
569 4279
569 4803
569 4866
569 4906
569 4908
569 4945
570 769
570 841
570 897
570 942
570 1204
570 1334
570 1711
570 2012
570 2087
570 2254
570 2271
570 2683
570 2757
570 2966
570 3083
570 3271
570 3338
570 3385
570 3774
570 3779
570 3855
570 3903
570 3973
570 4242
570 4262
570 4455
570 4576
570 4590
570 4735
570 4756
571 989
571 1078
571 1317
571 1437
571 1708
571 1723
571 2128
571 2568
571 2593
571 2978
571 3261
571 3529
571 3716
571 3832
571 4447
571 4449
571 4457
571 4576
571 4967
572 832
572 939
572 1415
572 1604
572 1746
572 1872
572 1979
572 2058
572 2206
572 2230
572 2436
572 2564
572 2636
572 2711
572 3682
572 4297
572 4379
572 4496
572 4520
572 4552
572 4751
572 4760
572 4868
573 630
573 699
573 712
573 1064
573 1196
573 1224
573 1254
573 1256
573 1524
573 1552
573 1996
573 2186
573 2228
573 2231
573 2307
573 2448
573 2536
573 2769
573 2786
573 2817
573 2827
573 2854
573 3038
573 3312
573 3386
573 3586
573 3946
573 4028
573 4211
573 4408
573 4445
573 4485
573 4574
573 4597
573 4632
573 4934
574 803
574 850
574 1403
574 1478
574 1574
574 1740
574 1828
574 2049
574 2066
574 2074
574 2277
574 2335
574 2714
574 2754
574 3386
574 3643
574 3947
574 4118
575 593
575 796
575 1375
575 1630
575 2177
575 2481
575 2584
575 2620
575 3757
575 4134
575 4154
575 4260
575 4315
575 4658
575 4974
576 689
576 999
576 1122
576 1339
576 1620
576 1864
576 2008
576 2035
576 2326
576 2415
576 2716
576 2904
576 3339
576 3435
576 3720
576 3721
576 4492
576 4768
577 579
577 865
577 1118
577 1149
577 1603
577 1850
577 2536
577 2634
577 2940
577 3168
577 3200
577 3205
577 4235
577 4311
577 4412
577 4703
577 4995
578 743
578 981
578 1563
578 2228
578 2312
578 2551
578 2579
578 3282
578 3401
578 3566
578 3815
578 4164
578 4568
578 4696
579 1079
579 1253
579 1312
579 1543
579 1549
579 1808
579 2057
579 2128
579 2291
579 2305
579 2331
579 2423
579 2551
579 2586
579 2895
579 3058
579 3108
579 3207
579 3400
579 3904
579 3942
579 3964
579 4057
579 4318
579 4769
579 4828
580 644
580 897
580 1389
580 1652
580 1659
580 1660
580 1739
580 2073
580 2235
580 2285
580 2657
580 3047
580 3195
580 3946
580 4468
580 4577
580 4933
581 726
581 1060
581 1432
581 1490
581 2482
581 2575
581 4141
581 4591
582 720
582 914
582 947
582 1025
582 1589
582 1734
582 2043
582 2100
582 2576
582 3072
582 3465
582 3498
582 3967
582 4099
583 799
583 811
583 820
583 1235
583 1361
583 1384
583 1608
583 1843
583 1871
583 2142
583 2240
583 2272
583 2296
583 2725
583 2796
583 3164
583 3677
583 4384
583 4410
583 4643
583 4909
584 776
584 1485
584 1650
584 1699
584 1700
584 2047
584 2060
584 2127
584 2188
584 2516
584 2680
584 2703
584 2714
584 3729
584 3838
584 4224
584 4383
585 719
585 826
585 1039
585 1550
585 1553
585 1604
585 2415
585 2782
585 2940
585 3874
585 4130
585 4364
585 4460
585 4560
585 4669
586 787
586 1278
586 1859
586 2203
586 2356
586 2675
586 2726
586 2846
586 3083
586 3258
586 3314
586 3573
586 3972
586 4060
586 4540
586 4567
586 4677
586 4749
587 724
587 802
587 840
587 1452
587 1673
587 1736
587 2006
587 2047
587 2610
587 2969
587 3115
587 3386
587 3606
587 3774
587 3946
587 4193
587 4206
587 4231
587 4700
588 821
588 936
588 1301
588 1604
588 1629
588 1651
588 1887
588 1894
588 1919
588 2090
588 2345
588 2381
588 2411
588 2762
588 3277
588 3365
588 3569
588 3888
588 3984
588 4040
588 4135
588 4366
588 4398
588 4400
588 4456
588 4683
588 4684
589 617
589 906
589 960
589 1249
589 1533
589 1647
589 1812
589 2175
589 2287
589 2655
589 2787
589 3523
589 3601
589 4124
589 4235
589 4582
589 4622
589 4708
589 4750
590 611
590 891
590 1098
590 1906
590 2366
590 2617
590 2889
590 3245
590 3875
590 4008
590 4505
590 4693
591 803
591 891
591 931
591 1074
591 1254
591 1288
591 1301
591 1507
591 1785
591 2994
591 3037
591 3052
591 3336
591 3538
591 3617
591 3702
591 4298
591 4752
592 1187
592 1256
592 2525
592 2551
592 2570
592 3108
592 3320
592 3748
592 4164
592 4171
592 4253
592 4314
592 4522
592 4561
592 4641
593 653
593 839
593 968
593 1442
593 1506
593 2362
593 2397
593 2459
593 2892
593 3833
593 3908
593 4131
593 4250
593 4499
593 4632
593 4647
593 4658
593 4784
593 4905
594 695
594 1040
594 1183
594 1423
594 1611
594 1677
594 1681
594 1686
594 1953
594 1963
594 2054
594 2340
594 2478
594 2482
594 2516
594 2522
594 2545
594 2627
594 2738
594 2909
594 2956
594 3161
594 3504
594 3621
594 3661
594 3776
594 4222
594 4231
594 4368
594 4536
594 4624
594 4666
594 4691
594 4827
595 728
595 825
595 828
595 901
595 1143
595 1240
595 1260
595 1291
595 1300
595 1313
595 1951
595 1963
595 2002
595 2232
595 2609
595 2925
595 2941
595 2954
595 3139
595 3454
595 3671
595 3861
595 3928
595 3973
595 4201
595 4322
595 4584
595 4613
595 4995
596 646
596 742
596 957
596 1058
596 1425
596 1450
596 1476
596 1493
596 1503
596 1525
596 1815
596 2195
596 2200
596 2379
596 2472
596 2492
596 2504
596 2777
596 2779
596 3472
596 3531
596 3532
596 3645
596 3724
596 3812
596 4261
596 4347
596 4499
596 4531
596 4576
596 4642
596 4662
597 598
597 711
597 839
597 860
597 1150
597 1427
597 1832
597 2730
597 3528
597 4186
598 641
598 667
598 789
598 829
598 1189
598 1190
598 1432
598 1624
598 1947
598 2259
598 2349
598 2540
598 2564
598 2685
598 2787
598 2855
598 2941
598 3262
598 3374
598 3448
598 3506
598 3672
598 3933
598 4258
598 4685
598 4752
599 627
599 815
599 865
599 1118
599 1215
599 1383
599 1603
599 1607
599 1850
599 1885
599 2182
599 2516
599 2634
599 3118
599 3151
599 3344
599 3753
600 846
600 1013
600 1122
600 1471
600 1534
600 1703
600 1814
600 2446
600 2792
600 3165
600 3524
600 4584
600 4589
600 4594
600 4606
600 4750
600 4829
601 614
601 647
601 904
601 944
601 947
601 1131
601 1183
601 1374
601 1542
601 1966
601 1968
601 2156
601 2193
601 2431
601 2510
601 2572
601 2734
601 3070
601 3168
601 3212
601 3761
601 3793
601 3971
601 4063
601 4198
601 4228
601 4380
601 4408
601 4521
601 4534
601 4575
601 4838
601 4893
601 4978
602 1327
602 1443
602 2146
602 2397
602 2455
602 2482
602 2523
602 3009
602 3239
602 3257
602 4244
602 4437
602 4658
602 4906
602 4974
603 662
603 1177
603 1732
603 1798
603 2559
603 2608
603 2758
603 2815
603 3108
603 4106
603 4164
603 4470
603 4732
603 4950
604 651
604 1004
604 1052
604 1320
604 1354
604 1506
604 1821
604 2012
604 2066
604 2074
604 2136
604 2194
604 2335
604 2368
604 2506
604 2547
604 2592
604 2650
604 2704
604 2873
604 3002
604 3005
604 3161
604 3567
604 3587
604 3592
604 3600
604 3670
604 3723
604 4000
604 4292
605 1324
605 1761
605 2173
605 2207
605 2397
605 2892
605 3414
605 3595
605 4154
605 4244
605 4333
605 4632
605 4655
605 4784
606 733
606 864
606 1161
606 1387
606 1491
606 1619
606 1705
606 1722
606 2395
606 2533
606 2661
606 2710
606 2754
606 3241
606 3536
606 3983
606 4316
606 4621
606 4870
606 4976
607 652
607 919
607 1101
607 1376
607 1502
607 1561
607 2008
607 2317
607 2567
607 2582
607 2654
607 3014
607 3373
607 3425
607 4197
607 4422
607 4506
607 4718
607 4724
607 4753
607 4778
607 4918
607 4968
608 1023
608 1037
608 1711
608 1718
608 1863
608 1908
608 1917
608 2050
608 2072
608 2187
608 2245
608 2314
608 2894
608 2992
608 3131
608 4764
609 1205
609 1272
609 1379
609 2101
609 2509
609 2812
609 2825
609 3728
609 3884
609 4291
609 4302
609 4479
609 4578
609 4703
609 4772
610 726
610 1433
610 1625
610 1748
610 2066
610 2358
610 2443
610 2488
610 2594
610 2605
610 2970
610 3083
610 3152
610 3534
610 3702
610 4085
610 4103
610 4304
610 4306
610 4372
610 4383
610 4412
610 4424
611 612
611 639
611 641
611 664
611 807
611 860
611 899
611 1077
611 1089
611 1656
611 1706
611 1773
611 1862
611 1914
611 2095
611 2151
611 2357
611 2366
611 2415
611 2434
611 2528
611 2534
611 2617
611 2670
611 2826
611 2860
611 3118
611 3168
611 3617
611 3875
611 3978
611 4592
611 4693
611 4853
611 4929
611 4936
611 4956
612 664
612 760
612 1089
612 1194
612 1361
612 1443
612 1759
612 2415
612 3416
612 3875
612 3923
612 4138
612 4689
612 4748
613 632
613 716
613 1176
613 1386
613 2025
613 2139
613 2476
613 3218
613 3388
613 3591
613 4204
613 4623
613 4659
613 4705
613 4762
613 4937
613 4947
613 4975
614 911
614 1473
614 1559
614 1701
614 1824
614 2564
614 3129
614 3540
614 3703
614 3936
614 4231
614 4761
614 4808
614 4920
614 4978
615 763
615 972
615 1084
615 1260
615 1496
615 1796
615 1832
615 2265
615 2720
615 2937
615 3061
615 3409
615 3629
615 3726
615 3753
615 4022
615 4195
615 4207
616 770
616 1136
616 1367
616 1677
616 1891
616 1953
616 2162
616 2478
616 2579
616 2627
616 2699
616 2956
616 3134
616 3306
616 3381
616 3385
616 4297
616 4666
616 4738
617 718
617 866
617 1170
617 1425
617 1559
617 1611
617 1790
617 1964
617 1998
617 2019
617 2503
617 2595
617 2922
617 2946
617 3203
617 3276
617 3280
617 3364
617 3479
617 3540
617 3706
617 3826
617 3986
617 4666
617 4780
617 4902
617 4946
618 640
618 747
618 1001
618 1060
618 1299
618 1304
618 1672
618 1718
618 1851
618 1934
618 2371
618 2503
618 2839
618 2873
618 2920
618 3184
618 3224
618 3399
618 3566
618 3980
618 4075
618 4404
618 4408
618 4444
618 4471
618 4556
618 4748
619 732
619 1233
619 1309
619 1427
619 1685
619 1782
619 1811
619 1981
619 2138
619 2534
619 2706
619 2957
619 3093
619 3579
619 3789
619 3978
619 3992
619 4058
619 4061
619 4133
619 4589
619 4730
620 670
620 794
620 798
620 1280
620 1747
620 1792
620 1863
620 2023
620 2255
620 2595
620 2698
620 2726
620 2874
620 2982
620 3514
620 4120
620 4284
620 4343
620 4826
620 4867
621 674
621 721
621 1079
621 1136
621 1438
621 1566
621 1610
621 1636
621 2202
621 2664
621 2690
621 2957
621 2991
621 3379
621 3699
621 3809
621 4012
621 4366
621 4711
622 649
622 675
622 886
622 1114
622 1382
622 1933
622 2158
622 2176
622 2485
622 2649
622 3713
622 3722
622 3997
622 4893
622 4942
622 4965
623 843
623 1064
623 1152
623 1308
623 1674
623 1719
623 2263
623 2282
623 2709
623 2962
623 3073
623 3198
623 3204
623 3471
623 4041
623 4540
624 699
624 1027
624 1423
624 2284
624 2452
624 2706
624 3324
624 3404
624 3851
624 3954
624 4086
624 4756
624 4767
625 726
625 1025
625 1122
625 1224
625 1922
625 2047
625 2566
625 2950
625 3386
625 3596
625 4078
625 4529
625 4537
625 4648
625 4660
625 4745
625 4968
626 681
626 1127
626 1424
626 1713
626 1888
626 2536
626 2887
626 3373
626 3385
626 3802
626 3865
626 4378
626 4735
626 4782
626 4796
627 760
627 769
627 882
627 1149
627 1654
627 1766
627 1803
627 1953
627 2641
627 2850
627 3011
627 3192
627 3296
627 4088
627 4444
627 4533
627 4568
627 4605
627 4638
627 4784
628 803
628 1188
628 1299
628 1707
628 1776
628 2562
628 2569
628 3018
628 3047
628 3474
628 3516
628 3703
628 3813
628 4001
628 4059
628 4429
628 4733
629 725
629 1051
629 1220
629 1280
629 1610
629 1615
629 1669
629 2125
629 2131
629 2190
629 2276
629 2300
629 2422
629 2457
629 2842
629 2869
629 3113
629 3244
629 3453
629 3839
629 4092
629 4541
629 4628
629 4745
629 4784
629 4789
629 4888
629 4904
630 1256
630 1258
630 1348
630 1600
630 1854
630 1945
630 2407
630 2509
630 2515
630 2645
630 2841
630 3368
630 3774
630 3880
630 4118
630 4149
630 4165
630 4314
630 4549
630 4599
630 4602
630 4655
630 4711
630 4733
630 4849
631 712
631 1268
631 1326
631 2048
631 2872
631 2880
631 2957
631 2978
631 3170
631 3279
631 3359
631 3700
631 3968
631 4012
631 4361
631 4630
632 866
632 871
632 979
632 991
632 1091
632 1197
632 1293
632 1373
632 1402
632 1439
632 1485
632 1524
632 1540
632 1541
632 1717
632 2014
632 2139
632 2146
632 2372
632 2406
632 2459
632 2846
632 2853
632 3070
632 3270
632 3474
632 3507
632 3540
632 3544
632 3654
632 3782
632 4000
632 4212
632 4312
632 4393
632 4431
632 4610
632 4705
633 640
633 892
633 1168
633 1211
633 1302
633 1372
633 2116
633 2193
633 2221
633 2377
633 2407
633 2516
633 2583
633 2667
633 2708
633 2713
633 2772
633 2953
633 3326
633 3350
633 3431
633 3550
633 3718
633 3825
633 4208
633 4279
633 4743
633 4881
634 642
634 735
634 769
634 857
634 1043
634 1130
634 1608
634 1680
634 2059
634 2194
634 2540
634 2840
634 2917
634 3161
634 3447
634 3533
634 3992
634 4110
634 4118
634 4377
634 4831
634 4842
635 892
635 909
635 997
635 1168
635 1256
635 1499
635 2221
635 2693
635 2708
635 2720
635 2953
635 3237
635 4211
635 4375
635 4452
635 4571
635 4743
635 4881
635 4972
636 1570
636 2247
636 2601
636 2730
636 2746
636 2766
636 2832
636 3277
636 3644
636 4076
636 4241
636 4291
636 4296
636 4479
636 4525
636 4681
636 4843
636 4889
637 875
637 1288
637 2445
637 2618
637 2649
637 3147
637 3291
637 3353
637 3694
637 3715
637 3923
638 1031
638 1264
638 1279
638 1294
638 2425
638 2490
638 2613
638 2616
638 3164
638 3366
638 3638
638 3662
638 4469
638 4615
638 4822
638 4867
639 807
639 1089
639 2348
639 2617
639 3118
639 3306
639 3923
639 4693
639 4929
639 4956
640 1024
640 1168
640 1348
640 1480
640 1838
640 2071
640 2221
640 2685
640 2708
640 2804
640 3277
640 3646
640 4340
640 4375
640 4830
640 4881
641 768
641 891
641 963
641 1294
641 1322
641 1435
641 1760
641 1852
641 1912
641 2149
641 2241
641 2310
641 2324
641 2337
641 2372
641 2455
641 2466
641 2607
641 2663
641 2705
641 2770
641 2833
641 3005
641 3161
641 3293
641 3299
641 3335
641 3533
641 3653
641 3914
641 3924
641 3962
641 4019
641 4161
641 4200
641 4202
641 4210
641 4291
641 4302
641 4316
641 4500
641 4502
641 4505
641 4581
641 4615
641 4634
641 4723
641 4796
642 762
642 819
642 970
642 1044
642 1354
642 1506
642 1674
642 1807
642 2194
642 2277
642 2539
642 2647
642 2679
642 2689
642 2829
642 2904
642 3353
642 3453
642 3457
642 3533
642 3643
642 3786
642 4118
642 4191
642 4292
642 4591
642 4814
642 4890
643 689
643 731
643 1027
643 1306
643 1466
643 1532
643 1708
643 1791
643 1979
643 2452
643 2715
643 3128
643 3566
643 3588
643 3596
643 3791
643 4639
643 4698
643 4706
643 4804
643 4946
644 695
644 719
644 1023
644 1382
644 1794
644 1854
644 2130
644 2171
644 2551
644 2579
644 3328
644 3485
644 3908
644 3919
644 4938
645 772
645 835
645 2329
645 2593
645 2670
645 2694
645 2902
645 3044
645 3105
645 3388
645 3411
645 3710
645 3744
645 4100
645 4216
645 4226
645 4391
645 4495
645 4569
645 4997
646 1259
646 1336
646 1503
646 1940
646 1979
646 2364
646 2379
646 2723
646 2762
646 4273
646 4575
646 4642
646 4662
646 4671
647 851
647 914
647 946
647 1542
647 2191
647 2823
647 2955
647 4198
647 4267
648 1159
648 1281
648 1967
648 2601
648 2715
648 2916
648 3091
648 3485
648 3861
648 3943
648 4127
648 4471
649 864
649 1114
649 1161
649 1414
649 2124
649 2458
649 2548
649 2649
649 2744
649 3147
649 3414
649 3694
649 3713
649 4317
649 4809
649 4926
650 656
650 750
650 843
650 893
650 1651
650 1685
650 1874
650 2033
650 2174
650 2350
650 2687
650 2695
650 2703
650 2760
650 2797
650 2810
650 2962
650 3209
650 3758
650 3904
650 3920
650 3960
650 4142
650 4191
650 4195
650 4943
651 669
651 690
651 857
651 928
651 1102
651 1262
651 1478
651 1552
651 1608
651 2012
651 2049
651 2244
651 2277
651 2311
651 2377
651 2514
651 2592
651 2602
651 2733
651 2772
651 3063
651 3300
651 3442
651 3452
651 4169
651 4336
651 4348
651 4484
651 4543
651 4545
651 4558
651 4619
651 4650
651 4710
651 4738
652 659
652 907
652 919
652 1034
652 1260
652 1376
652 1434
652 1480
652 1502
652 1569
652 1715
652 2131
652 2200
652 2286
652 2317
652 2381
652 2434
652 2546
652 2654
652 2655
652 2695
652 2696
652 2898
652 2967
652 2983
652 3002
652 3425
652 3426
652 3830
652 3917
652 4015
652 4027
652 4117
652 4120
652 4174
652 4197
652 4262
652 4278
652 4312
652 4506
652 4548
652 4629
652 4718
652 4724
652 4730
652 4753
652 4853
652 4968
653 1109
653 1215
653 1327
653 2397
653 3065
653 3281
653 3569
653 3775
653 3776
653 4658
653 4784
653 4919
654 1238
654 1492
654 1663
654 1870
654 1982
654 2124
654 2637
654 2726
654 2773
654 2886
654 2911
654 3315
654 3400
654 3995
654 4179
654 4188
654 4335
654 4341
654 4352
654 4355
654 4434
654 4732
654 4747
654 4896
655 798
655 1463
655 1465
655 1685
655 1812
655 1863
655 2035
655 2226
655 2800
655 2864
655 3133
655 3198
655 3225
655 4130
655 4142
655 4328
655 4410
655 4477
655 4671
655 4737
655 4999
656 661
656 679
656 757
656 772
656 955
656 967
656 1007
656 1205
656 1243
656 1457
656 1651
656 1674
656 2181
656 2207
656 2255
656 2364
656 2387
656 2403
656 2760
656 2764
656 2799
656 2866
656 2879
656 3007
656 3209
656 3254
656 3405
656 3517
656 3866
656 3882
656 3904
656 3958
656 3961
656 4142
656 4410
656 4621
656 4943
657 1168
657 1874
657 1992
657 2071
657 2221
657 2415
657 2665
657 2708
657 2720
657 2900
657 3326
657 3431
657 3909
657 4208
657 4340
657 4509
657 4739
658 1022
658 1375
658 1456
658 1556
658 1929
658 2207
658 2221
658 2284
658 3168
658 4186
658 4242
658 4263
658 4479
658 4841
659 746
659 747
659 780
659 915
659 1280
659 1447
659 1462
659 1509
659 1536
659 1539
659 2039
659 2115
659 2253
659 2314
659 2410
659 2502
659 2535
659 2727
659 2843
659 3084
659 3439
659 3540
659 3589
659 3675
659 3916
659 3927
659 4360
659 4402
659 4438
659 4512
659 4751
659 4858
659 4907
659 4960
660 753
660 821
660 1958
660 2090
660 2313
660 2686
660 3027
660 3074
660 3819
660 3983
660 3984
660 4052
660 4366
660 4372
660 4398
660 4400
660 4684
660 4764
661 670
661 796
661 893
661 941
661 955
661 967
661 1007
661 1021
661 1122
661 1195
661 1463
661 1675
661 1724
661 1787
661 1827
661 1828
661 1842
661 1876
661 1954
661 2035
661 2040
661 2074
661 2088
661 2158
661 2174
661 2189
661 2193
661 2207
661 2608
661 2697
661 2774
661 2801
661 2962
661 2975
661 2976
661 3028
661 3047
661 3263
661 3270
661 3328
661 3392
661 3403
661 3431
661 3541
661 3633
661 3799
661 3808
661 3859
661 3961
661 3980
661 4092
661 4120
661 4142
661 4168
661 4335
661 4400
661 4410
661 4690
661 4815
661 4943
662 965
662 1188
662 1594
662 1783
662 2479
662 2849
662 3282
662 4090
662 4105
662 4203
662 4510
662 4616
662 4726
662 4950
663 974
663 1163
663 1503
663 1632
663 2070
663 2167
663 2274
663 3002
663 3207
663 4126
663 4502
664 860
664 1089
664 1596
664 1611
664 2283
664 2415
664 2462
664 2617
664 2635
664 2860
664 3423
664 3923
664 4138
664 4693
664 4956
665 1334
665 2047
665 2215
665 2811
665 3113
665 3174
665 3317
665 3467
665 3669
665 4097
665 4099
665 4116
665 4448
665 4597
665 4808
666 782
666 783
666 821
666 860
666 2238
666 2475
666 2933
666 3368
666 3683
666 3983
666 4103
666 4353
666 4398
666 4400
666 4838
667 696
667 784
667 789
667 943
667 1051
667 1108
667 1190
667 1617
667 1650
667 1922
667 2227
667 2257
667 2450
667 2531
667 2640
667 2653
667 2685
667 2692
667 2882
667 3122
667 3227
667 3330
667 3331
667 3417
667 3456
667 3760
667 3885
667 4195
667 4214
667 4528
667 4692
667 4896
668 1660
668 1694
668 1702
668 1769
668 2338
668 2489
668 3006
668 3011
668 3306
668 3672
668 3720
668 3727
668 3775
668 3797
668 3823
668 4268
668 4381
668 4991
669 1306
669 1608
669 1661
669 2059
669 2074
669 2506
669 2546
669 2733
669 3121
669 3497
669 3533
669 3842
669 4000
669 4543
670 679
670 741
670 798
670 828
670 843
670 948
670 1018
670 1059
670 1674
670 1804
670 1819
670 2022
670 2263
670 2552
670 2780
670 2815
670 2912
670 2952
670 3371
670 3825
670 4142
670 4194
670 4328
670 4746
670 4883
670 4954
671 980
671 1256
671 1444
671 1585
671 1600
671 1945
671 1948
671 1958
671 2069
671 2705
671 2916
671 2929
671 3544
671 4342
671 4409
671 4436
671 4561
671 4663
671 4970
672 1175
672 1858
672 1973
672 2215
672 2252
672 2409
672 2594
672 2633
672 2644
672 3136
672 3364
672 3569
672 4077
672 4173
672 4306
672 4325
672 4828
673 716
673 798
673 1085
673 1377
673 1514
673 1655
673 1783
673 2291
673 2449
673 2524
673 2728
673 2742
673 3644
673 3944
673 4084
673 4284
673 4301
673 4592
673 4594
673 4621
673 4759
673 4950
674 698
674 753
674 773
674 881
674 1107
674 1568
674 2589
674 2690
674 2859
674 3366
674 3825
674 4082
674 4246
674 4286
674 4470
674 4516
674 4711
674 4724
674 4764
675 735
675 744
675 1447
675 1751
675 2108
675 2391
675 2695
675 2696
675 2739
675 3173
675 3512
675 3705
676 1352
676 1469
676 1517
676 1553
676 1999
676 2245
676 2250
676 2262
676 2265
676 2875
676 2989
676 3054
676 3061
676 3131
676 4326
676 4808
677 722
677 1728
677 2127
677 2152
677 2198
677 2259
677 2640
677 3103
677 4136
677 4237
677 4258
677 4545
677 4605
677 4698
677 4989
678 1045
678 1059
678 1685
678 1691
678 1867
678 1927
678 1957
678 2126
678 2163
678 2232
678 2551
678 2617
678 2985
678 3026
678 3034
678 3127
678 3487
678 3882
678 4276
678 4326
679 681
679 894
679 1335
679 1463
679 1674
679 2016
679 2035
679 2055
679 2154
679 2207
679 2249
679 2263
679 2318
679 2349
679 2724
679 2742
679 2764
679 2783
679 2864
679 2879
679 3179
679 3668
679 3810
679 3853
679 3920
679 3994
679 4115
679 4168
679 4178
679 4224
679 4562
679 4734
679 4897
680 779
680 837
680 939
680 1054
680 1175
680 1186
680 1550
680 1611
680 1755
680 1836
680 1937
680 2094
680 2101
680 2322
680 2337
680 2409
680 3194
680 3565
680 3569
680 4073
680 4103
680 4468
680 4613
680 4695
680 4835
681 804
681 814
681 850
681 1008
681 1064
681 1188
681 1209
681 1691
681 1896
681 1925
681 2035
681 2207
681 2771
681 2783
681 2830
681 3026
681 3198
681 3249
681 3549
681 3725
681 3998
681 4233
681 4308
681 4359
681 4871
681 4960
682 714
682 993
682 1619
682 1702
682 1741
682 2361
682 2363
682 2416
682 2430
682 2730
682 2749
682 2798
682 2883
682 3240
682 3321
682 3388
682 3633
682 3775
682 4174
682 4404
682 4673
682 4837
682 4921
683 743
683 799
683 811
683 843
683 1080
683 1082
683 1353
683 1384
683 2669
683 2989
683 4250
683 4500
683 4643
683 4799
684 1007
684 1172
684 1266
684 1369
684 1392
684 1469
684 1553
684 1825
684 2050
684 2245
684 2520
684 2810
684 3061
684 3743
684 4388
684 4929
685 1400
685 1420
685 1746
685 2486
685 2578
685 3048
685 3294
685 4167
685 4221
685 4226
685 4314
685 4378
685 4380
685 4465
685 4677
686 867
686 873
686 877
686 982
686 1104
686 1177
686 1647
686 1785
686 1854
686 2083
686 2202
686 2457
686 2747
686 2756
686 2850
686 2893
686 3084
686 3448
686 3587
686 3657
686 3897
686 4015
686 4102
686 4664
686 4705
686 4757
687 905
687 1469
687 1674
687 1690
687 1773
687 1792
687 1884
687 1939
687 2090
687 2501
687 2737
687 2989
687 3156
687 3376
687 3395
687 3767
687 3942
688 699
688 964
688 1096
688 1622
688 1858
688 1907
688 1951
688 2069
688 2073
688 2285
688 2392
688 3056
688 3092
688 3128
688 3161
688 3606
688 4671
689 1027
689 1102
689 1375
689 1395
689 1765
689 2284
689 2452
689 2662
689 3457
689 3644
689 3855
689 4305
689 4670
689 4756
689 4783
689 4983
690 776
690 924
690 1099
690 1812
690 2060
690 2188
690 2680
690 2698
690 2960
690 2997
690 3258
690 3447
690 3639
690 3897
690 3972
690 4620
691 701
691 838
691 983
691 1156
691 1635
691 1636
691 1816
691 1861
691 1867
691 1939
691 2400
691 2937
691 3105
691 3110
691 3123
691 3738
691 3822
691 3887
691 3939
691 4301
691 4546
691 4661
691 4771
691 4821
691 4856
691 4880
691 4900
691 4907
691 4986
692 704
692 1902
692 1998
692 2133
692 2471
692 2582
692 2846
692 3064
692 3464
692 3520
692 3844
692 3930
692 4134
692 4433
692 4762
692 4767
692 4848
692 4855
693 1455
693 1462
693 1870
693 1889
693 2048
693 2387
693 3152
693 3191
693 3490
693 3558
693 3753
693 3828
693 3968
693 3969
693 4006
693 4236
693 4459
693 4516
693 4543
694 731
694 825
694 1201
694 1466
694 1705
694 1819
694 2284
694 2336
694 2590
694 2706
694 3338
694 3844
694 4670
695 707
695 1417
695 1506
695 1572
695 1589
695 1688
695 1701
695 1774
695 2062
695 2310
695 2562
695 2967
695 3280
695 3294
695 3859
695 3956
695 4301
695 4369
695 4373
695 4949
696 961
696 1160
696 1237
696 1624
696 1889
696 2162
696 2198
696 2204
696 2253
696 2257
696 2348
696 3546
696 3585
696 3821
697 711
697 732
697 863
697 898
697 956
697 959
697 1198
697 1226
697 1412
697 1513
697 1746
697 2048
697 2051
697 2183
697 2239
697 2247
697 2254
697 2256
697 2276
697 2303
697 2914
697 2980
697 3018
697 3098
697 3124
697 3227
697 3277
697 3619
697 4230
697 4251
697 4296
697 4392
697 4474
697 4515
697 4544
697 4668
697 4873
697 4931
697 4944
698 1429
698 1659
698 2494
698 2585
698 2657
698 2847
698 3483
698 3763
698 4342
698 4426
698 4602
698 4631
698 4775
699 1256
699 1933
699 2267
699 2535
699 2567
699 2592
699 3052
699 3094
699 4127
699 4210
699 4535
699 4896
700 1294
700 1401
700 1461
700 1736
700 2009
700 2084
700 3265
700 3792
700 4200
700 4238
700 4321
700 4369
700 4500
700 4985
701 718
701 1099
701 1135
701 1403
701 1597
701 1623
701 1725
701 1845
701 1931
701 2045
701 2138
701 2223
701 2434
701 2704
701 3087
701 3103
701 3124
701 3378
701 3442
701 3615
701 3706
701 4621
701 4625
701 4891
701 4902
702 877
702 904
702 1231
702 1488
702 2223
702 2469
702 2883
702 3154
702 3394
702 3422
702 3688
702 4181
702 4279
702 4666
702 4906
702 4908
702 4980
703 983
703 1375
703 1753
703 1793
703 1927
703 2136
703 2225
703 2785
703 2937
703 2949
703 2953
703 3054
703 3103
703 3139
703 3143
703 3335
703 3384
703 3858
703 4001
703 4033
703 4084
703 4641
704 781
704 795
704 968
704 1026
704 1074
704 1285
704 1332
704 1453
704 1520
704 1660
704 1877
704 2010
704 2087
704 2111
704 2198
704 2245
704 2271
704 2294
704 2651
704 2868
704 2963
704 3047
704 3141
704 3194
704 3360
704 3369
704 3377
704 3625
704 3746
704 4285
704 4471
704 4684
704 4832
705 891
705 968
705 1211
705 1285
705 1706
705 1895
705 2181
705 2279
705 2468
705 2519
705 2743
705 2791
705 2799
705 3239
705 3480
705 4069
705 4675
705 4755
705 4914
705 4940
706 709
706 719
706 864
706 1063
706 1218
706 2344
706 2394
706 2428
706 2844
706 3042
706 3264
706 3794
706 3874
706 4532
706 4560
706 4906
707 926
707 946
707 1143
707 1146
707 1224
707 1236
707 1410
707 1589
707 1736
707 3037
707 3065
707 3347
707 3405
707 3420
707 3474
707 3497
707 3705
707 3745
707 3782
707 3814
707 3824
707 3905
707 4270
708 1925
708 2162
708 2213
708 2662
708 2857
708 3212
708 3477
708 3504
708 4198
708 4625
708 4765
708 4893
709 719
709 824
709 834
709 1000
709 1039
709 1130
709 1293
709 1329
709 1359
709 1472
709 1550
709 1580
709 1591
709 1650
709 1758
709 1814
709 1853
709 1855
709 2018
709 2149
709 2252
709 2273
709 2394
709 2401
709 2782
709 2870
709 3264
709 3381
709 3696
709 3878
709 3985
709 4194
709 4280
709 4402
709 4560
709 4606
710 875
710 1057
710 1126
710 1156
710 1181
710 1255
710 1844
710 2785
710 2993
710 3107
710 3234
710 3276
710 3364
710 3582
710 3593
710 3594
710 3603
710 3615
710 3676
710 3707
710 3887
710 3915
710 4410
710 4860
710 4904
710 4986
710 4998
711 838
711 1216
711 1226
711 1324
711 1353
711 1419
711 1746
711 2203
711 2294
711 2338
711 2451
711 2557
711 2601
711 2980
711 3055
711 3097
711 3215
711 3277
711 3619
711 3763
711 3949
711 4086
711 4281
711 4295
711 4515
711 4681
712 723
712 748
712 761
712 779
712 875
712 922
712 935
712 1745
712 1771
712 1980
712 2311
712 2367
712 2420
712 2794
712 2807
712 2814
712 2827
712 3019
712 3050
712 3062
712 3303
712 3367
712 3793
712 3888
712 3993
712 4097
712 4389
712 4421
712 4450
712 4489
712 4857
712 4886
712 4984
713 751
713 779
713 858
713 868
713 1071
713 1280
713 1857
713 2208
713 2444
713 2990
713 3516
713 3522
713 3765
713 3885
713 4141
713 4275
713 4654
713 4741
713 4898
714 1550
714 2009
714 2399
714 2416
714 2721
714 2798
714 3079
714 3393
714 4176
714 4627
714 4823
715 840
715 877
715 1232
715 1428
715 1537
715 1752
715 1802
715 1817
715 1895
715 2195
715 2227
715 2748
715 2880
715 2954
715 3012
715 3212
715 3640
715 3647
715 3664
715 3724
715 4083
715 4527
715 4563
715 4922
716 1696
716 2051
716 2103
716 2239
716 2247
716 2254
716 2723
716 3547
716 3763
716 4241
716 4306
716 4392
716 4554
716 4681
716 4699
717 729
717 875
717 903
717 999
717 1024
717 2376
717 3237
717 3448
717 3490
717 3869
717 3970
717 4050
717 4134
717 4287
717 4408
717 4553
717 4832
718 901
718 932
718 1255
718 1392
718 1498
718 1621
718 1663
718 1840
718 2215
718 2282
718 2365
718 2941
718 3340
718 3442
718 3594
718 3717
718 3826
718 3983
718 4272
718 4889
718 4904
718 4935
719 744
719 765
719 790
719 804
719 817
719 856
719 908
719 997
719 1063
719 1137
719 1270
719 1293
719 1359
719 1434
719 1494
719 1512
719 1562
719 1580
719 1723
719 1792
719 1853
719 1855
719 1886
719 2018
719 2149
719 2191
719 2302
719 2344
719 2394
719 2428
719 2515
719 2782
719 2801
719 2836
719 2844
719 2870
719 2908
719 2955
719 2964
719 3000
719 3068
719 3151
719 3169
719 3264
719 3368
719 3451
719 3532
719 3642
719 3772
719 3874
719 3947
719 4280
719 4307
719 4338
719 4387
719 4402
719 4442
719 4460
719 4508
719 4532
719 4560
719 4587
719 4606
719 4731
719 4750
719 4782
720 756
720 967
720 1226
720 1269
720 2254
720 2303
720 2848
720 2969
720 3992
720 4030
720 4112
720 4270
720 4281
720 4296
720 4552
720 4904
721 881
721 1028
721 1112
721 1415
721 1869
721 2437
721 2474
721 2619
721 2664
721 2690
721 2859
721 3658
721 4173
721 4582
721 4892
721 4935
722 1076
722 1630
722 1792
722 2584
722 2910
722 3120
722 3392
722 3767
722 4135
722 4355
722 4359
722 4509
722 4594
722 4772
722 4786
723 739
723 764
723 983
723 1151
723 1255
723 1417
723 1645
723 1682
723 1900
723 1986
723 2232
723 2499
723 2513
723 2610
723 2995
723 3095
723 3325
723 3330
723 3332
723 3378
723 3408
723 3707
723 3887
723 4139
723 4254
723 4500
723 4798
724 826
724 891
724 1039
724 1096
724 2057
724 2261
724 2582
724 2646
724 2649
724 2908
724 3131
724 3224
724 3589
724 3912
724 3918
724 4025
724 4147
724 4252
724 4277
724 4761
725 764
725 912
725 1203
725 2387
725 2450
725 2740
725 2747
725 2862
725 3382
725 3567
725 4147
725 4789
725 4797
726 849
726 1030
726 1285
726 1407
726 1428
726 1518
726 1741
726 2375
726 2462
726 2570
726 2626
726 2747
726 2753
726 2793
726 2868
726 2997
726 3114
726 3176
726 3516
726 3626
726 3945
726 3980
726 4805
726 4952
726 4977
727 1110
727 1124
727 1290
727 1292
727 1309
727 1349
727 2087
727 2167
727 2181
727 2373
727 2409
727 2472
727 2622
727 2660
727 2704
727 2818
727 2893
727 2914
727 3050
727 3441
727 3480
727 3577
727 3814
727 4344
727 4517
727 4546
727 4675
727 4781
727 4792
727 4857
727 4952
728 780
728 842
728 894
728 953
728 990
728 1260
728 1274
728 1291
728 1377
728 2096
728 2100
728 2161
728 2229
728 2576
728 2665
728 2782
728 2881
728 2922
728 2944
728 2954
728 2955
728 3218
728 3232
728 3389
728 3431
728 3553
728 3689
728 3695
728 3696
728 3898
728 3973
728 3988
728 4027
728 4076
728 4095
728 4401
728 4436
728 4446
728 4513
728 4613
728 4666
728 4837
728 4845
728 4951
729 985
729 1313
729 1559
729 1572
729 1592
729 1640
729 1786
729 1996
729 2025
729 2441
729 2443
729 2464
729 3274
729 3301
729 3489
729 3596
729 3798
729 3803
729 4529
729 4608
729 4679
729 4983
730 742
730 771
730 1331
730 1373
730 1467
730 1886
730 2198
730 2547
730 2603
730 2886
730 2900
730 3532
730 3740
730 4060
730 4247
730 4273
730 4576
730 4642
730 4687
730 4688
730 4755
731 942
731 1046
731 1201
731 1593
731 1895
731 1994
731 2058
731 2440
731 2517
731 2627
731 2681
731 2807
731 2995
731 3233
731 3271
731 3308
731 3500
731 3855
731 4097
731 4262
731 4305
731 4479
731 4593
731 4735
731 4756
731 4758
731 4795
731 4917
732 820
732 850
732 1384
732 1683
732 1843
732 1904
732 2134
732 2272
732 2669
732 3168
732 3413
732 3583
732 3670
732 3677
732 3723
732 3765
732 3863
732 3977
732 4627
732 4658
732 4665
732 4899
732 4918
732 4920
733 783
733 974
733 1060
733 1231
733 1369
733 1486
733 2593
733 2950
733 3113
733 3607
733 3621
733 4492
733 4529
733 4672
734 929
734 1262
734 1332
734 1416
734 1532
734 1649
734 2242
734 2629
734 3260
734 3586
734 4104
734 4333
734 4379
734 4427
734 4662
734 4756
734 4864
735 762
735 850
735 1458
735 1608
735 2012
735 2059
735 2202
735 2277
735 2537
735 2602
735 2754
735 3079
735 3165
735 3492
735 3643
735 3708
735 3891
735 4001
735 4098
735 4191
735 4416
735 4555
735 4594
735 4676
735 4732
735 4738
735 4756
735 4794
735 4936
735 4967
736 810
736 995
736 1298
736 1563
736 1650
736 1707
736 1718
736 1727
736 1829
736 1845
736 1851
736 2246
736 2319
736 2357
736 2494
736 2546
736 2557
736 2593
736 2624
736 2626
736 2769
736 3128
736 3331
736 3342
736 3634
736 3778
736 3861
736 3877
736 3933
736 3949
736 4556
736 4641
736 4646
736 4656
736 4678
736 4690
736 4870
736 4934
737 1157
737 2134
737 2501
737 2647
737 2720
737 2945
737 3761
737 4785
737 4957
738 1651
738 2088
738 2154
738 2282
738 2400
738 2845
738 2923
738 3092
738 3406
738 4142
738 4241
738 4276
738 4871
739 1122
739 1424
739 2171
739 2288
739 2735
739 3032
739 3661
739 3814
739 3944
739 4436
739 4465
739 4766
739 4789
740 820
740 1389
740 1471
740 1728
740 1814
740 2073
740 2481
740 2563
740 3356
740 3429
740 3729
740 3949
740 3989
740 4029
740 4461
740 4756
740 4984
741 967
741 1708
741 1792
741 1795
741 2035
741 2043
741 2255
741 2743
741 2845
741 2962
741 3706
741 3866
741 4173
741 4233
741 4319
741 4750
741 4931
742 1760
742 2233
742 2547
742 2856
742 2900
742 2968
742 3543
742 4190
742 4466
742 4642
742 4662
742 4851
743 986
743 1181
743 1318
743 1386
743 1785
743 2018
743 2211
743 2468
743 2505
743 2519
743 2591
743 2700
743 2711
743 2916
743 3096
743 3112
743 3289
743 3346
743 3569
743 3876
743 3881
743 4070
743 4090
743 4103
743 4172
743 4283
743 4304
743 4412
743 4417
743 4526
743 4711
743 4780
743 4870
744 968
744 1512
744 1814
744 2443
744 3264
744 3415
744 3918
744 4150
744 4232
744 4252
744 4280
744 4334
744 4427
744 4759
745 794
745 1141
745 1179
745 1240
745 2319
745 2497
745 2733
745 2819
745 2922
745 3318
745 3465
745 3612
745 3891
745 3907
745 4970
746 851
746 900
746 960
746 963
746 977
746 1072
746 1745
746 2390
746 2863
746 3461
746 3569
746 3805
746 3806
746 3816
746 3937
746 4199
746 4230
746 4381
746 4560
746 4885
747 780
747 1167
747 1638
747 1961
747 2058
747 2187
747 2314
747 2535
747 2571
747 2806
747 2935
747 3100
747 3210
747 3621
747 3623
747 3870
747 4212
747 4329
747 4360
747 4438
747 4915
747 4928
748 770
748 777
748 960
748 1113
748 2287
748 2300
748 2331
748 2383
748 2660
748 2882
748 2947
748 3263
748 3533
748 3816
748 4097
748 4106
748 4199
749 794
749 798
749 855
749 953
749 1289
749 1629
749 1674
749 2035
749 2198
749 2255
749 2349
749 2667
749 2750
749 2803
749 2951
749 3053
749 3508
749 3840
749 3994
749 4066
749 4337
749 4746
749 4943
750 1007
750 1125
750 1560
750 1596
750 1691
750 1718
750 1736
750 1795
750 1804
750 1927
750 2703
750 2742
750 2781
750 2935
750 3156
750 3224
750 3260
750 3399
750 3741
750 3807
750 4142
750 4337
750 4580
750 4954
751 932
751 1060
751 1147
751 1181
751 1235
751 1422
751 1442
751 1446
751 1451
751 1460
751 1620
751 1780
751 2097
751 2208
751 2241
751 2444
751 2491
751 2511
751 2573
751 2580
751 2655
751 2722
751 2970
751 3085
751 3137
751 3204
751 3449
751 3601
751 3641
751 3907
751 4141
751 4270
751 4317
751 4437
751 4622
751 4754
751 4757
751 4926
752 897
752 940
752 1141
752 1289
752 1493
752 1495
752 1883
752 2037
752 2302
752 2359
752 2423
752 2570
752 2612
752 2647
752 2863
752 2976
752 3108
752 3215
752 3232
752 3472
752 3651
752 3668
752 3736
752 3877
752 4075
752 4101
752 4210
752 4318
752 4418
752 4599
752 4641
752 4955
753 838
753 968
753 1311
753 1700
753 1863
753 2157
753 2248
753 2611
753 2725
753 3294
753 3512
753 3767
753 3838
753 4416
754 905
754 950
754 1692
754 2214
754 2767
754 2798
754 2998
754 3206
754 3306
754 3487
754 3589
754 4173
754 4210
754 4533
754 4635
754 4973
755 831
755 1575
755 1745
755 2275
755 2383
755 2774
755 2920
755 3807
755 3911
755 4097
755 4186
755 4199
755 4293
755 4744
756 956
756 1004
756 1042
756 1091
756 1206
756 1383
756 1905
756 2051
756 2267
756 2459
756 2788
756 2848
756 3277
756 3550
756 3762
756 3870
756 3921
756 3956
756 4183
756 4392
756 4448
756 4515
756 4594
756 4626
756 4681
756 4843
756 4873
756 4931
757 776
757 1098
757 1685
757 1863
757 1884
757 2255
757 2559
757 2594
757 2737
757 2946
757 3067
757 3525
757 3691
757 3767
757 3877
757 3904
757 4460
758 783
758 816
758 821
758 1013
758 1301
758 1466
758 1491
758 1629
758 1887
758 1892
758 1919
758 2090
758 2304
758 2360
758 2460
758 2763
758 2911
758 3018
758 3382
758 3979
758 4208
758 4353
758 4398
758 4400
758 4431
758 4632
758 4695
758 4710
759 1211
759 1748
759 1985
759 2217
759 2241
759 2392
759 2984
759 3141
759 3487
759 4906
760 862
760 994
760 1126
760 1320
760 1463
760 1504
760 1566
760 1730
760 1863
760 1992
760 2198
760 2207
760 2364
760 2408
760 2742
760 3194
760 3991
760 4342
760 4587
760 4800
760 4871
761 770
761 1199
761 1757
761 1961
761 2011
761 2294
761 2835
761 2872
761 2909
761 3011
761 3909
761 4347
761 4441
761 4563
761 4771
761 4993
762 1052
762 1506
762 1545
762 2277
762 2336
762 2480
762 2650
762 3002
762 3237
762 3388
762 4118
762 4412
762 4598
762 4622
762 4738
762 4963
763 951
763 1403
763 1783
763 1917
763 2072
763 2209
763 2291
763 2470
763 2983
763 3131
763 3205
763 3224
763 3322
763 3358
763 3438
763 3525
763 4099
763 4498
763 4640
763 4773
763 4911
764 851
764 887
764 897
764 901
764 1156
764 1191
764 1416
764 1716
764 1867
764 1940
764 2019
764 2199
764 2828
764 2937
764 2995
764 3153
764 3281
764 3310
764 3327
764 3518
764 3526
764 3593
764 3781
764 4084
764 4139
764 4786
764 4927
764 4946
764 4985
765 1077
765 1335
765 1555
765 1769
765 2073
765 2243
765 2601
765 2705
765 3394
765 4077
765 4232
765 4375
765 4434
765 4854
766 1237
766 1315
766 1669
766 1831
766 1998
766 2331
766 2640
766 2864
766 3651
766 3946
766 4752
767 881
767 974
767 1116
767 1178
767 1540
767 2023
767 2104
767 2131
767 2162
767 2209
767 2245
767 2283
767 2922
767 3000
767 4119
767 4225
767 4732
768 896
768 981
768 1049
768 1314
768 1601
768 1920
768 1998
768 2346
768 2827
768 2830
768 2946
768 3171
768 3272
768 3479
768 3770
768 3808
768 4013
768 4160
769 1119
769 1203
769 1372
769 1526
769 1571
769 1795
769 2618
769 2638
769 3032
769 3467
769 3515
769 3735
769 3852
769 3862
769 4084
769 4269
769 4789
769 4874
769 4983
770 782
770 785
770 876
770 922
770 964
770 1011
770 1033
770 1117
770 1170
770 1246
770 1489
770 1798
770 1865
770 1883
770 1903
770 1942
770 1968
770 1996
770 2053
770 2300
770 2390
770 2443
770 2752
770 2762
770 2807
770 2822
770 2839
770 2885
770 2907
770 3001
770 3011
770 3046
770 3058
770 3129
770 3668
770 3767
770 3925
770 4004
770 4012
770 4100
770 4199
770 4211
770 4830
770 4842
770 4857
770 4939
770 4964
770 4984
771 914
771 1072
771 1267
771 1302
771 2082
771 2324
771 2379
771 2504
771 2925
771 3324
771 3398
771 3532
771 3723
771 4639
771 4721
772 1263
772 1967
772 2009
772 2329
772 2337
772 2553
772 2670
772 2694
772 3350
772 3382
772 3411
772 3709
772 4717
773 1745
773 1821
773 1912
773 1972
773 2065
773 2757
773 2855
773 2952
773 3362
773 3458
773 3633
773 4445
773 4511
773 4924
774 1178
774 1383
774 1575
774 1867
774 2052
774 2083
774 2333
774 2802
774 3239
774 3505
774 3657
774 3746
774 3781
774 4052
774 4769
775 788
775 952
775 1025
775 1096
775 1385
775 1545
775 1714
775 1798
775 1815
775 1958
775 2026
775 2299
775 2322
775 2435
775 2688
775 2729
775 2874
775 2984
775 3951
775 4463
775 4596
775 4609
775 4850
776 2060
776 2298
776 2406
776 2516
776 2820
776 3187
776 3639
776 3687
776 3775
776 3838
776 4355
776 4594
776 4923
777 969
777 1209
777 1459
777 1868
777 1959
777 1975
777 2757
777 2775
777 2972
777 3056
777 3869
777 3903
777 4044
777 4645
777 4830
777 4854
778 1303
778 1495
778 1594
778 1992
778 2135
778 2203
778 2209
778 3979
778 4432
778 4466
778 4865
779 1312
779 1672
779 1755
779 2850
779 3939
779 4756
779 4864
779 4972
779 4997
780 782
780 1177
780 1972
780 2369
780 2727
780 2850
780 3139
780 3916
780 4127
780 4339
780 4360
780 4385
780 4404
780 4512
780 4614
780 4635
780 4858
780 4960
781 1138
781 1161
781 1588
781 1642
781 1670
781 1725
781 1733
781 1834
781 1845
781 1862
781 2201
781 2618
781 2706
781 2812
781 2833
781 2843
781 2993
781 3210
781 3225
781 3378
781 3442
781 3676
781 3878
781 4274
781 4880
781 4927
782 785
782 1403
782 1755
782 1771
782 2757
782 3162
782 3882
782 3925
782 4097
782 4187
782 4511
783 821
783 1449
783 1629
783 1821
783 1857
783 1920
783 2090
783 3717
783 3721
783 3935
783 3948
783 4126
783 4366
783 4398
783 4400
783 4695
783 4764
784 1369
784 1700
784 2039
784 2058
784 2259
784 2942
784 3158
784 3417
784 4237
784 4685
784 4739
784 4775
785 869
785 921
785 1032
785 1144
785 1185
785 1439
785 1462
785 1496
785 1745
785 1755
785 1865
785 1924
785 1958
785 1980
785 2401
785 2776
785 2866
785 3050
785 3315
785 3339
785 3691
785 3836
785 4141
785 4347
786 877
786 1072
786 1275
786 1389
786 2326
786 2352
786 2487
786 2724
786 3317
786 3471
786 3675
786 4099
786 4118
786 4199
786 4372
786 4651
787 1125
787 1565
787 1791
787 1929
787 2061
787 2370
787 2581
787 2608
787 2890
787 3099
787 3689
787 3871
787 3889
787 4139
787 4218
787 4667
787 4828
787 4865
787 4914
787 4982
788 1385
788 1958
788 2053
788 2178
788 2322
788 2357
788 2361
788 2435
788 2968
788 4504
789 959
789 1294
789 1480
789 2197
789 2227
789 2556
789 2780
789 3760
789 4214
789 4999
790 817
790 856
790 1039
790 1063
790 1198
790 1444
790 1517
790 1580
790 1989
790 2007
790 2018
790 2167
790 2302
790 2338
790 2346
790 2348
790 2634
790 2870
790 2929
790 3000
790 3156
790 3264
790 3549
790 3738
790 3874
790 4038
790 4130
790 4166
790 4402
790 4460
790 4731
790 4806
791 1064
791 1581
791 2292
791 2656
791 2678
791 2833
791 2946
791 3124
791 3225
791 3412
791 3581
791 3717
791 3901
791 4033
791 4043
791 4112
791 4625
791 4856
791 4999
792 1708
792 1738
792 2165
792 2281
792 2290
792 2297
792 2307
792 2889
792 3064
792 3306
792 3466
792 4073
792 4264
792 4358
792 4627
792 4635
793 1098
793 1266
793 1523
793 1647
793 1865
793 1935
793 2035
793 2989
793 3155
793 3437
793 4245
794 1014
794 1274
794 1311
794 1592
794 1925
794 1954
794 1957
794 1995
794 2000
794 2364
794 2421
794 2479
794 2703
794 2742
794 2815
794 2828
794 2901
794 2961
794 3201
794 4027
794 4157
794 4235
794 4386
794 4793
794 4895
794 4901
794 4943
795 1598
795 2006
795 2048
795 2379
795 2442
795 2837
795 3093
795 3219
795 3471
795 3660
795 3675
795 3970
795 4361
795 4706
795 4966
795 4996
796 1345
796 1659
796 1957
796 2035
796 2074
796 2611
796 2733
796 3076
796 3156
796 3301
796 3351
796 3371
796 3533
796 4889
796 4918
797 874
797 2417
797 3173
797 4195
797 4633
797 4634
797 4707
797 4789
797 4813
798 805
798 814
798 843
798 874
798 967
798 1011
798 1030
798 1651
798 1724
798 1792
798 1795
798 1828
798 1856
798 1863
798 1925
798 1935
798 2024
798 2155
798 2163
798 2235
798 2349
798 2403
798 2697
798 2698
798 2737
798 2764
798 2793
798 2797
798 2800
798 2879
798 3076
798 3156
798 3225
798 3407
798 3758
798 3767
798 3882
798 3904
798 4094
798 4292
798 4328
798 4359
798 4605
798 4642
798 4752
798 4770
798 4800
798 4803
798 4826
798 4962
798 4965
798 4987
799 811
799 820
799 1235
799 1384
799 1512
799 1588
799 1637
799 1843
799 2240
799 3161
799 3583
799 3765
799 3869
799 4384
799 4643
799 4695
799 4918
799 4920
800 886
800 927
800 1120
800 1287
800 1688
800 1869
800 1875
800 2291
800 2679
800 2924
800 3014
800 3828
800 3851
800 4283
800 4462
800 4580
800 4612
800 4742
800 4800
800 4840
801 883
801 1177
801 1463
801 1472
801 1675
801 1874
801 2325
801 2783
801 2901
801 3416
801 3470
801 3597
801 3913
801 4151
801 4202
801 4244
801 4253
802 980
802 1085
802 1277
802 1300
802 1348
802 1402
802 1436
802 1652
802 1862
802 2267
802 2380
802 2557
802 2854
802 3189
802 3354
802 4016
802 4053
802 4171
802 4277
802 4365
802 4478
802 4786
803 819
803 889
803 1051
803 1262
803 1314
803 1582
803 1812
803 2059
803 2074
803 2141
803 2194
803 2514
803 2602
803 2673
803 2859
803 3002
803 3038
803 3079
803 3135
803 3567
803 3587
803 3643
803 4398
803 4460
803 4582
803 4610
803 4738
804 878
804 1045
804 1047
804 2102
804 2362
804 2397
804 2555
804 3206
804 3726
804 3757
804 4632
804 4655
804 4784
804 4974
805 818
805 865
805 1118
805 1355
805 1603
805 1728
805 1796
805 1851
805 1857
805 2035
805 2194
805 2633
805 3132
805 3168
805 3200
805 3753
805 3827
805 4953
806 845
806 1108
806 1385
806 1493
806 1617
806 1650
806 1750
806 2524
806 2739
806 2867
806 3534
806 4137
806 4713
807 899
807 915
807 971
807 1080
807 1089
807 1206
807 1909
807 1914
807 2087
807 2164
807 2222
807 2460
807 2635
807 2715
807 2743
807 2992
807 3796
807 3912
807 3923
807 4052
807 4435
807 4440
807 4688
807 4693
807 4799
807 4929
807 4956
808 2152
808 2198
808 2227
808 2742
808 3196
808 3416
808 4180
808 4469
808 4700
808 4716
808 4839
809 897
809 1102
809 1112
809 1535
809 1666
809 1759
809 2186
809 2423
809 2622
809 2916
809 3064
809 3108
809 3645
809 3861
809 4053
809 4227
809 4252
809 4678
810 1026
810 1106
810 1112
810 1171
810 1187
810 1475
810 1586
810 1718
810 1899
810 2051
810 2233
810 2353
810 2592
810 2646
810 2974
810 3103
810 3421
810 3903
810 3966
810 4214
810 4314
810 4351
810 4679
811 820
811 995
811 1384
811 1843
811 1871
811 1937
811 2223
811 2240
811 2272
811 2275
811 2609
811 3362
811 3569
811 3677
811 3780
811 3977
811 4069
811 4384
811 4463
811 4652
811 4909
812 909
812 933
812 994
812 1858
812 2075
812 2592
812 2839
812 3210
812 3403
812 3750
812 4066
812 4071
812 4167
812 4253
812 4351
812 4677
812 4690
813 1471
813 1755
813 2080
813 2086
813 2277
813 2371
813 2514
813 2633
813 3643
813 3984
813 4304
813 4336
813 4598
813 4676
813 4738
814 1064
814 1266
814 1311
814 1804
814 2035
814 2057
814 2507
814 2845
814 3165
814 3883
814 3938
814 4094
814 4359
814 4666
814 4793
814 4844
814 4931
814 4960
814 4962
814 4968
815 865
815 1258
815 1366
815 1564
815 2030
815 2633
815 2634
815 2668
815 2799
815 2889
815 3151
815 3304
815 3382
815 3663
815 4311
815 4953
816 1013
816 1582
816 1887
816 2200
816 2432
816 2460
816 2581
816 2875
816 3240
816 3983
816 4065
816 4135
816 4177
816 4398
816 4400
816 4684
817 1122
817 1339
817 1373
817 1456
817 1499
817 1515
817 1669
817 2024
817 2154
817 2344
817 2428
817 2562
817 2622
817 2782
817 2832
817 2858
817 2904
817 3207
817 3307
817 3316
817 3606
817 3772
817 4130
817 4278
817 4387
817 4460
817 4532
817 4560
817 4876
818 1064
818 1168
818 1755
818 2090
818 2311
818 2759
818 3236
818 3525
818 3544
818 3816
818 3911
818 4097
818 4511
819 1043
819 1768
819 1827
819 2085
819 2247
819 2277
819 2567
819 2650
819 2733
819 3079
819 3643
819 3817
819 3973
819 4555
819 4650
819 4702
820 1047
820 1156
820 1235
820 1236
820 1288
820 1384
820 1637
820 1843
820 1871
820 2240
820 2272
820 2321
820 2388
820 2669
820 2782
820 3067
820 3583
820 3677
820 3720
820 3977
820 4126
820 4384
820 4407
820 4427
820 4583
820 4643
820 4665
820 4909
821 1147
821 1277
821 1283
821 1604
821 1629
821 1732
821 1887
821 1928
821 2082
821 2345
821 2419
821 2432
821 2460
821 2616
821 2809
821 3008
821 3592
821 3717
821 4351
821 4398
821 4400
821 4456
821 4684
822 914
822 987
822 1261
822 1274
822 1829
822 1838
822 1906
822 2002
822 2229
822 2340
822 3331
822 3908
822 3989
822 4240
822 4309
822 4485
822 4604
822 4640
822 4983
823 832
823 1109
823 1619
823 1713
823 1893
823 1956
823 2206
823 2337
823 2623
823 2711
823 2734
823 2750
823 2824
823 2932
823 3125
823 3449
823 3587
823 3895
823 4179
823 4297
823 4405
823 4447
823 4629
823 4661
823 4740
824 917
824 1106
824 1327
824 1747
824 1833
824 1895
824 2445
824 3355
824 3675
824 4235
824 4396
824 4655
824 4919
824 4974
825 827
825 856
825 1142
825 1194
825 1274
825 1986
825 2081
825 2147
825 2316
825 2609
825 2979
825 3159
825 3251
825 3283
825 3789
825 3964
825 4124
825 4284
825 4319
825 4489
825 4546
825 4780
825 4970
825 4986
826 1153
826 1162
826 1184
826 1216
826 1253
826 1407
826 1436
826 1452
826 1638
826 1768
826 2145
826 2238
826 2278
826 2308
826 2494
826 2864
826 2929
826 2986
826 3347
826 3387
826 3695
826 3827
826 4097
826 4121
826 4164
826 4178
826 4227
826 4478
826 4599
826 4628
826 4677
826 4678
826 4688
826 4748
826 4806
827 976
827 1158
827 1238
827 1481
827 1584
827 1745
827 1964
827 2002
827 2024
827 2107
827 2111
827 2265
827 2368
827 2384
827 2576
827 2849
827 2878
827 2922
827 2926
827 3194
827 3726
827 3898
827 3988
827 4970
828 843
828 852
828 883
828 1207
828 1702
828 1724
828 1796
828 2111
828 2115
828 2255
828 2325
828 2478
828 2815
828 3076
828 3260
828 3840
828 4195
828 4276
828 4712
828 4943
829 912
829 930
829 1108
829 1189
829 1327
829 1535
829 1624
829 1626
829 1704
829 1751
829 1997
829 2152
829 2176
829 2237
829 2531
829 2640
829 2685
829 3417
829 3760
829 4110
829 4176
829 4489
829 4692
829 4713
830 909
830 968
830 1487
830 1586
830 2132
830 2814
830 2963
830 2975
830 3278
830 3486
830 3844
830 4073
830 4129
830 4306
830 4407
831 921
831 1293
831 1371
831 2258
831 2429
831 2833
831 3399
831 3675
831 4857
831 4890
832 1204
832 1713
832 1725
832 1893
832 2404
832 2476
832 3341
832 3352
832 3397
832 3723
832 4297
832 4440
832 4447
832 4584
832 4661
833 1463
833 1659
833 1747
833 1790
833 2164
833 2189
833 2457
833 2737
833 2747
833 2762
833 2879
833 2897
833 2913
833 2935
833 3066
833 3425
833 3432
833 3707
833 3853
833 4092
833 4195
833 4328
833 4747
833 4897
833 4943
833 4954
834 965
834 1517
834 3252
834 3336
834 3386
834 3741
834 3912
834 4002
834 4178
834 4227
834 4331
834 4677
834 4697
834 4777
835 1352
835 1426
835 1544
835 1654
835 1727
835 1752
835 2009
835 2694
835 2871
835 3044
835 3241
835 3348
835 3411
835 3585
835 3701
835 3708
835 3802
835 3841
835 4323
835 4495
835 4569
835 4587
835 4607
835 4717
836 847
836 1495
836 2203
836 2312
836 2316
836 2328
836 2702
836 2846
836 3145
836 3588
836 4136
836 4982
837 1006
837 1539
837 2177
837 2337
837 2508
837 3162
837 3194
837 3213
837 3684
837 4052
837 4057
837 4077
837 4174
837 4412
837 4427
837 4468
837 4494
838 866
838 978
838 980
838 1057
838 1119
838 1127
838 1232
838 1234
838 1243
838 1314
838 1340
838 1403
838 1416
838 1425
838 1530
838 1559
838 1679
838 1834
838 1845
838 1881
838 1940
838 1998
838 2001
838 2007
838 2010
838 2019
838 2162
838 2271
838 2347
838 2348
838 2353
838 2499
838 2574
838 2642
838 2649
838 2781
838 2911
838 2937
838 2949
838 2995
838 3041
838 3055
838 3087
838 3101
838 3141
838 3395
838 3412
838 3472
838 3484
838 3532
838 3564
838 3571
838 3591
838 3593
838 3594
838 3706
838 3717
838 3897
838 3915
838 4001
838 4043
838 4102
838 4160
838 4344
838 4465
838 4527
838 4531
838 4604
838 4786
838 4808
838 4880
838 4889
838 4904
838 4999
839 988
839 1135
839 1174
839 1285
839 1348
839 1360
839 1642
839 1751
839 1790
839 2023
839 2389
839 3185
839 3252
839 4176
840 965
840 1436
840 1923
840 2052
840 2202
840 2719
840 3239
840 3419
840 3442
840 3581
840 3603
840 3753
840 4129
840 4784
841 1125
841 1225
841 1285
841 1747
841 2044
841 2309
841 2529
841 2756
841 2892
841 2897
841 3071
841 3193
841 3211
841 3298
841 3650
841 4068
841 4169
841 4213
841 4304
841 4485
841 4843
842 1011
842 1673
842 1746
842 1982
842 2258
842 2292
842 2576
842 2609
842 3092
842 3283
842 3285
842 3599
842 4124
842 4245
842 4317
842 4837
843 893
843 902
843 1240
843 1675
843 1842
843 1876
843 2073
843 2249
843 2255
843 2283
843 2325
843 2454
843 2761
843 2763
843 2866
843 3330
843 3392
843 3808
843 3890
843 3904
843 4160
843 4588
843 4793
843 4820
844 848
844 1105
844 1203
844 1339
844 1391
844 1436
844 1610
844 2040
844 2208
844 2487
844 2711
844 2843
844 3046
844 3382
844 3450
844 3691
844 4270
844 4273
844 4288
844 4462
844 4789
845 1190
845 1361
845 1369
845 1617
845 1650
845 1816
845 2125
845 2152
845 2233
845 2238
845 3044
845 3915
845 4201
845 4630
845 4643
845 4692
845 4752
845 4848
846 1017
846 1156
846 1191
846 1267
846 1500
846 1529
846 1670
846 2192
846 2393
846 2693
846 2740
846 3105
846 3167
846 3327
846 3559
846 3637
846 3917
846 4841
846 4856
846 4891
847 1330
847 1539
847 1701
847 1741
847 1936
847 2055
847 2967
847 2987
847 3022
847 3080
847 3221
847 3242
847 3563
847 3613
847 3641
847 3664
847 3785
847 3897
847 3942
847 4265
847 4322
847 4438
847 4736
848 875
848 975
848 1096
848 1115
848 1144
848 1789
848 1816
848 1835
848 1865
848 1873
848 2073
848 2112
848 2218
848 2225
848 2353
848 2360
848 2755
848 2758
848 2776
848 2806
848 2807
848 2822
848 2849
848 2907
848 2920
848 3056
848 3062
848 3269
848 3567
848 3672
848 3693
848 3807
848 3816
848 3869
848 3903
848 3925
848 3960
848 3968
848 4023
848 4051
848 4065
848 4181
848 4398
848 4532
848 4744
848 4811
848 4857
848 4872
848 4926
848 4984
849 998
849 1160
849 1175
849 1250
849 1633
849 1636
849 1831
849 2040
849 2122
849 2440
849 2891
849 3232
849 3286
849 3520
849 3599
849 4119
849 4135
849 4298
849 4601
849 4888
850 1033
850 1043
850 1052
850 1112
850 1545
850 2086
850 2514
850 2573
850 2751
850 2797
850 2906
850 3452
850 3533
850 3600
850 3799
850 4049
850 4078
850 4098
850 4234
850 4543
850 4650
850 4710
851 1138
851 1208
851 1392
851 1425
851 1569
851 1642
851 1822
851 1840
851 2085
851 2512
851 2574
851 2728
851 2922
851 3012
851 3593
851 3615
851 3645
851 3724
851 3901
851 4043
851 4344
851 4737
851 4935
852 1124
852 1367
852 1644
852 1967
852 2046
852 2828
852 2850
852 2897
852 3569
852 3839
852 3920
852 4207
852 4634
852 4895
853 896
853 909
853 1063
853 1069
853 1124
853 1272
853 1396
853 1454
853 1869
853 1949
853 2052
853 2154
853 2186
853 2462
853 2512
853 2575
853 2760
853 2850
853 2861
853 2893
853 3012
853 3193
853 3337
853 3406
853 3522
853 4136
853 4421
853 4664
853 4970
854 860
854 901
854 1203
854 1314
854 1489
854 1642
854 1693
854 1790
854 1861
854 2085
854 2168
854 2499
854 2833
854 2993
854 3186
854 3258
854 3325
854 3584
854 3594
854 3822
854 3922
854 4057
854 4897
855 928
855 1251
855 2088
855 2139
855 2207
855 2442
855 2848
855 3767
855 3789
855 4216
855 4277
855 4354
855 4793
855 4857
856 1039
856 1063
856 1494
856 1925
856 2029
856 2195
856 2302
856 2348
856 2428
856 2660
856 2836
856 3811
856 4606
856 4758
856 4968
857 1004
857 1809
857 2049
857 2063
857 2080
857 2129
857 2514
857 2745
857 2813
857 2917
857 3079
857 3343
857 3452
857 3628
857 3769
857 4231
857 4280
857 4373
857 4555
857 4705
858 1166
858 1490
858 1647
858 1779
858 2369
858 2491
858 2655
858 2823
858 3744
858 3767
858 4008
858 4038
858 4604
858 4754
858 4855
859 2066
859 2259
859 2378
859 2759
859 3021
859 3030
859 3205
859 3232
859 3236
859 3256
859 3469
859 3891
859 4040
859 4085
859 4267
860 899
860 1429
860 1450
860 2305
860 2635
860 3038
860 3798
860 3875
860 3978
860 4175
860 4693
860 4755
860 4821
861 927
861 1020
861 1145
861 1306
861 1852
861 2146
861 2974
861 3138
861 3316
861 3383
861 3584
861 3768
861 3920
861 4087
862 1344
862 1896
862 2128
862 2815
862 2817
862 2962
862 3122
862 3904
862 3938
862 4142
862 4410
862 4776
863 930
863 1081
863 1274
863 2215
863 2798
863 3222
863 3277
863 3671
863 3848
863 4755
863 4883
864 897
864 1223
864 1705
864 1803
864 1891
864 2005
864 2672
864 2962
864 3410
864 3503
864 4241
864 4679
864 4681
864 4727
865 1033
865 1118
865 1181
865 1355
865 1603
865 1728
865 1850
865 1885
865 2213
865 2634
865 2871
865 2940
865 3151
865 3168
865 3200
865 3201
865 3305
865 3437
865 3818
865 4069
865 4311
865 4681
865 4953
866 903
866 981
866 996
866 1057
866 1075
866 1083
866 1176
866 1198
866 1314
866 1393
866 1403
866 1468
866 1530
866 1569
866 1582
866 1588
866 1602
866 1670
866 1686
866 1759
866 1800
866 1806
866 1894
866 1940
866 1996
866 2007
866 2085
866 2127
866 2189
866 2316
866 2500
866 2546
866 2641
866 2643
866 2676
866 2763
866 2790
866 2812
866 2842
866 2993
866 2995
866 3055
866 3103
866 3124
866 3143
866 3154
866 3210
866 3214
866 3273
866 3300
866 3327
866 3351
866 3442
866 3472
866 3479
866 3510
866 3562
866 3577
866 3584
866 3661
866 3684
866 3727
866 3799
866 3991
866 4001
866 4002
866 4139
866 4196
866 4241
866 4375
866 4793
866 4821
866 4889
866 4900
866 4902
866 4927
866 4930
866 4979
866 4999
867 1347
867 1860
867 1913
867 2159
867 2203
867 2218
867 2912
867 3172
867 4139
867 4225
867 4568
868 943
868 984
868 1060
868 1242
868 1256
868 1422
868 1426
868 1521
868 1658
868 1922
868 1974
868 2137
868 2211
868 2268
868 2292
868 2444
868 2511
868 2655
868 3140
868 3435
868 4261
868 4299
868 4310
868 4546
868 4710
868 4760
868 4836
868 4893
868 4955
868 4959
869 1321
869 1341
869 2141
869 2242
869 2332
869 2342
869 2811
869 3251
869 3890
869 4146
869 4369
869 4423
869 4615
869 4864
869 4892
869 4983
870 904
870 945
870 1044
870 1231
870 1622
870 1979
870 2469
870 2653
870 2730
870 2735
870 2883
870 3489
870 3688
870 4279
870 4803
870 4906
870 4908
871 1139
871 1385
871 1970
871 2586
871 2968
871 3727
871 4160
871 4272
871 4334
871 4440
871 4596
872 920
872 1019
872 1168
872 1185
872 1906
872 1971
872 2166
872 2214
872 2316
872 2609
872 3283
872 3487
872 4098
872 4132
872 4178
872 4199
872 4203
872 4723
873 877
873 1117
873 1363
873 1510
873 1660
873 1745
873 2073
873 2729
873 2778
873 2963
873 3239
873 3276
873 3448
873 3913
873 4068
873 4073
873 4420
873 4559
873 4948
873 4959
874 1252
874 1641
874 1740
874 1843
874 1994
874 2073
874 2342
874 2433
874 2508
874 2965
874 2998
874 3967
874 3996
874 4038
874 4090
874 4111
874 4153
874 4361
874 4522
874 4706
874 4712
874 4755
874 4780
874 4839
875 1065
875 1136
875 1332
875 1430
875 1601
875 1757
875 1830
875 1848
875 1865
875 1937
875 2015
875 2154
875 2300
875 2939
875 3439
875 3546
875 3869
875 3960
875 4023
875 4063
875 4129
876 1067
876 1779
876 1798
876 1972
876 2074
876 2314
876 2353
876 2883
876 3083
876 3210
876 3353
876 3869
876 4184
876 4408
876 4528
877 1074
877 1546
877 1706
877 1789
877 2594
877 2771
877 2924
877 3141
877 3493
878 1314
878 1848
878 2397
878 2584
878 3268
878 3432
878 3545
878 3702
878 3723
878 3757
878 4232
878 4346
878 4632
878 4658
878 4962
879 904
879 1140
879 1391
879 1587
879 1849
879 1984
879 2174
879 2558
879 2592
879 3017
879 3078
879 3402
879 4253
879 4671
879 4703
879 4748
880 1809
880 2273
880 2382
880 2912
880 2965
880 2978
880 3139
880 3858
880 4269
880 4947
881 1206
881 1395
881 1438
881 1469
881 1520
881 1852
881 2186
881 2324
881 2429
881 2474
881 2664
881 2690
881 2796
881 2991
881 3274
881 3930
881 3964
881 4102
881 4107
881 4246
881 4286
881 4299
881 4392
881 4711
882 904
882 1322
882 2101
882 2190
882 2409
882 2553
882 2661
882 2746
882 2847
882 2989
882 3011
882 3433
882 4552
882 4660
883 1018
883 1046
883 1249
883 1269
883 1342
883 1463
883 1604
883 1876
883 1956
883 1982
883 2750
883 2935
883 3034
883 3346
883 3371
883 3423
883 3810
883 4303
883 4585
884 1415
884 1418
884 1619
884 1713
884 1737
884 1766
884 1893
884 1956
884 2125
884 2206
884 2262
884 2375
884 2577
884 2636
884 2711
884 2932
884 3229
884 3277
884 3438
884 3528
884 3682
884 3723
884 3895
884 3939
884 3973
884 4297
884 4447
884 4484
884 4661
884 4740
884 4779
884 4834
885 1830
885 1883
885 1887
885 2289
885 2311
885 2503
885 2682
885 2959
885 3024
885 3260
885 3372
885 3399
885 3831
885 4172
885 4177
885 4278
885 4351
885 4608
885 4787
885 4820
885 4999
886 1056
886 1688
886 1740
886 1813
886 1823
886 1875
886 2057
886 2465
886 2516
886 2520
886 3474
886 3913
886 4015
886 4151
886 4439
886 4612
886 4776
887 1370
887 1404
887 1419
887 2036
887 2399
887 2422
887 2534
887 2790
887 3693
887 3754
887 3806
887 4956
887 4997
888 909
888 930
888 968
888 1050
888 1804
888 1937
888 2271
888 2743
888 2771
888 2778
888 2998
888 3311
888 3405
888 3657
888 4345
888 4839
889 1067
889 1553
889 2204
889 2524
889 2593
889 3548
889 3758
889 3925
889 4533
889 4641
890 1017
890 1031
890 1220
890 1232
890 1276
890 1289
890 1340
890 1378
890 1528
890 1562
890 1861
890 1866
890 1867
890 1920
890 2001
890 2007
890 2085
890 2574
890 2603
890 2707
890 2740
890 2790
890 2834
890 3101
890 3103
890 3167
890 3239
890 3273
890 3383
890 3484
890 3492
890 3608
890 3717
890 3742
890 4218
890 4428
890 4617
890 4658
890 4821
890 4845
891 931
891 1028
891 1244
891 1245
891 1250
891 1269
891 1400
891 1522
891 1582
891 1584
891 1749
891 1838
891 2021
891 2026
891 2052
891 2181
891 2279
891 2354
891 2441
891 2628
891 2743
891 2818
891 2828
891 2852
891 2994
891 3015
891 3084
891 3092
891 3196
891 3223
891 3244
891 3271
891 3441
891 3516
891 3520
891 3623
891 3652
891 3823
891 3877
891 3901
891 3933
891 3955
891 3957
891 3993
891 4021
891 4023
891 4049
891 4186
891 4294
891 4386
891 4399
891 4781
891 4863
891 4895
892 1168
892 1213
892 1724
892 1776
892 2193
892 2221
892 2407
892 2798
892 2953
892 3594
892 3931
892 4112
892 4375
892 4715
892 4755
892 4777
892 4787
892 4881
892 4884
893 1256
893 1257
893 1863
893 2088
893 2180
893 2673
893 2726
893 2750
893 2800
893 3018
893 3243
893 3407
893 3547
893 4155
893 4679
894 1043
894 1395
894 1734
894 1971
894 2096
894 2161
894 2169
894 2705
894 2944
894 3054
894 4890
895 1269
895 1274
895 1337
895 2090
895 2096
895 2316
895 2576
895 2839
895 2922
895 3285
895 4075
895 4180
895 4935
896 968
896 1089
896 2450
896 2719
896 2746
896 2803
896 2852
896 3042
896 3342
896 3538
896 3556
896 3657
896 3721
896 3905
896 4970
896 4998
897 1074
897 1230
897 1253
897 1298
897 1428
897 1600
897 1618
897 1619
897 1718
897 1954
897 2142
897 2270
897 2295
897 2448
897 2456
897 2496
897 2527
897 2570
897 2697
897 2841
897 2974
897 3108
897 3330
897 3396
897 3497
897 3704
897 3748
897 4113
897 4178
897 4183
897 4210
897 4253
897 4311
897 4342
897 4372
897 4535
897 4674
897 4687
897 4824
897 4957
898 1943
898 2409
898 2557
898 2640
898 3921
898 4281
898 4563
899 1089
899 2407
899 2613
899 2617
899 2723
899 2860
899 3159
899 3978
899 4173
899 4693
900 1601
900 2013
900 2450
900 2454
900 2784
900 2937
900 3002
900 3443
900 3822
900 3843
900 4156
900 4317
900 4786
900 4798
900 4891
900 4943
901 1095
901 1172
901 1517
901 1530
901 1615
901 1672
901 1790
901 1861
901 1915
901 2001
901 2141
901 2600
901 2993
901 3428
901 3629
901 3646
901 3822
901 3826
901 3853
901 4043
901 4066
901 4668
902 1018
902 1504
902 1689
902 1896
902 1954
902 2174
902 2948
902 3076
902 3354
902 3617
902 3725
902 3945
902 4007
902 4094
903 1062
903 1648
903 1670
903 1899
903 2199
903 2225
903 2675
903 2833
903 2993
903 3582
903 3629
903 3899
903 3946
903 4046
903 4160
903 4798
903 4891
903 4904
904 917
904 1429
904 1488
904 1917
904 2081
904 2142
904 2469
904 2653
904 2735
904 2883
904 3688
904 3777
904 3960
904 4279
904 4480
904 4668
904 4797
904 4803
904 4807
904 4819
904 4893
904 4906
904 4908
905 960
905 1036
905 1612
905 1671
905 1809
905 1909
905 2610
905 2933
905 3120
905 3195
905 3316
905 3393
905 3418
905 3422
905 3579
905 3673
905 3810
905 3949
905 4096
905 4320
905 4425
905 4565
905 4872
906 1090
906 1442
906 1565
906 2268
906 2421
906 2491
906 2511
906 2519
906 2575
906 2655
906 2715
906 2737
906 2815
906 2823
906 3911
906 4141
906 4277
906 4680
906 4760
906 4811
907 1102
907 1161
907 1502
907 1715
907 2654
907 2695
907 2963
907 3369
907 3384
907 3426
907 3730
907 3917
907 4618
907 4629
907 4693
908 1045
908 1790
908 2397
908 2461
908 3533
908 3723
908 3868
908 4250
908 4499
908 4632
908 4658
908 4974
909 939
909 1010
909 1026
909 1034
909 1228
909 1242
909 1244
909 1245
909 1322
909 1425
909 1454
909 1522
909 1526
909 1586
909 1679
909 1746
909 1902
909 1943
909 1963
909 2028
909 2040
909 2055
909 2083
909 2375
909 2412
909 2596
909 2771
909 2791
909 2818
909 2861
909 2866
909 2875
909 2897
909 2970
909 3009
909 3037
909 3175
909 3193
909 3196
909 3298
909 3311
909 3409
909 3441
909 3520
909 3524
909 3618
909 3647
909 3658
909 3710
909 3746
909 3784
909 3828
909 4042
909 4062
909 4274
909 4354
909 4373
909 4407
909 4409
909 4470
909 4476
909 4660
909 4769
909 4812
909 4836
909 4848
909 4879
909 4952
909 4969
909 4979
910 969
910 1036
910 1434
910 1467
910 2614
910 2825
910 2933
910 2995
910 3449
910 3525
910 4013
910 4153
910 4290
910 4454
911 2579
911 2738
911 3118
911 3120
911 3383
911 4516
911 4596
911 4624
911 4660
911 4666
911 4827
912 1225
912 1630
912 1638
912 1717
912 1755
912 1766
912 2345
912 2399
912 2939
912 3889
912 4099
912 4586
912 4727
912 4985
913 1093
913 1179
913 1698
913 2081
913 2147
913 2187
913 2922
913 3283
913 3831
913 3843
913 4322
913 4584
914 976
914 1179
914 1185
914 1256
914 1447
914 2161
914 2576
914 2592
914 2922
914 3937
914 4568
914 4643
914 4683
915 1277
915 1539
915 1572
915 1917
915 2502
915 2835
915 3357
915 3358
915 3780
915 4160
915 4345
915 4360
915 4367
915 4518
915 4858
916 1302
916 1612
916 2586
916 2592
916 3312
916 3816
916 4165
916 4326
916 4372
916 4686
916 4814
916 4849
916 4900
916 4960
917 946
917 1082
917 1111
917 1302
917 1383
917 1618
917 1722
917 1740
917 1961
917 2048
917 2297
917 2544
917 3219
917 3771
917 4206
918 998
918 1691
918 1720
918 1824
918 2542
918 2725
918 3771
918 4097
918 4167
918 4221
918 4380
918 4562
918 4649
918 4782
918 4812
918 4865
919 1000
919 1213
919 1236
919 1502
919 2219
919 2413
919 2670
919 2695
919 3763
919 3917
919 4020
919 4211
919 4235
919 4278
919 4310
919 4405
919 4442
919 4611
919 4677
919 4714
919 4823
919 4948
920 1382
920 1640
920 2166
920 2242
920 2445
920 2576
920 2878
920 3212
920 3218
920 3240
920 3454
920 3482
920 3898
920 4026
920 4247
920 4284
920 4505
920 4559
920 4737
920 4970
920 4973
920 4995
921 1067
921 1128
921 1136
921 1770
921 1785
921 1816
921 1961
921 2225
921 2300
921 2705
921 3237
921 3337
921 3811
921 3869
921 4050
921 4134
921 4306
921 4326
921 4417
921 4451
921 4533
921 4854
921 4890
921 4923
922 1401
922 1755
922 1771
922 1961
922 2990
922 3050
922 3054
922 3087
922 3356
922 3785
922 4199
922 4347
922 4511
923 939
923 1367
923 1876
923 1982
923 2110
923 2153
923 2205
923 2224
923 2370
923 2576
923 2640
923 2676
923 2839
923 2922
923 3218
923 3363
923 3602
923 4045
923 4133
923 4322
923 4847
924 1359
924 1427
924 1469
924 1888
924 1917
924 2131
924 2195
924 2386
924 2601
924 2989
924 3069
924 3139
924 3267
924 3314
924 3688
924 4059
924 4060
924 4070
924 4150
924 4207
924 4504
925 1067
925 1566
925 1879
925 2186
925 2316
925 2474
925 2493
925 2690
925 2724
925 2859
925 3228
925 3387
925 3472
925 3706
925 3871
925 4102
925 4218
925 4246
925 4286
925 4441
925 4460
925 4472
925 4579
925 4648
926 1328
926 1340
926 1789
926 1803
926 2443
926 2919
926 3046
926 3202
926 3294
926 3714
926 3871
926 3894
926 4331
926 4406
926 4677
926 4772
927 1019
927 1740
927 1991
927 2048
927 2196
927 2213
927 2571
927 2621
927 2728
927 3213
927 3656
927 4013
927 4076
927 4290
928 1015
928 1031
928 1047
928 1262
928 1949
928 2084
928 2304
928 2484
928 2857
928 3025
928 3284
928 3705
928 3768
928 3876
928 4020
928 4373
928 4525
929 1174
929 1192
929 1214
929 1348
929 1411
929 2218
929 2374
929 2462
929 2610
929 2714
929 3029
929 3227
929 3343
929 3560
929 3578
929 3603
929 3707
929 3821
929 4103
929 4269
929 4360
929 4372
929 4539
929 4689
929 4804
930 968
930 1160
930 1250
930 1264
930 1285
930 1353
930 1513
930 1639
930 1674
930 1774
930 1997
930 2052
930 2130
930 2279
930 2316
930 3021
930 3033
930 3049
930 3138
930 3247
930 3289
930 3352
930 3486
930 3618
930 3995
930 4114
930 4238
930 4812
930 4814
930 4848
930 4989
931 1143
931 1180
931 1225
931 1249
931 1255
931 1429
931 1454
931 1513
931 1752
931 2378
931 2791
931 3141
931 3657
931 3661
931 4215
931 4222
931 4264
931 4781
931 4863
932 1049
932 1559
932 1642
932 1693
932 1725
932 1928
932 1998
932 2574
932 2750
932 2804
932 2920
932 3261
932 3300
932 3364
932 3443
932 3676
932 3737
932 3887
932 4043
932 4084
932 4354
932 4410
932 4821
932 4867
932 4902
933 969
933 1000
933 1091
933 1188
933 1312
933 1758
933 1895
933 2371
933 2514
933 2576
933 3544
933 3858
933 4761
934 1101
934 2053
934 2367
934 2794
934 2959
934 3220
934 3261
934 3347
934 3451
934 3856
934 3914
934 4029
934 4186
934 4801
934 4831
935 2345
935 2483
935 2576
935 2757
935 3805
935 3925
935 3965
935 4010
935 4061
935 4087
935 4266
935 4347
935 4949
935 4964
936 1081
936 1463
936 1479
936 1747
936 1935
936 2189
936 2520
936 2703
936 2845
936 3069
936 3091
936 3668
936 3840
936 4873
936 4931
937 973
937 1062
937 1465
937 1568
937 1808
937 1936
937 2027
937 2073
937 2413
937 2741
937 2905
937 2980
937 3504
937 3916
937 3977
937 4113
937 4293
937 4538
937 4640
937 4690
938 1028
938 1072
938 1450
938 1566
938 1642
938 1798
938 1805
938 2324
938 2379
938 2492
938 2547
938 2631
938 2762
938 2856
938 2965
938 3001
938 3006
938 3250
938 3659
938 3866
938 3947
938 4114
938 4661
938 4662
939 1512
939 1848
939 2111
939 2931
939 3244
939 3300
939 3608
939 3754
939 3794
939 4099
939 4474
939 4529
939 4622
939 4672
939 4766
939 4778
939 4816
940 1230
940 1375
940 1434
940 1672
940 2707
940 2926
940 3042
940 4610
940 4659
940 4972
941 1034
941 1463
941 2094
941 2207
941 2350
941 2737
941 3008
941 3026
941 3156
941 3157
941 3910
941 4424
942 1375
942 1534
942 1556
942 2187
942 2336
942 2397
942 2429
942 2681
942 4761
942 4767
942 4789
942 4845
943 1079
943 1432
943 1490
943 1617
943 1647
943 2353
943 2411
943 2519
943 2625
943 2717
943 2995
943 3082
943 3413
943 3488
943 3512
943 4310
943 4491
943 4898
943 4991
944 1320
944 1349
944 1975
944 2340
944 2526
944 2823
944 2989
944 2994
944 3480
944 3934
944 4198
944 4267
945 1542
945 1814
945 1961
945 2340
945 2556
945 2956
945 4079
945 4228
945 4893
946 969
946 991
946 1066
946 1135
946 1425
946 1557
946 1590
946 1621
946 1860
946 1867
946 2085
946 2454
946 2595
946 2781
946 3559
946 3594
946 3612
946 3961
946 4350
946 4834
947 1130
947 1503
947 2037
947 2224
947 2292
947 2831
947 2878
947 2922
947 2978
947 3283
947 3525
947 3764
947 3897
947 4319
947 4855
948 1125
948 1500
948 2390
948 2551
948 2614
948 2959
948 3220
948 3455
948 3491
948 3733
948 3859
948 4978
949 962
949 1045
949 1191
949 1220
949 1687
949 2279
949 2575
949 2730
949 2743
949 3001
949 4022
949 4272
949 4349
949 4675
950 1350
950 1679
950 2013
950 2772
950 3368
950 3691
950 3719
950 4041
950 4337
950 4359
950 4367
950 4561
950 4905
951 1104
951 1131
951 1469
951 2236
951 2244
951 2380
951 2922
951 3114
951 3754
951 3831
951 4000
951 4170
951 4192
951 4249
951 4588
952 1075
952 1256
952 1955
952 2166
952 2310
952 2431
952 2629
952 3025
952 4147
953 1274
953 1451
953 2215
953 2480
953 2609
953 3113
953 3159
953 3283
953 4622
953 4655
953 4970
954 1008
954 1218
954 1317
954 1363
954 1723
954 1731
954 1780
954 1829
954 1890
954 2182
954 2261
954 2280
954 2347
954 2461
954 2507
954 2694
954 2770
954 2920
954 2957
954 3033
954 3148
954 3459
954 3675
954 3941
954 4028
954 4139
954 4285
954 4861
954 4939
955 1217
955 1598
955 1758
955 1792
955 1863
955 2020
955 2054
955 2815
955 2934
955 3076
955 3156
955 3904
955 4290
955 4362
955 4818
955 4831
955 4844
956 1060
956 2247
956 2557
956 2665
956 2695
956 3089
956 3277
956 3832
956 4241
956 4294
957 1450
957 1503
957 1655
957 1660
957 1760
957 1793
957 2118
957 2588
957 2603
957 2804
957 2851
957 3460
957 4175
957 4190
957 4273
957 4278
957 4642
957 4756
957 4828
958 1606
958 1906
958 2035
958 2147
958 2258
958 2404
958 2878
958 2954
958 3671
959 1348
959 1860
959 2165
959 2299
959 3051
959 3534
959 3716
959 4320
959 4506
959 4790
960 1040
960 1088
960 1136
960 1144
960 1204
960 1513
960 1830
960 1873
960 1889
960 2136
960 2398
960 2584
960 2779
960 2822
960 2959
960 3019
960 3858
960 3888
960 3903
960 4186
960 4448
960 4450
960 4544
960 4610
960 4714
960 4984
961 1174
961 1263
961 1573
961 1761
961 3090
961 3215
961 3497
961 3561
961 3569
961 3785
961 3858
961 4067
962 1001
962 1253
962 1289
962 1317
962 1479
962 1840
962 1858
962 1861
962 2064
962 2267
962 2620
962 3064
962 3115
962 3146
962 3386
962 3555
962 3748
962 3874
962 4080
962 4108
962 4256
962 4869
963 1223
963 1349
963 2192
963 2442
963 3219
963 3224
963 3381
963 4022
963 4192
963 4523
963 4656
964 1282
964 1313
964 1377
964 1503
964 1659
964 1948
964 2382
964 2485
964 2585
964 2592
964 2916
964 2930
964 3068
964 3153
964 3331
964 3398
964 3515
964 3968
964 4164
964 4178
964 4213
964 4331
964 4445
964 4478
964 4558
964 4641
964 4663
964 4720
964 4722
964 4808
965 1111
965 1233
965 1368
965 1406
965 1437
965 1514
965 1526
965 1598
965 1785
965 1898
965 2527
965 2873
965 2960
965 2978
965 3007
965 3033
965 3286
965 3333
965 3358
965 3359
965 3406
965 3565
965 3698
965 3744
965 3847
965 3907
965 4361
965 4396
965 4503
965 4653
965 4703
965 4773
966 1269
966 1681
966 2172
966 2612
966 2956
966 4133
966 4494
966 4624
966 4646
966 4666
967 1287
967 1332
967 1698
967 1863
967 1896
967 1935
967 2158
967 2452
967 2845
967 3758
967 3938
967 4337
967 4844
968 1099
968 1109
968 1244
968 1292
968 1335
968 1378
968 1400
968 1513
968 1555
968 1565
968 1575
968 1626
968 1778
968 1817
968 1838
968 2018
968 2276
968 2366
968 2628
968 2731
968 2743
968 2756
968 2766
968 2771
968 2818
968 2854
968 2936
968 2970
968 2993
968 3041
968 3182
968 3190
968 3196
968 3206
968 3244
968 3349
968 3451
968 3505
968 3524
968 3566
968 3627
968 3650
968 3652
968 3772
968 3802
968 3849
968 3877
968 3958
968 3981
968 4049
968 4068
968 4083
968 4282
968 4456
968 4546
968 4552
968 4757
968 4763
968 4863
968 4948
968 4977
969 1056
969 1149
969 1255
969 1469
969 1940
969 2400
969 2712
969 2930
969 2949
969 2993
969 3164
969 3429
969 4042
969 4043
969 4160
969 4861
969 4904
969 4930
970 1044
970 1320
970 1849
970 2103
970 2277
970 2342
970 2743
970 3002
970 3251
970 3508
970 3533
970 3791
970 4068
970 4118
970 4191
970 4555
971 1273
971 1402
971 1517
971 1659
971 2078
971 2277
971 2285
971 2560
971 3291
971 3420
971 3527
971 3665
971 3705
971 3814
971 3817
971 4059
971 4394
971 4413
971 4547
971 4963
972 1232
972 1592
972 1673
972 1711
972 1917
972 2108
972 2655
972 3067
972 3752
972 4732
973 1014
973 1050
973 1095
973 1151
973 1213
973 1370
973 1508
973 2081
973 2218
973 2312
973 2433
973 3049
973 3548
973 3569
973 3849
973 3972
973 4275
973 4417
973 4524
973 4607
974 1002
974 1017
974 1084
974 1386
974 1620
974 1709
974 1722
974 1723
974 1918
974 1941
974 1979
974 2161
974 2163
974 2185
974 2312
974 2325
974 2436
974 2707
974 2978
974 2993
974 3119
974 3140
974 3251
974 3292
974 3441
974 3449
974 3622
974 3646
974 3771
974 3941
974 3980
974 4012
974 4078
974 4081
974 4367
974 4653
974 4910
975 1320
975 1796
975 1809
975 2261
975 2281
975 3098
975 3381
975 3393
975 4073
975 4502
975 4633
975 4653
975 4978
976 990
976 1185
976 1513
976 1662
976 1720
976 1986
976 2417
976 2580
976 2878
976 2944
976 3542
976 3614
976 3833
976 3898
976 4232
976 4613
977 1087
977 1116
977 1186
977 1249
977 1299
977 1317
977 1976
977 1994
977 2247
977 2254
977 2297
977 2327
977 2443
977 2450
977 2473
977 2488
977 2508
977 2935
977 3003
977 3049
977 3282
977 3323
977 3406
977 3520
977 3593
977 3890
977 4019
977 4070
977 4077
977 4103
977 4107
977 4181
977 4232
977 4259
977 4412
977 4430
977 4546
977 4692
977 4896
978 1405
978 1717
978 1850
978 1927
978 1964
978 2185
978 2454
978 2685
978 3116
978 3167
978 3384
978 3449
978 3663
978 3878
978 3887
978 4001
978 4290
978 4804
978 4834
978 4891
979 1004
979 1285
979 1439
979 1514
979 1540
979 1566
979 2101
979 2422
979 2431
979 3480
979 3507
979 4131
979 4320
979 4393
979 4610
979 4705
979 4913
979 4937
980 1097
980 1237
980 1543
980 1626
980 1678
980 1768
980 2045
980 2172
980 2224
980 2582
980 2611
980 2645
980 2681
980 3123
980 3485
980 3495
980 3534
980 4016
980 4473
980 4690
981 1074
981 1232
981 1329
981 1498
981 1867
981 2427
981 2497
981 3448
981 3656
981 3706
981 4050
981 4066
981 4071
981 4175
981 4786
981 4804
981 4900
982 1059
982 1685
982 1727
982 2134
982 2650
982 2671
982 2698
982 2750
982 2783
982 3253
982 3815
982 4204
982 4895
983 1230
983 1314
983 1582
983 1870
983 1965
983 2199
983 2221
983 2434
983 2634
983 2778
983 2834
983 2870
983 3258
983 3324
983 3457
983 3577
983 3794
983 3799
983 4032
983 4139
983 4617
983 4834
983 4880
983 4902
983 4904
983 4988
984 1098
984 1220
984 1389
984 1561
984 1705
984 1814
984 2452
984 2908
984 3289
984 3356
984 3662
984 3735
984 4248
984 4495
984 4638
984 4679
984 4818
985 1116
985 1119
985 1614
985 1655
985 1913
985 2026
985 2047
985 2054
985 2125
985 2224
985 2242
985 2558
985 2800
985 3245
985 3739
985 3839
985 4025
985 4054
985 4234
985 4541
985 4652
986 1252
986 1646
986 1810
986 2101
986 2280
986 2757
986 2841
986 3226
986 3438
986 3569
986 4012
986 4189
986 4877
986 4916
987 1122
987 1128
987 1543
987 2026
987 2041
987 2512
987 3174
987 3635
987 4207
987 4541
987 4566
987 4594
987 4785
987 4789
987 4914
988 1098
988 1243
988 1293
988 1315
988 1339
988 1590
988 1866
988 1904
988 2328
988 2405
988 2463
988 2534
988 2615
988 2807
988 3014
988 3034
988 3232
988 3301
988 3358
988 3536
988 3596
988 4345
988 4386
988 4529
988 4652
988 4717
988 4789
988 4813
988 4829
989 1236
989 1351
989 1528
989 2545
989 2546
989 2562
989 3438
989 3533
989 3814
989 3997
989 4147
989 4373
989 4382
990 1755
990 2531
990 2609
990 3534
990 3671
990 4140
990 4319
990 4933
991 1017
991 1138
991 1181
991 1232
991 1310
991 1428
991 1500
991 1597
991 1619
991 1642
991 1768
991 1790
991 1840
991 1900
991 1915
991 2020
991 2043
991 2499
991 2654
991 2829
991 3106
991 3247
991 3327
991 3629
991 3676
991 3742
991 3824
991 3832
991 3901
991 4043
991 4120
991 4126
991 4412
991 4527
991 4804
992 1059
992 1351
992 1401
992 1489
992 1642
992 1889
992 2155
992 2790
992 2830
992 2890
992 3054
992 3258
992 3472
992 3582
992 3591
992 3663
992 4084
992 4160
992 4214
992 4533
992 4617
992 4977
993 1028
993 1145
993 1304
993 1348
993 1578
993 1612
993 1664
993 1714
993 2576
993 2677
993 2722
993 2725
993 2780
993 3075
993 3213
993 3255
993 3265
993 3479
993 3495
993 3506
993 3699
993 4080
993 4216
993 4494
993 4498
993 4523
993 4965
994 1311
994 1739
994 1964
994 2035
994 2421
994 2482
994 2671
994 2697
994 3407
994 3767
994 3904
994 4077
994 4558
995 1054
995 1331
995 1663
995 2246
995 2415
995 2447
995 2682
995 3115
995 3224
995 3380
995 3549
995 3569
995 3571
995 3796
995 4083
995 4128
995 4184
995 4253
995 4418
995 4445
995 4602
996 1499
996 1665
996 1761
996 1892
996 2389
996 3234
996 3297
996 3584
996 3754
996 4013
996 4269
997 1297
997 1336
997 2534
997 2728
997 4423
997 4648
997 4772
997 4874
998 1094
998 1109
998 1439
998 1798
998 2193
998 2743
998 3063
998 3129
998 3141
998 3171
998 3461
998 3505
998 3864
998 3925
998 3996
998 4973
999 1112
999 1279
999 1745
999 2122
999 2383
999 2757
999 2891
999 3019
999 3148
999 3807
999 3816
999 3895
999 4090
999 4166
1000 1312
1000 1463
1000 2171
1000 2478
1000 2592
1000 2839
1000 3143
1000 3399
1000 3536
1000 3921
1000 4127
1000 4171
1000 4671
1000 4699
1001 1011
1001 1202
1001 1263
1001 1895
1001 2233
1001 2537
1001 2696
1001 3213
1001 3224
1001 3345
1001 3364
1001 3476
1001 3536
1001 3572
1001 4033
1001 4127
1001 4594
1002 1094
1002 1625
1002 3069
1002 3583
1002 3746
1002 3872
1002 3987
1002 4592
1002 4595
1002 4676
1003 1073
1003 1112
1003 1249
1003 1266
1003 2119
1003 2369
1003 2508
1003 3020
1003 3194
1003 3553
1003 3569
1003 3683
1003 3932
1003 3946
1003 4063
1003 4514
1003 4607
1003 4719
1004 1102
1004 1780
1004 2103
1004 2583
1004 2733
1004 3101
1004 3533
1004 3587
1004 3654
1004 4077
1004 4151
1004 4598
1004 4619
1004 4964
1005 1161
1005 1601
1005 1610
1005 2349
1005 2382
1005 2453
1005 2457
1005 2501
1005 2752
1005 2950
1005 3189
1005 3382
1005 3484
1005 3530
1005 3664
1005 3974
1005 4087
1005 4218
1005 4611
1005 4717
1005 4749
1005 4783
1005 4851
1005 4876
1006 1169
1006 1953
1006 2135
1006 2443
1006 2505
1006 2928
1006 3099
1006 3537
1006 3555
1006 4173
1006 4275
1006 4417
1006 4755
1006 4874
1007 1208
1007 1409
1007 1582
1007 1792
1007 1804
1007 1863
1007 2295
1007 2368
1007 2576
1007 2610
1007 2690
1007 2724
1007 3336
1007 3459
1007 3587
1007 3608
1007 3866
1007 3904
1007 3956
1007 4110
1007 4744
1007 4750
1007 4815
1007 4951
1008 1059
1008 1162
1008 1363
1008 1394
1008 1455
1008 1474
1008 1486
1008 2082
1008 2243
1008 3163
1008 3170
1008 3219
1008 3280
1008 3292
1008 3359
1008 3406
1008 3414
1008 3745
1008 3771
1008 3939
1008 3943
1008 4020
1008 4439
1008 4766
1008 4790
1009 1750
1009 1771
1009 1865
1009 1868
1009 2990
1009 3092
1009 3879
1009 4060
1009 4061
1009 4112
1009 4195
1009 4199
1009 4783
1009 4857
1009 4890
1010 1109
1010 1250
1010 1662
1010 2077
1010 2085
1010 2241
1010 2375
1010 2412
1010 2756
1010 3318
1010 3440
1010 3483
1010 3849
1010 4025
1010 4345
1010 4350
1010 4769
1010 4860
1011 1313
1011 1419
1011 1429
1011 1957
1011 2035
1011 2349
1011 2565
1011 2742
1011 2750
1011 2800
1011 2815
1011 2910
1011 3119
1011 3246
1011 3783
1011 3853
1011 4256
1011 4337
1011 4343
1011 4791
1011 4815
1012 1022
1012 1104
1012 1531
1012 1714
1012 1767
1012 1870
1012 1906
1012 2146
1012 2484
1012 3732
1012 4525
1012 4572
1012 4812
1013 1085
1013 1532
1013 2082
1013 2090
1013 2297
1013 2313
1013 2345
1013 2460
1013 2809
1013 2859
1013 3099
1013 3977
1013 4205
1013 4366
1013 4398
1013 4400
1013 4684
1013 4995
1013 4998
1014 1214
1014 1348
1014 1449
1014 1870
1014 2041
1014 2205
1014 2458
1014 3525
1014 3581
1014 3666
1014 3680
1014 3729
1014 3744
1014 3822
1014 4669
1014 4965
1015 1021
1015 1132
1015 1188
1015 1385
1015 1476
1015 1909
1015 2013
1015 2031
1015 2084
1015 2437
1015 2480
1015 2513
1015 2569
1015 2725
1015 2831
1015 2893
1015 3025
1015 3116
1015 3129
1015 3219
1015 3226
1015 3294
1015 3361
1015 3475
1015 3512
1015 3739
1015 3813
1015 3836
1015 3968
1015 3987
1015 4020
1015 4373
1015 4408
1015 4429
1015 4441
1015 4480
1016 1284
1016 1309
1016 1675
1016 1911
1016 2170
1016 2251
1016 2594
1016 2978
1016 3145
1016 3147
1016 3323
1016 3904
1016 4337
1016 4844
1017 1127
1017 1135
1017 1276
1017 1500
1017 1510
1017 1538
1017 1569
1017 1597
1017 1693
1017 2019
1017 2483
1017 2574
1017 2661
1017 2794
1017 2812
1017 2834
1017 2949
1017 3124
1017 3226
1017 3258
1017 3296
1017 3342
1017 3461
1017 3472
1017 3489
1017 3593
1017 3637
1017 3645
1017 3700
1017 3738
1017 3827
1017 3930
1017 4002
1017 4126
1017 4288
1017 4327
1017 4354
1017 4527
1017 4617
1017 4716
1017 4783
1017 4794
1017 4817
1017 4856
1017 4891
1017 4930
1017 4946
1017 4953
1018 1146
1018 1674
1018 1804
1018 1871
1018 2022
1018 2255
1018 2421
1018 2448
1018 2490
1018 2615
1018 2639
1018 2761
1018 2879
1018 3028
1018 3080
1018 3392
1018 3792
1018 3866
1018 3904
1018 4359
1018 4815
1018 4868
1018 4875
1018 4897
1019 1173
1019 1269
1019 2166
1019 2215
1019 2316
1019 2609
1019 2954
1019 3264
1019 3530
1019 3626
1019 4031
1019 4058
1019 4284
1020 1117
1020 1199
1020 1428
1020 1513
1020 1630
1020 1752
1020 1896
1020 2472
1020 2743
1020 2791
1020 2999
1020 3190
1020 3755
1020 3764
1020 4326
1020 4342
1020 4700
1020 4781
1020 4857
1020 4935
1020 4961
1021 1432
1021 1463
1021 1828
1021 2035
1021 2132
1021 2389
1021 2815
1021 2873
1021 2879
1021 4195
1021 4359
1021 4872
1022 1055
1022 1085
1022 1326
1022 1433
1022 1449
1022 1499
1022 1530
1022 1860
1022 1911
1022 2008
1022 2218
1022 2898
1022 2933
1022 3521
1022 3587
1022 3625
1022 3696
1022 3895
1022 3936
1022 4023
1022 4234
1022 4250
1022 4570
1022 4683
1022 4780
1022 4784
1022 4785
1023 1106
1023 1346
1023 1382
1023 1397
1023 1546
1023 1676
1023 1908
1023 1913
1023 2171
1023 2321
1023 2570
1023 2884
1023 2945
1023 3064
1023 3154
1023 3215
1023 3946
1023 4032
1023 4128
1023 4227
1023 4326
1023 4485
1023 4869
1024 1865
1024 1873
1024 2062
1024 2210
1024 2216
1024 2794
1024 2885
1024 3038
1024 3051
1024 3220
1024 3909
1024 4074
1024 4199
1024 4347
1024 4765
1025 1123
1025 1385
1025 2299
1025 2549
1025 2606
1025 2676
1025 2990
1025 3457
1025 4463
1025 4493
1025 4536
1025 4546
1026 1037
1026 1123
1026 1125
1026 1244
1026 1250
1026 2003
1026 2655
1026 2861
1026 2918
1026 3239
1026 3256
1026 3657
1026 3710
1026 3994
1026 4183
1026 4345
1026 4446
1026 4642
1026 4776
1027 1375
1027 1517
1027 1967
1027 2284
1027 2477
1027 2706
1027 3663
1027 3812
1027 4188
1027 4261
1027 4590
1027 4708
1027 4756
1028 1173
1028 1347
1028 1964
1028 2684
1028 2962
1028 3313
1028 3393
1028 3525
1028 3769
1028 3785
1028 4087
1028 4225
1029 1332
1029 1451
1029 1460
1029 2422
1029 2575
1029 2610
1029 2632
1029 3383
1029 3706
1029 3824
1029 3970
1029 4568
1029 4868
1030 1117
1030 1125
1030 1333
1030 1785
1030 2143
1030 2437
1030 2778
1030 2818
1030 3143
1030 3342
1030 3586
1030 3745
1030 4629
1031 1347
1031 1396
1031 1938
1031 2530
1031 2610
1031 2666
1031 2965
1031 3603
1031 4448
1032 1231
1032 1465
1032 1685
1032 1755
1032 1821
1032 1942
1032 2959
1032 4097
1032 4179
1032 4186
1032 4187
1032 4199
1032 4532
1033 1428
1033 2016
1033 2129
1033 2495
1033 2529
1033 3598
1033 3912
1033 4285
1033 4347
1033 4834
1033 4924
1033 4940
1034 1360
1034 1715
1034 2567
1034 2654
1034 2695
1034 2898
1034 3082
1034 3203
1034 3643
1034 3761
1034 3765
1034 4003
1034 4117
1034 4278
1034 4442
1034 4714
1034 4730
1034 4747
1034 4753
1035 1720
1035 2247
1035 2369
1035 2458
1035 2571
1035 2616
1035 2727
1035 2805
1035 3058
1035 3190
1035 3430
1035 3434
1035 3880
1035 4329
1035 4360
1035 4960
1036 1129
1036 1177
1036 1908
1036 2076
1036 2246
1036 2382
1036 3186
1036 3351
1036 3548
1036 3668
1036 4491
1037 1038
1037 1347
1037 1372
1037 1650
1037 1796
1037 2025
1037 2050
1037 2062
1037 2265
1037 2598
1037 3112
1037 3134
1037 3247
1037 3983
1037 4022
1037 4083
1037 4185
1037 4230
1037 4345
1037 4753
1037 4913
1038 1469
1038 1553
1038 1995
1038 2150
1038 2160
1038 2245
1038 2278
1038 2283
1038 2517
1038 2547
1038 2605
1038 2758
1038 2878
1038 2950
1038 3853
1038 4185
1038 4364
1038 4410
1038 4569
1038 4732
1039 1359
1039 1363
1039 1513
1039 1855
1039 2066
1039 2081
1039 3266
1039 3600
1039 4387
1039 4462
1039 4825
1040 1344
1040 1480
1040 1989
1040 2129
1040 2613
1040 2886
1040 3013
1040 3020
1040 3037
1040 3174
1040 4152
1040 4154
1040 4422
1040 4624
1040 4666
1040 4780
1040 4935
1041 1112
1041 1150
1041 1449
1041 1714
1041 1818
1041 1860
1041 2114
1041 2427
1041 2934
1041 2985
1041 3117
1041 3603
1041 3622
1041 3845
1041 3996
1041 4024
1041 4250
1042 1456
1042 2247
1042 2303
1042 2307
1042 2338
1042 2746
1042 2876
1042 3089
1042 3362
1042 3550
1042 3828
1042 3897
1042 4681
1042 4699
1042 4816
1043 1073
1043 1102
1043 1506
1043 1641
1043 1693
1043 2047
1043 2049
1043 2074
1043 2625
1043 2673
1043 2906
1043 3533
1043 3708
1043 4244
1043 4261
1043 4302
1043 4671
1043 4802
1044 1478
1044 1545
1044 1608
1044 1981
1044 2074
1044 2194
1044 2677
1044 2733
1044 3061
1044 3533
1044 3587
1044 3600
1044 4593
1044 4645
1044 4912
1045 1469
1045 1983
1045 2102
1045 2584
1045 3526
1045 3648
1045 3757
1045 4153
1045 4154
1045 4445
1045 4447
1045 4557
1045 4607
1045 4632
1045 4784
1046 1325
1046 1597
1046 1798
1046 2299
1046 2617
1046 2888
1046 3085
1046 3174
1046 3286
1046 4160
1046 4702
1046 4856
1047 1082
1047 1183
1047 1420
1047 1508
1047 1589
1047 1847
1047 2087
1047 2130
1047 2628
1047 3239
1047 3399
1047 3441
1047 3559
1047 3946
1047 4781
1048 1449
1048 1632
1048 2067
1048 2316
1048 2965
1048 3012
1048 3095
1048 3157
1048 3223
1048 3287
1048 3789
1048 3965
1049 1135
1049 1138
1049 1397
1049 1405
1049 1408
1049 1510
1049 1578
1049 1597
1049 1869
1049 2132
1049 2338
1049 2384
1049 3101
1049 3105
1049 3116
1049 3171
1049 3273
1049 3574
1049 3577
1049 3697
1049 3769
1049 3810
1049 4084
1049 4260
1049 4560
1049 4593
1049 4798
1049 4891
1050 1312
1050 1929
1050 2203
1050 2346
1050 2554
1050 3054
1050 4060
1050 4164
1050 4172
1050 4217
1050 4528
1050 4567
1050 4828
1050 4847
1051 1081
1051 1570
1051 1574
1051 1642
1051 1740
1051 2048
1051 2140
1051 2426
1051 3098
1051 3722
1051 3771
1051 3791
1051 4020
1051 4174
1052 1312
1052 1390
1052 1453
1052 1524
1052 1545
1052 2122
1052 2273
1052 2277
1052 2602
1052 3027
1052 3181
1052 3533
1052 3708
1052 4098
1052 4169
1052 4253
1052 4292
1052 4619
1053 1319
1053 1418
1053 1862
1053 1906
1053 1911
1053 1985
1053 2180
1053 2667
1053 2783
1053 3213
1053 3316
1053 3548
1053 3906
1053 4030
1053 4181
1054 1073
1054 1318
1054 1511
1054 1624
1054 2164
1054 2177
1054 2419
1054 2505
1054 2607
1054 2928
1054 2956
1054 3088
1054 3162
1054 3306
1054 3403
1054 3754
1054 4107
1054 4205
1054 4275
1054 4442
1054 4517
1054 4579
1055 1173
1055 1990
1055 1993
1055 2091
1055 2614
1055 2911
1055 2912
1055 2933
1055 3301
1055 3519
1055 3548
1055 3560
1055 4292
1055 4604
1056 1156
1056 1425
1056 1489
1056 1593
1056 1772
1056 1969
1056 2061
1056 2171
1056 2539
1056 2642
1056 2864
1056 2901
1056 3054
1056 3130
1056 3225
1056 3411
1056 3738
1056 3826
1056 3937
1056 4111
1056 4164
1057 1224
1057 1255
1057 1314
1057 1419
1057 1492
1057 1790
1057 1867
1057 2452
1057 2595
1057 2708
1057 3136
1057 3273
1057 4084
1057 4139
1057 4175
1057 4315
1057 4352
1057 4625
1057 4904
1057 4998
1058 1489
1058 1510
1058 2094
1058 2276
1058 2309
1058 2379
1058 2599
1058 2603
1058 2777
1058 3166
1058 3247
1058 3713
1058 4273
1058 4427
1058 4585
1058 4639
1058 4750
1058 4887
1059 1311
1059 1463
1059 2035
1059 2194
1059 2207
1059 2255
1059 2372
1059 2815
1059 2943
1059 3053
1059 3670
1059 3725
1059 3758
1059 3808
1059 4025
1059 4233
1059 4776
1059 4901
1059 4992
1060 1090
1060 1123
1060 1464
1060 1525
1060 2137
1060 2447
1060 2519
1060 2575
1060 3144
1060 3544
1060 3869
1060 4103
1060 4459
1061 1175
1061 1212
1061 1533
1061 2657
1061 3144
1061 3362
1061 3428
1061 3640
1061 4055
1061 4078
1061 4520
1061 4595
1061 4754
1062 1490
1062 1533
1062 2478
1062 3491
1062 3601
1062 4211
1062 4437
1062 4629
1062 4630
1062 4905
1063 1270
1063 1359
1063 1545
1063 1550
1063 2018
1063 2348
1063 2374
1063 2394
1063 2515
1063 2532
1063 2782
1063 3075
1063 3460
1063 3465
1063 3776
1063 4307
1063 4387
1063 4582
1063 4871
1063 4962
1064 1311
1064 1422
1064 1863
1064 1896
1064 2022
1064 2088
1064 2263
1064 2352
1064 2698
1064 2910
1064 2933
1064 3162
1064 3309
1064 3315
1064 3773
1064 3804
1064 3808
1064 3810
1064 3964
1064 3987
1064 4041
1064 4084
1064 4172
1064 4195
1064 4224
1064 4327
1064 4398
1064 4420
1064 4915
1064 4954
1065 1103
1065 1156
1065 1188
1065 1564
1065 1589
1065 1725
1065 1938
1065 2341
1065 2514
1065 2560
1065 3352
1065 3628
1065 4086
1065 4145
1065 4195
1065 4358
1065 4370
1065 4378
1065 4427
1065 4956
1066 1110
1066 1156
1066 1275
1066 1303
1066 1304
1066 1392
1066 1425
1066 1472
1066 1523
1066 1559
1066 1597
1066 1657
1066 1940
1066 2047
1066 2361
1066 2790
1066 2842
1066 2929
1066 3050
1066 3273
1066 3300
1066 3412
1066 3445
1066 3473
1066 3510
1066 3647
1066 3676
1066 3799
1066 3822
1066 4084
1066 4160
1066 4321
1066 4880
1067 1144
1067 1170
1067 1323
1067 1621
1067 1745
1067 1755
1067 1822
1067 1975
1067 2521
1067 2614
1067 2879
1067 3062
1067 3127
1067 3179
1067 3228
1067 3263
1067 3797
1067 3856
1067 4166
1067 4280
1067 4347
1067 4654
1067 4729
1067 4912
1067 4923
1067 4953
1067 4993
1068 1136
1068 1373
1068 1787
1068 1816
1068 1873
1068 1972
1068 2070
1068 3056
1068 3158
1068 3277
1068 4101
1068 4511
1068 4594
1068 4860
1069 1078
1069 1117
1069 1513
1069 1749
1069 2271
1069 2731
1069 2733
1069 3084
1069 3428
1069 3780
1069 4282
1069 4664
1069 4969
1070 1356
1070 1417
1070 1420
1070 1469
1070 1553
1070 1948
1070 1995
1070 2065
1070 2133
1070 2236
1070 2250
1070 2265
1070 2672
1070 2930
1070 3014
1070 3131
1070 3139
1070 3822
1070 4035
1070 4397
1070 4403
1070 4752
1070 4862
1071 1193
1071 1376
1071 1938
1071 2575
1071 2580
1071 2613
1071 2839
1071 3000
1071 3242
1071 3320
1071 3422
1071 4114
1071 4437
1071 4589
1071 4604
1072 1193
1072 1450
1072 1712
1072 1798
1072 1839
1072 2435
1072 2762
1072 2856
1072 3036
1072 3166
1072 3436
1072 3532
1072 3660
1072 3819
1072 4190
1072 4273
1072 4585
1072 4586
1072 4652
1072 4771
1073 1076
1073 1116
1073 1299
1073 1386
1073 1394
1073 1973
1073 2004
1073 2468
1073 2508
1073 2700
1073 2783
1073 2916
1073 2982
1073 3003
1073 3032
1073 4038
1073 4292
1073 4306
1073 4338
1073 4427
1073 4780
1074 1082
1074 1124
1074 1244
1074 1247
1074 1454
1074 1606
1074 1687
1074 1752
1074 1879
1074 2037
1074 2087
1074 2202
1074 2412
1074 2592
1074 2628
1074 2858
1074 2868
1074 2931
1074 3113
1074 3145
1074 3193
1074 3349
1074 3520
1074 3602
1074 3618
1074 3647
1074 3769
1074 3780
1074 4428
1074 4470
1074 4542
1074 4778
1074 4911
1074 4967
1074 4975
1074 4998
1075 1242
1075 1281
1075 1734
1075 1779
1075 1815
1075 1905
1075 1963
1075 1987
1075 2443
1075 3066
1075 3177
1075 3350
1075 3446
1075 3596
1075 3672
1075 3809
1075 3812
1075 3987
1075 4400
1075 4921
1076 1884
1076 1963
1076 1973
1076 2468
1076 2592
1076 2594
1076 2632
1076 2989
1076 3096
1076 3194
1076 3813
1076 4103
1076 4172
1076 4334
1076 4417
1076 4780
1077 1087
1077 1168
1077 1186
1077 1370
1077 1803
1077 1925
1077 2101
1077 2184
1077 2210
1077 2211
1077 2473
1077 2478
1077 2631
1077 2763
1077 2909
1077 3433
1077 3489
1077 3522
1077 3881
1077 4156
1077 4283
1077 4365
1077 4468
1077 4517
1077 4601
1077 4906
1078 1095
1078 1162
1078 1221
1078 1297
1078 1309
1078 1474
1078 1537
1078 1763
1078 2095
1078 2442
1078 2461
1078 3063
1078 3085
1078 3381
1078 3406
1078 3503
1078 3752
1078 3781
1078 3941
1078 4003
1078 4140
1078 4742
1079 1314
1079 1718
1079 1895
1079 2069
1079 2582
1079 3224
1079 3949
1079 4131
1079 4408
1080 1089
1080 1917
1080 2164
1080 2415
1080 2502
1080 2589
1080 2616
1080 2617
1080 2826
1080 3268
1080 3423
1080 3530
1080 3780
1080 4138
1080 4435
1080 4693
1080 4787
1081 1111
1081 1437
1081 1723
1081 3219
1081 3280
1081 3321
1081 3406
1081 3484
1081 3834
1081 4060
1081 4106
1081 4239
1081 4285
1081 4367
1081 4693
1082 1484
1082 1739
1082 2006
1082 2123
1082 2202
1082 2756
1082 2963
1082 3138
1082 3190
1082 3193
1082 3232
1082 3337
1082 3455
1082 3631
1082 3750
1082 3822
1082 4206
1082 4214
1082 4407
1082 4562
1082 4697
1082 4711
1082 4769
1082 4781
1082 4948
1083 1110
1083 1208
1083 1262
1083 1562
1083 1603
1083 1861
1083 1862
1083 2199
1083 2562
1083 2790
1083 3276
1083 3340
1083 3482
1083 3806
1083 4160
1083 4223
1083 4894
1083 4904
1083 4908
1084 1341
1084 1525
1084 1588
1084 1744
1084 2138
1084 2367
1084 2664
1084 2975
1084 3219
1084 3674
1084 3675
1084 3686
1084 3824
1084 3968
1084 4577
1084 4637
1084 4714
1084 4977
1085 1965
1085 1981
1085 2116
1085 2218
1085 2274
1085 2449
1085 2479
1085 2559
1085 2622
1085 2802
1085 2849
1085 3130
1085 3282
1085 3612
1085 4782
1085 4950
1085 4952
1086 1263
1086 1428
1086 1613
1086 1779
1086 1797
1086 1849
1086 2121
1086 2143
1086 2216
1086 2377
1086 2393
1086 2500
1086 2600
1086 3005
1086 3243
1086 3244
1086 3269
1086 3474
1086 3558
1086 3621
1086 3659
1086 3703
1086 3782
1086 4270
1086 4361
1086 4785
1086 4846
1086 4937
1087 1148
1087 1249
1087 1577
1087 1715
1087 2069
1087 2094
1087 2101
1087 2252
1087 2419
1087 2424
1087 2513
1087 2953
1087 3020
1087 3103
1087 3569
1087 4223
1087 4427
1087 4514
1087 4755
1087 4780
1087 4962
1087 4963
1088 1136
1088 1261
1088 1792
1088 1877
1088 1943
1088 3032
1088 3086
1088 3596
1088 3622
1088 3816
1088 3836
1088 3909
1088 4060
1088 4120
1088 4266
1088 4295
1088 4530
1089 1656
1089 1914
1089 1924
1089 2040
1089 2164
1089 2206
1089 2366
1089 2415
1089 2459
1089 2572
1089 2635
1089 2826
1089 2860
1089 2867
1089 3028
1089 3139
1089 3220
1089 3588
1089 3923
1089 3985
1089 4138
1089 4203
1089 4435
1089 4440
1089 4458
1089 4693
1089 4746
1089 4799
1089 4956
1090 1422
1090 1672
1090 1824
1090 2447
1090 2648
1090 2717
1090 3068
1090 3634
1090 3721
1090 4330
1090 4468
1090 4760
1091 1300
1091 1467
1091 1540
1091 2013
1091 2406
1091 2528
1091 2648
1091 2858
1091 3278
1091 3654
1091 4103
1091 4134
1091 4361
1091 4467
1091 4610
1091 4937
1092 1239
1092 1605
1092 1782
1092 1899
1092 2089
1092 2542
1092 2640
1092 3025
1092 3226
1092 3272
1092 3319
1092 3474
1092 3561
1092 3572
1092 3768
1092 4007
1092 4053
1092 4123
1092 4413
1092 4489
1092 4504
1092 4707
1092 4807
1093 2319
1093 2837
1093 3555
1093 3602
1093 3856
1093 3875
1093 4131
1093 4164
1093 4171
1093 4489
1093 4519
1093 4597
1093 4676
1094 1233
1094 1922
1094 2420
1094 2618
1094 3565
1094 3608
1094 3771
1094 3987
1094 4222
1094 4276
1094 4642
1095 1100
1095 1342
1095 1405
1095 1705
1095 2199
1095 2828
1095 2833
1095 3101
1095 3166
1095 3206
1095 3324
1095 3727
1095 4889
1095 4904
1096 1762
1096 2423
1096 2657
1096 2867
1096 3566
1096 3928
1096 4164
1096 4525
1096 4561
1096 4820
1096 4936
1096 4957
1096 4976
1097 1281
1097 1511
1097 1820
1097 1945
1097 2522
1097 2541
1097 2997
1097 3495
1097 3566
1097 3801
1097 4002
1097 4139
1097 4163
1097 4189
1097 4277
1097 4849
1098 1122
1098 1262
1098 1424
1098 1488
1098 1542
1098 1587
1098 1629
1098 1637
1098 1640
1098 1654
1098 1684
1098 1791
1098 1904
1098 2134
1098 2413
1098 2487
1098 2521
1098 2870
1098 3067
1098 3073
1098 3136
1098 3644
1098 3736
1098 3822
1098 3839
1098 3974
1098 4021
1098 4036
1098 4308
1098 4609
1098 4622
1098 4672
1098 4674
1098 4680
1098 4749
1098 4762
1098 4789
1098 4805
1098 4877
1098 4976
1098 4996
1099 1770
1099 1848
1099 1957
1099 2188
1099 2899
1099 2985
1099 3449
1099 3639
1099 3759
1099 3813
1099 3838
1099 4319
1099 4355
1099 4561
1099 4995
1100 1276
1100 1416
1100 1663
1100 1836
1100 1940
1100 2359
1100 2946
1100 3101
1100 3707
1100 3712
1100 3915
1100 3922
1100 4527
1100 4979
1100 4999
1101 1280
1101 1642
1101 1787
1101 2147
1101 2725
1101 2775
1101 3076
1101 3101
1101 3124
1101 3206
1101 3214
1101 3629
1101 3727
1101 3799
1101 3915
1101 3922
1101 4002
1101 4084
1101 4294
1101 4690
1101 4946
1102 1506
1102 1683
1102 1708
1102 2059
1102 2506
1102 2514
1102 2579
1102 2602
1102 2673
1102 3533
1102 4105
1102 4110
1102 4151
1102 4336
1102 4416
1102 4515
1102 4591
1102 4619
1102 4778
1103 1792
1103 2230
1103 2569
1103 2582
1103 3042
1103 3059
1103 3121
1103 3475
1103 4358
1103 4434
1104 1785
1104 2092
1104 2236
1104 2350
1104 2597
1104 2629
1104 2651
1104 3023
1104 3126
1104 3259
1104 3304
1104 3415
1104 3704
1104 3805
1104 3879
1104 4008
1104 4119
1104 4364
1104 4411
1104 4630
1105 1553
1105 1651
1105 1736
1105 3032
1105 3113
1105 3879
1105 4152
1105 4444
1105 4785
1105 4889
1105 4957
1106 1108
1106 1112
1106 1548
1106 1817
1106 1830
1106 2075
1106 2087
1106 2570
1106 2626
1106 2824
1106 2997
1106 3252
1106 3315
1106 3363
1106 3555
1106 3614
1106 3628
1106 4408
1106 4445
1106 4749
1106 4916
1107 1496
1107 1794
1107 1939
1107 2057
1107 2186
1107 2301
1107 2352
1107 2543
1107 2639
1107 2664
1107 2690
1107 2796
1107 3660
1107 3787
1107 3964
1107 4102
1107 4218
1107 4286
1108 1290
1108 1650
1108 1808
1108 1866
1108 2253
1108 2640
1108 2679
1108 2692
1108 2718
1108 2739
1108 3125
1108 3165
1108 3379
1108 3952
1108 4258
1108 4272
1108 4625
1108 4696
1108 4700
1108 4739
1109 1939
1109 2472
1109 2743
1109 3012
1109 3141
1109 3291
1109 3761
1109 3783
1109 4087
1109 4161
1109 4235
1109 4236
1109 4446
1109 4675
1109 4757
1109 4812
1109 4977
1110 1135
1110 1419
1110 1425
1110 1636
1110 1670
1110 1686
1110 1807
1110 2393
1110 2833
1110 3117
1110 3210
1110 3258
1110 3412
1110 3610
1110 3725
1110 3826
1110 3878
1110 3901
1110 4084
1110 4280
1110 4354
1110 4697
1110 4904
1111 1363
1111 1659
1111 1690
1111 1744
1111 1919
1111 2118
1111 2165
1111 2807
1111 3033
1111 3280
1111 3570
1111 3861
1111 3873
1111 3906
1111 3973
1111 4019
1111 4544
1111 4568
1111 4575
1111 4905
1111 4993
1112 1306
1112 1344
1112 1407
1112 1496
1112 1501
1112 1672
1112 1673
1112 1780
1112 1844
1112 2069
1112 2289
1112 2296
1112 2509
1112 2517
1112 2592
1112 2593
1112 2604
1112 2629
1112 2986
1112 3189
1112 3430
1112 3481
1112 3532
1112 3668
1112 3845
1112 3899
1112 3946
1112 4210
1112 4213
1112 4227
1112 4331
1112 4419
1112 4448
1112 4488
1112 4602
1112 4678
1112 4941
1113 1647
1113 1859
1113 1941
1113 2757
1113 2889
1113 2943
1113 2956
1113 3193
1113 3953
1113 4069
1113 4886
1114 1833
1114 1901
1114 1906
1114 1984
1114 2396
1114 2398
1114 2481
1114 2551
1114 2618
1114 2718
1114 3147
1114 3717
1114 3773
1114 4101
1114 4222
1114 4255
1114 4271
1114 4473
1114 4551
1115 1176
1115 1755
1115 1938
1115 2139
1115 2755
1115 2959
1115 3342
1115 3456
1115 3991
1115 4112
1115 4266
1115 4347
1115 4429
1115 4503
1115 4511
1115 4814
1115 4857
1115 4913
1116 1213
1116 1261
1116 1994
1116 2078
1116 2287
1116 2339
1116 2424
1116 2508
1116 3194
1116 3394
1116 4442
1116 4676
1116 4686
1116 4755
1116 4900
1117 1124
1117 1125
1117 1151
1117 1264
1117 1470
1117 1639
1117 1687
1117 1749
1117 1791
1117 1855
1117 1861
1117 2192
1117 2381
1117 2412
1117 2743
1117 2754
1117 2840
1117 2897
1117 2967
1117 3009
1117 3232
1117 3496
1117 3643
1117 3650
1117 3726
1117 4085
1117 4102
1117 4407
1117 4523
1117 4757
1118 1140
1118 1155
1118 1355
1118 1603
1118 1728
1118 1850
1118 2036
1118 2634
1118 2940
1118 3200
1118 3248
1118 3305
1118 3648
1118 3694
1118 3753
1118 3889
1118 4311
1119 1471
1119 1719
1119 1729
1119 1913
1119 2328
1119 2534
1119 2546
1119 2686
1119 2870
1119 3065
1119 3179
1119 3425
1119 3433
1119 3506
1119 3759
1119 4032
1119 4118
1119 4533
1119 4611
1119 4655
1119 4789
1119 4805
1119 4851
1119 4988
1120 1133
1120 1287
1120 1499
1120 1547
1120 1688
1120 1823
1120 1875
1120 2472
1120 2520
1120 3934
1120 3950
1120 4213
1120 4410
1120 4580
1120 4742
1120 4846
1121 1145
1121 1238
1121 1348
1121 1440
1121 1590
1121 1672
1121 1938
1121 2041
1121 2107
1121 2610
1121 2908
1121 3189
1121 3801
1121 3821
1121 4061
1121 4106
1121 4108
1121 4395
1122 1137
1122 1220
1122 1404
1122 1483
1122 1534
1122 1587
1122 1618
1122 1655
1122 1683
1122 1711
1122 1735
1122 1814
1122 2026
1122 2035
1122 2047
1122 2137
1122 2151
1122 2190
1122 2197
1122 2243
1122 2323
1122 2422
1122 2464
1122 2487
1122 2588
1122 2641
1122 2671
1122 2686
1122 2764
1122 2826
1122 2865
1122 2931
1122 3023
1122 3032
1122 3057
1122 3201
1122 3292
1122 3353
1122 3362
1122 3364
1122 3382
1122 3398
1122 3410
1122 3427
1122 3432
1122 3444
1122 3467
1122 3510
1122 3524
1122 3664
1122 3699
1122 3718
1122 3866
1122 3872
1122 4032
1122 4232
1122 4273
1122 4353
1122 4426
1122 4443
1122 4482
1122 4496
1122 4526
1122 4622
1122 4635
1122 4728
1122 4818
1122 4847
1122 4997
1123 1213
1123 1222
1123 1258
1123 2139
1123 2617
1123 3083
1123 3108
1123 3150
1123 3162
1123 3494
1123 3553
1123 3569
1123 4181
1123 4205
1123 4232
1123 4275
1123 4306
1123 4338
1123 4468
1123 4910
1124 1125
1124 1160
1124 1171
1124 1217
1124 1245
1124 1478
1124 1513
1124 1818
1124 1825
1124 1840
1124 1902
1124 1944
1124 2038
1124 2044
1124 2075
1124 2120
1124 2124
1124 2132
1124 2335
1124 2516
1124 2629
1124 2828
1124 2843
1124 2850
1124 2964
1124 3071
1124 3106
1124 3198
1124 3244
1124 3361
1124 3421
1124 3441
1124 3448
1124 3456
1124 3469
1124 3484
1124 3529
1124 3541
1124 3627
1124 3702
1124 3846
1124 3849
1124 3946
1124 3980
1124 4087
1124 4150
1124 4326
1124 4470
1124 4649
1124 4676
1124 4719
1124 4752
1124 4841
1124 4917
1124 4998
1125 1303
1125 1428
1125 1457
1125 1518
1125 1586
1125 1639
1125 1923
1125 1952
1125 2202
1125 2260
1125 2279
1125 2412
1125 2418
1125 2468
1125 2628
1125 2756
1125 2778
1125 2814
1125 2850
1125 2914
1125 2959
1125 3001
1125 3037
1125 3134
1125 3239
1125 3691
1125 3750
1125 3844
1125 3927
1125 4546
1125 4682
1125 4695
1125 4817
1125 4959
1126 1245
1126 1339
1126 1996
1126 2478
1126 2561
1126 2566
1126 2641
1126 3113
1126 3165
1126 3408
1126 4099
1126 4605
1126 4680
1126 4914
1127 1216
1127 1339
1127 1340
1127 1403
1127 1601
1127 1620
1127 1665
1127 1797
1127 1880
1127 1884
1127 2155
1127 2812
1127 2993
1127 3063
1127 3130
1127 3152
1127 3225
1127 3250
1127 3276
1127 3706
1127 4210
1127 4354
1127 4467
1127 4889
1127 4900
1128 1163
1128 1511
1128 1781
1128 1813
1128 2124
1128 2425
1128 2517
1128 2637
1128 2689
1128 2708
1128 2886
1128 3054
1128 3106
1128 3315
1128 3344
1128 3400
1128 3519
1128 3995
1128 4086
1128 4142
1128 4188
1128 4337
1128 4509
1128 4579
1128 4747
1128 4868
1129 1362
1129 1555
1129 1838
1129 1911
1129 2021
1129 2218
1129 2578
1129 2841
1129 3155
1129 3555
1129 3840
1129 4000
1130 1307
1130 1323
1130 1657
1130 1734
1130 2086
1130 2258
1130 2292
1130 2554
1130 2609
1130 2922
1130 3092
1130 3425
1130 3963
1130 4034
1130 4072
1130 4308
1130 4322
1130 4613
1130 4683
1130 4886
1130 4973
1131 1261
1131 1302
1131 1372
1131 1891
1131 2005
1131 2195
1131 2245
1131 2250
1131 3061
1131 3297
1131 3415
1131 3583
1131 3703
1131 3773
1131 3860
1131 4069
1131 4230
1131 4341
1131 4428
1131 4732
1131 4862
1131 4925
1132 1154
1132 1770
1132 1963
1132 2118
1132 2372
1132 2389
1132 2541
1132 2670
1132 2725
1132 2839
1132 3317
1132 3699
1132 3705
1132 3782
1132 3813
1132 4112
1132 4145
1132 4394
1133 1218
1133 1606
1133 1709
1133 1723
1133 1952
1133 2006
1133 2250
1133 3248
1133 3678
1133 3800
1133 3970
1133 4339
1133 4589
1134 1158
1134 1528
1134 1789
1134 1940
1134 2062
1134 2112
1134 2215
1134 2388
1134 2741
1134 3291
1134 3705
1134 3776
1134 3923
1134 3981
1134 4420
1134 4662
1135 1255
1135 1416
1135 1586
1135 1645
1135 1686
1135 1959
1135 1999
1135 2253
1135 2609
1135 2896
1135 2937
1135 3244
1135 3540
1135 3594
1135 3676
1135 3717
1135 4084
1135 4160
1135 4615
1135 4935
1136 1199
1136 1371
1136 1745
1136 1771
1136 1930
1136 1961
1136 1975
1136 2376
1136 2420
1136 2442
1136 2512
1136 2563
1136 2597
1136 2725
1136 2885
1136 3263
1136 3820
1136 4029
1136 4126
1136 4255
1136 4272
1136 4852
1136 4993
1137 1146
1137 1195
1137 1360
1137 1368
1137 1405
1137 1462
1137 1465
1137 1939
1137 2021
1137 2118
1137 2214
1137 2378
1137 2610
1137 3081
1137 3242
1137 3525
1137 3649
1137 3871
1137 3920
1137 4492
1137 4950
1138 1164
1138 1263
1138 1498
1138 1741
1138 1904
1138 1931
1138 2612
1138 2615
1138 2740
1138 2902
1138 3087
1138 3340
1138 3383
1138 3501
1138 3728
1138 3930
1138 4001
1138 4306
1138 4485
1138 4856
1138 4935
1138 4936
1139 1368
1139 1417
1139 1870
1139 1962
1139 2577
1139 3001
1139 3178
1139 3321
1139 3480
1139 3698
1139 3849
1139 4215
1139 4641
1139 4969
1140 1329
1140 1836
1140 1948
1140 1957
1140 2040
1140 2052
1140 2144
1140 2200
1140 2628
1140 2643
1140 2654
1140 2671
1140 2724
1140 2753
1140 2942
1140 3001
1140 3078
1140 3134
1140 3311
1140 3480
1140 3505
1140 3535
1140 3618
1140 3640
1140 3658
1140 3702
1140 4052
1140 4770
1140 4959
1140 4989
1141 1426
1141 1481
1141 2008
1141 2592
1141 2804
1141 2817
1141 3068
1141 3109
1141 3483
1141 3765
1141 4544
1141 4849
1142 1216
1142 1396
1142 1771
1142 1866
1142 1996
1142 3061
1142 3113
1142 4527
1142 4609
1142 4766
1143 1310
1143 1513
1143 2106
1143 2132
1143 2265
1143 2997
1143 3009
1143 3038
1143 3244
1143 3982
1143 4270
1143 4952
1144 2222
1144 2597
1144 3122
1144 3394
1144 3706
1144 3925
1144 3960
1144 4184
1144 4199
1144 4658
1144 4966
1145 1347
1145 2105
1145 2125
1145 2190
1145 2356
1145 2374
1145 2382
1145 3254
1145 3313
1145 3359
1145 3525
1145 3548
1145 3789
1145 3836
1145 3936
1146 1815
1146 2193
1146 2206
1146 3042
1146 3294
1146 3299
1146 3440
1146 3531
1146 3631
1146 3697
1146 3814
1146 4235
1146 4422
1146 4757
1146 4937
1146 4947
1147 1190
1147 1243
1147 1549
1147 1604
1147 1629
1147 1632
1147 1887
1147 1919
1147 2119
1147 2266
1147 2304
1147 2313
1147 2345
1147 2608
1147 2619
1147 2882
1147 3365
1147 3460
1147 3938
1147 3983
1147 4174
1147 4177
1147 4353
1147 4366
1147 4398
1147 4400
1147 4504
1147 4764
1148 1462
1148 1491
1148 1876
1148 1911
1148 1938
1148 2157
1148 2159
1148 2610
1148 2677
1148 2859
1148 3470
1148 3512
1148 3581
1148 3603
1148 3626
1148 3649
1148 3850
1148 4096
1148 4404
1148 4414
1148 4525
1149 1344
1149 1899
1149 1970
1149 3018
1149 3202
1149 3613
1149 3812
1149 3897
1149 3991
1149 4947
1149 4970
1150 1339
1150 1383
1150 1430
1150 2134
1150 2262
1150 2862
1150 3336
1150 3410
1150 3453
1150 4296
1150 4423
1150 4529
1150 4741
1150 4873
1150 4938
1151 1231
1151 1309
1151 1508
1151 2222
1151 2377
1151 2743
1151 2753
1151 2791
1151 2897
1151 3483
1151 3504
1151 3569
1151 3625
1151 3640
1151 3657
1151 3746
1151 3754
1151 4131
1151 4703
1152 1249
1152 1370
1152 1463
1152 2081
1152 2099
1152 2513
1152 2632
1152 2668
1152 2710
1152 2889
1152 3074
1152 3088
1152 3704
1152 4002
1152 4080
1152 4103
1152 4173
1152 4283
1152 4485
1152 4709
1152 4755
1153 1496
1153 1531
1153 1631
1153 1680
1153 1727
1153 1739
1153 1799
1153 1870
1153 1963
1153 1990
1153 2312
1153 2373
1153 2521
1153 2626
1153 3128
1153 3224
1153 3451
1153 3566
1153 3668
1153 3879
1153 3891
1153 4016
1153 4210
1153 4318
1153 4468
1153 4471
1153 4676
1153 4805
1154 1474
1154 1486
1154 1507
1154 2087
1154 2938
1154 2952
1154 3374
1154 3421
1154 3675
1154 3747
1154 3896
1154 4445
1154 4623
1155 1539
1155 1643
1155 2195
1155 2422
1155 2434
1155 2463
1155 2993
1155 3201
1155 3241
1155 3259
1155 3476
1155 3568
1155 3596
1155 3878
1155 4805
1156 1310
1156 1339
1156 1573
1156 1582
1156 1793
1156 1889
1156 2391
1156 3000
1156 3105
1156 3412
1156 3577
1156 3843
1156 4407
1156 4481
1156 4527
1156 4780
1156 4946
1157 1434
1157 1744
1157 1981
1157 2347
1157 2516
1157 2544
1157 2752
1157 3133
1157 3219
1157 3795
1157 3934
1157 4077
1157 4909
1158 1274
1158 1293
1158 1601
1158 1769
1158 1959
1158 1986
1158 2024
1158 2043
1158 2161
1158 2166
1158 2215
1158 2316
1158 2922
1158 3103
1158 3295
1158 3317
1158 3767
1158 3898
1158 4014
1158 4055
1158 4095
1158 4247
1158 4618
1158 4683
1158 4752
1158 4870
1159 1550
1159 2215
1159 2234
1159 2756
1159 2819
1159 3012
1159 3219
1159 3258
1159 3334
1159 4054
1159 4101
1159 4142
1159 4231
1159 4498
1159 4697
1160 1787
1160 2375
1160 2437
1160 2891
1160 3285
1160 3657
1160 3866
1160 4286
1160 4674
1160 4940
1161 1803
1161 2218
1161 2238
1161 2855
1161 2964
1161 3475
1161 3715
1161 3755
1161 4088
1161 4772
1161 4864
1162 1214
1162 1223
1162 1810
1162 1969
1162 2056
1162 2240
1162 2778
1162 3104
1162 3387
1162 3388
1162 3449
1162 3941
1162 4210
1162 4386
1162 4466
1163 1272
1163 1279
1163 1748
1163 1866
1163 2060
1163 2129
1163 2417
1163 2607
1163 2626
1163 2692
1163 2895
1163 3335
1163 3405
1163 3432
1163 3713
1163 3835
1163 3962
1163 4167
1163 4200
1163 4238
1163 4263
1163 4321
1163 4500
1163 4505
1163 4610
1163 4657
1163 4867
1164 1284
1164 1355
1164 1466
1164 1941
1164 1964
1164 2048
1164 2442
1164 2618
1164 2880
1164 2985
1164 4332
1165 1367
1165 1395
1165 1528
1165 2008
1165 2284
1165 2492
1165 2562
1165 2590
1165 2625
1165 2656
1165 2683
1165 2692
1165 3113
1165 3275
1165 3352
1165 3625
1165 3726
1165 3814
1165 3894
1165 4358
1165 4957
1166 1210
1166 1234
1166 1251
1166 1401
1166 1701
1166 1748
1166 2164
1166 2165
1166 2201
1166 2247
1166 2286
1166 2425
1166 2601
1166 2813
1166 3305
1166 3602
1166 3625
1166 3908
1166 3962
1166 4054
1166 4321
1166 4500
1167 1536
1167 2077
1167 2099
1167 2271
1167 2410
1167 2535
1167 2571
1167 2835
1167 3642
1167 3819
1167 4144
1167 4360
1167 4664
1167 4928
1168 1557
1168 1646
1168 1666
1168 1876
1168 2071
1168 2148
1168 2221
1168 2356
1168 2407
1168 2497
1168 2583
1168 2639
1168 2653
1168 2663
1168 2667
1168 2687
1168 2693
1168 2708
1168 2729
1168 2788
1168 3048
1168 3277
1168 3281
1168 3316
1168 3326
1168 3381
1168 3431
1168 3825
1168 3857
1168 3947
1168 4208
1168 4211
1168 4254
1168 4375
1168 4452
1168 4507
1168 4509
1168 4612
1168 4637
1168 4715
1168 4743
1168 4777
1168 4787
1168 4881
1168 4893
1169 1306
1169 2026
1169 2099
1169 2177
1169 2287
1169 2350
1169 2388
1169 2409
1169 2833
1169 3194
1169 3427
1169 3857
1169 4042
1169 4077
1169 4173
1169 4182
1169 4205
1169 4286
1169 4306
1169 4370
1170 1940
1170 2588
1170 2595
1170 2740
1170 2937
1170 2993
1170 3258
1170 3488
1170 3518
1170 3593
1170 3706
1170 3742
1170 3878
1170 4904
1170 4912
1171 1546
1171 1659
1171 2134
1171 2267
1171 2503
1171 2769
1171 2861
1171 2981
1171 3307
1171 3555
1171 3748
1171 4053
1171 4198
1171 4420
1171 4483
1171 4485
1171 4697
1172 1267
1172 1392
1172 1510
1172 1572
1172 1591
1172 1787
1172 1797
1172 1829
1172 2019
1172 2740
1172 2781
1172 2889
1172 3054
1172 3232
1172 3324
1172 3325
1172 3384
1172 3472
1172 3610
1172 3794
1172 4354
1172 4598
1173 1227
1173 1348
1173 1829
1173 2118
1173 2266
1173 3095
1173 3233
1173 3389
1173 3398
1173 3560
1173 3603
1173 3649
1173 3996
1173 4013
1173 4206
1173 4464
1174 1227
1174 1417
1174 1529
1174 1688
1174 1755
1174 1761
1174 1784
1174 1911
1174 2105
1174 2218
1174 2265
1174 2386
1174 2686
1174 2796
1174 2996
1174 3117
1174 3192
1174 3195
1174 3551
1174 3649
1174 3740
1174 3796
1174 4905
1175 1213
1175 1222
1175 1583
1175 1844
1175 2004
1175 2018
1175 2094
1175 2184
1175 2213
1175 2318
1175 2358
1175 2381
1175 2409
1175 2443
1175 2473
1175 2541
1175 2644
1175 2647
1175 2659
1175 2700
1175 3010
1175 3020
1175 3674
1175 4077
1175 4103
1175 4153
1175 4283
1175 4304
1175 4399
1175 4407
1175 4430
1176 1248
1176 1267
1176 1530
1176 1597
1176 1956
1176 2085
1176 2176
1176 2311
1176 2438
1176 2605
1176 2684
1176 2830
1176 3107
1176 3210
1176 3384
1176 3408
1176 3615
1176 3707
1176 3781
1176 3922
1176 4591
1176 4902
1176 4979
1177 1195
1177 1350
1177 1384
1177 1457
1177 1848
1177 1876
1177 2067
1177 2217
1177 2982
1177 3095
1177 3160
1177 3506
1177 3542
1177 3551
1177 3564
1177 3755
1177 3785
1177 3840
1177 3996
1177 4013
1177 4290
1178 1881
1178 1971
1178 2050
1178 2057
1178 2236
1178 2418
1178 2605
1178 3023
1178 3097
1178 4086
1178 4531
1178 4535
1178 4546
1178 4593
1178 4600
1178 4732
1179 1185
1179 1274
1179 1291
1179 1824
1179 1995
1179 2096
1179 2346
1179 2360
1179 2507
1179 2663
1179 2724
1179 3465
1179 3638
1179 3666
1179 4124
1180 1317
1180 2008
1180 2043
1180 2140
1180 3191
1180 3288
1180 3458
1180 3608
1180 3616
1180 3617
1180 3645
1180 3771
1180 4089
1180 4361
1180 4855
1181 1203
1181 2865
1181 2993
1181 3107
1181 3477
1181 3556
1181 3581
1181 3645
1181 3969
1181 4084
1181 4111
1181 4821
1181 4936
1182 1224
1182 1779
1182 1963
1182 2037
1182 2051
1182 2062
1182 2455
1182 2470
1182 2696
1182 2837
1182 2886
1182 3067
1182 3173
1182 3269
1182 3275
1182 3372
1182 3475
1182 3582
1182 3714
1182 3772
1182 3890
1182 3992
1182 4106
1182 4112
1182 4147
1182 4269
1182 4284
1182 4594
1183 1245
1183 1611
1183 1952
1183 2025
1183 2054
1183 2418
1183 2528
1183 2734
1183 2823
1183 2956
1183 3083
1183 3398
1183 3754
1183 3761
1183 4083
1183 4145
1183 4198
1183 4411
1183 4646
1183 4682
1184 2117
1184 2130
1184 2144
1184 2233
1184 2298
1184 2786
1184 2976
1184 2997
1184 3086
1184 3426
1184 3565
1184 3774
1184 4163
1184 4164
1184 4226
1184 4273
1184 4497
1185 1190
1185 1291
1185 1465
1185 1821
1185 1934
1185 1959
1185 1975
1185 1982
1185 1986
1185 2042
1185 2043
1185 2068
1185 2169
1185 2172
1185 2187
1185 2348
1185 2387
1185 2398
1185 2475
1185 2495
1185 2497
1185 2576
1185 2593
1185 2687
1185 2815
1185 2926
1185 2954
1185 3057
1185 3069
1185 3278
1185 3465
1185 3671
1185 3807
1185 3908
1185 3942
1185 3946
1185 3965
1185 4014
1185 4188
1185 4284
1185 4319
1185 4349
1185 4777
1185 4866
1185 4920
1185 4940
1185 4944
1185 4970
1185 4973
1185 4981
1186 1205
1186 1228
1186 1318
1186 1368
1186 2177
1186 2277
1186 2443
1186 2508
1186 2837
1186 2852
1186 2938
1186 2958
1186 3236
1186 3569
1186 4172
1186 4205
1186 4223
1186 4232
1187 1383
1187 1820
1187 2214
1187 2215
1187 2373
1187 2557
1187 2604
1187 2623
1187 2816
1187 3041
1187 3396
1187 3736
1187 3940
1187 3973
1187 4007
1187 4075
1187 4775
1187 4916
1188 1200
1188 1212
1188 1276
1188 1497
1188 1528
1188 1572
1188 1615
1188 1684
1188 1707
1188 1741
1188 1789
1188 1899
1188 1970
1188 1971
1188 2013
1188 2193
1188 2289
1188 2484
1188 2628
1188 2783
1188 2802
1188 2987
1188 3129
1188 3238
1188 3253
1188 3269
1188 3319
1188 3345
1188 3347
1188 3496
1188 3515
1188 3551
1188 3705
1188 3706
1188 3841
1188 3910
1188 4059
1188 4109
1188 4288
1188 4358
1188 4382
1188 4538
1188 4633
1188 4885
1188 4909
1189 1751
1189 1940
1189 2350
1189 2525
1189 2739
1189 3548
1189 3783
1189 4293
1189 4477
1189 4564
1189 4692
1189 4813
1190 1237
1190 1256
1190 2684
1190 2739
1190 3302
1190 4374
1190 4376
1190 4528
1190 4529
1190 4700
1190 4752
1190 4786
1190 4981
1191 1340
1191 1582
1191 1621
1191 1623
1191 1725
1191 1881
1191 1932
1191 2157
1191 2781
1191 2824
1191 2834
1191 3107
1191 3186
1191 3206
1191 3318
1191 3373
1191 3406
1191 3557
1191 3609
1191 3615
1191 3922
1191 3924
1191 4043
1191 4173
1191 4778
1191 4881
1191 4904
1192 1403
1192 2072
1192 2104
1192 2265
1192 2350
1192 2480
1192 2778
1192 3014
1192 3139
1192 4413
1192 4505
1192 4624
1192 4863
1193 1317
1193 1469
1193 1525
1193 1798
1193 1961
1193 2504
1193 2511
1193 2603
1193 2777
1193 3052
1193 4001
1193 4048
1193 4072
1193 4190
1193 4615
1194 1537
1194 1709
1194 1740
1194 1863
1194 1878
1194 1922
1194 2211
1194 2261
1194 2427
1194 2525
1194 2604
1194 2651
1194 2750
1194 2947
1194 2960
1194 3006
1194 3104
1194 3148
1194 3374
1194 3381
1194 3761
1194 3969
1194 4006
1194 4164
1194 4653
1195 1460
1195 1846
1195 2533
1195 3051
1195 3265
1195 3287
1195 3603
1195 3710
1195 3743
1195 3744
1195 3850
1195 3998
1195 4290
1195 4579
1195 4842
1196 1405
1196 1660
1196 1985
1196 2376
1196 2398
1196 2548
1196 2649
1196 2685
1196 2690
1196 2744
1196 3386
1196 3713
1196 4472
1197 1493
1197 1521
1197 1922
1197 2361
1197 2430
1197 2532
1197 2688
1197 2721
1197 2900
1197 3155
1197 3306
1197 3759
1197 3919
1197 4381
1197 4405
1197 4621
1197 4627
1197 4635
1197 4760
1198 1264
1198 1276
1198 1538
1198 1597
1198 1843
1198 2202
1198 2225
1198 2425
1198 2519
1198 2595
1198 3422
1198 3516
1198 4084
1198 4999
1199 1745
1199 1755
1199 1893
1199 1975
1199 2284
1199 2541
1199 3198
1199 3263
1199 3462
1199 3469
1199 3816
1199 3935
1199 4103
1199 4199
1199 4361
1199 4404
1199 4658
1200 1325
1200 1879
1200 2207
1200 2365
1200 2393
1200 2406
1200 2625
1200 2848
1200 3129
1200 3149
1200 3352
1200 3438
1200 3530
1200 3531
1200 3779
1200 3824
1200 3897
1200 4010
1200 4097
1200 4142
1200 4237
1200 4406
1200 4481
1200 4564
1200 4633
1200 4665
1200 4751
1200 4823
1200 4955
1201 1246
1201 1375
1201 1466
1201 1486
1201 2926
1201 3451
1201 3968
1201 3991
1201 4103
1201 4262
1201 4670
1202 1212
1202 2121
1202 2447
1202 2814
1202 3217
1202 3243
1202 3253
1202 3416
1202 3528
1202 3987
1202 4060
1202 4352
1202 4358
1202 4921
1203 1339
1203 1534
1203 1655
1203 1891
1203 1925
1203 2047
1203 2414
1203 2419
1203 2606
1203 2618
1203 2686
1203 2858
1203 2884
1203 3216
1203 3382
1203 3607
1203 3974
1203 4235
1203 4240
1203 4608
1203 4622
1203 4648
1203 4790
1203 4818
1203 4914
1203 4976
1203 4996
1204 1640
1204 1693
1204 1699
1204 1897
1204 2396
1204 2878
1204 2964
1204 3446
1204 3898
1204 4322
1204 4515
1205 1363
1205 1583
1205 1964
1205 1967
1205 2048
1205 2357
1205 2697
1205 2809
1205 2983
1205 3381
1205 3459
1205 3789
1205 4036
1205 4073
1205 4081
1205 4196
1205 4641
1205 4691
1205 4773
1205 4865
1205 4905
1206 1276
1206 1746
1206 2247
1206 2294
1206 2746
1206 2914
1206 2980
1206 3012
1206 3277
1206 3832
1206 3999
1206 4007
1206 4101
1206 4296
1206 4395
1206 4448
1206 4692
1206 4843
1207 1278
1207 1351
1207 1703
1207 1886
1207 3550
1207 3946
1207 4142
1207 4218
1207 4448
1207 4527
1207 4535
1208 1230
1208 1416
1208 1536
1208 1569
1208 1642
1208 1790
1208 1807
1208 1856
1208 1931
1208 1965
1208 2740
1208 2834
1208 2871
1208 2916
1208 2946
1208 3727
1208 4258
1208 4325
1208 4352
1208 4885
1208 4902
1209 1211
1209 1457
1209 1967
1209 2003
1209 2235
1209 2251
1209 2530
1209 2671
1209 3126
1209 3289
1209 3365
1209 3750
1209 3854
1209 4422
1209 4460
1209 4769
1210 1528
1210 1748
1210 2167
1210 2215
1210 2455
1210 2466
1210 2492
1210 2660
1210 3202
1210 3404
1210 3405
1210 3566
1210 3602
1210 4500
1211 1428
1211 1660
1211 2087
1211 2173
1211 2577
1211 2719
1211 2821
1211 2987
1211 3009
1211 3381
1211 4085
1211 4769
1211 4781
1212 1716
1212 1899
1212 2013
1212 2109
1212 2172
1212 2243
1212 2266
1212 2393
1212 2562
1212 2625
1212 2725
1212 2795
1212 2956
1212 2987
1212 3002
1212 3018
1212 3247
1212 3338
1212 3508
1212 3615
1212 3778
1212 3994
1212 4093
1212 4536
1212 4645
1213 1252
1213 1368
1213 2102
1213 2123
1213 2177
1213 2213
1213 2243
1213 2468
1213 2508
1213 3049
1213 3194
1213 3757
1213 4077
1213 4306
1213 4462
1213 4489
1213 4517
1213 4935
1214 1234
1214 1411
1214 1833
1214 2109
1214 2114
1214 2529
1214 2573
1214 2929
1214 2957
1214 3015
1214 3062
1214 3463
1214 3484
1214 3525
1214 3603
1214 3660
1214 3743
1214 4310
1214 4339
1214 4424
1214 4944
1215 1352
1215 1493
1215 1572
1215 1695
1215 1738
1215 1879
1215 2115
1215 2133
1215 2296
1215 2387
1215 2500
1215 2625
1215 2739
1215 2834
1215 3221
1215 3294
1215 3352
1215 3613
1215 3703
1215 3705
1215 3812
1215 3967
1215 4037
1215 4145
1215 4200
1215 4301
1215 4356
1215 4358
1215 4394
1215 4672
1216 1256
1216 1312
1216 2255
1216 2312
1216 2347
1216 2691
1216 2916
1216 3733
1216 3966
1216 4075
1216 4485
1216 4681
1216 4966
1216 4983
1217 1553
1217 1660
1217 1967
1217 2083
1217 2165
1217 2702
1217 2771
1217 2897
1217 3138
1217 3495
1217 3878
1217 4135
1218 1435
1218 1882
1218 1910
1218 2048
1218 2436
1218 2475
1218 2796
1218 2957
1218 3007
1218 3152
1218 3251
1218 3458
1218 3646
1218 3698
1218 3789
1218 4020
1218 4681
1218 4823
1219 2181
1219 2455
1219 2480
1219 2738
1219 2793
1219 3812
1219 3938
1219 4062
1219 4639
1219 4781
1220 1336
1220 1339
1220 1365
1220 1383
1220 1853
1220 1955
1220 2589
1220 2917
1220 3197
1220 3735
1220 3971
1220 3986
1220 4412
1221 2297
1221 2315
1221 2509
1221 3675
1221 3723
1221 3826
1221 4060
1221 4545
1221 4880
1222 2255
1222 2261
1222 2443
1222 2508
1222 2600
1222 3194
1222 3569
1222 3881
1222 4103
1222 4283
1222 4338
1222 4382
1222 4412
1222 4489
1222 4749
1222 4755
1223 1309
1223 1723
1223 2100
1223 2113
1223 2463
1223 2508
1223 2527
1223 2618
1223 2619
1223 3700
1223 4013
1223 4020
1223 4028
1223 4266
1223 4361
1223 4610
1224 1273
1224 1331
1224 1425
1224 1814
1224 1835
1224 2338
1224 2514
1224 2726
1224 2937
1224 2987
1224 3117
1224 3158
1224 3372
1224 3431
1224 3475
1224 3560
1224 3641
1224 3932
1224 4157
1224 4178
1224 4497
1224 4536
1224 4754
1224 4771
1224 4872
1224 4932
1225 1599
1225 2106
1225 2212
1225 2472
1225 2800
1225 2817
1225 3298
1225 3522
1225 3625
1225 3647
1225 3691
1225 3827
1225 3851
1225 3861
1225 4989
1226 1473
1226 1541
1226 1767
1226 1929
1226 2239
1226 2247
1226 2256
1226 2853
1226 2914
1226 3277
1226 3550
1226 3619
1226 4342
1226 4409
1226 4931
1227 1335
1227 2144
1227 2411
1227 2457
1227 2508
1227 2609
1227 3172
1227 3181
1227 3399
1227 3757
1227 3884
1227 4305
1228 1937
1228 2233
1228 2501
1228 2861
1228 2875
1228 3098
1228 3625
1228 3854
1228 4084
1228 4373
1228 4907
1228 4952
1229 1284
1229 1469
1229 1490
1229 1523
1229 1711
1229 2072
1229 2465
1229 2596
1229 2986
1229 3186
1229 3270
1229 3581
1229 3812
1229 3860
1229 4060
1229 4069
1230 1263
1230 1439
1230 1557
1230 1790
1230 2574
1230 2790
1230 2988
1230 3728
1230 4073
1230 4601
1230 4927
1231 1482
1231 1488
1231 1565
1231 2142
1231 2233
1231 2469
1231 2653
1231 2730
1231 2735
1231 2740
1231 3550
1231 3688
1231 4142
1231 4279
1231 4715
1231 4797
1231 4832
1231 4894
1231 4906
1231 4908
1231 4980
1232 1310
1232 1394
1232 1399
1232 2447
1232 2755
1232 2930
1232 3130
1232 3276
1232 3340
1232 3477
1232 3662
1232 4664
1232 4838
1233 1477
1233 1507
1233 1744
1233 1979
1233 1985
1233 2140
1233 2162
1233 2442
1233 2467
1233 2509
1233 2775
1233 3358
1233 3422
1233 3436
1233 3887
1233 4239
1233 4367
1233 4589
1233 4813
1234 2161
1234 2503
1234 3090
1234 3316
1234 3415
1234 3525
1234 3606
1234 3633
1234 4225
1234 4234
1234 4244
1234 4468
1234 4806
1235 1301
1235 1384
1235 1843
1235 2208
1235 3977
1235 4219
1235 4623
1235 4665
1235 4909
1235 4918
1236 2153
1236 2310
1236 2377
1236 2632
1236 3048
1236 3352
1236 3478
1236 3499
1236 4270
1237 1649
1237 1751
1237 1875
1237 2192
1237 2197
1237 2227
1237 2478
1237 2685
1237 2692
1237 2739
1237 2840
1237 2904
1237 3262
1237 3372
1237 3672
1237 3760
1237 3814
1237 4470
1237 4528
1237 4641
1238 1241
1238 1595
1238 1813
1238 2323
1238 2395
1238 2414
1238 2517
1238 2675
1238 3344
1238 3701
1238 3995
1238 4605
1238 4747
1239 1268
1239 1707
1239 2143
1239 2921
1239 2972
1239 3283
1239 3883
1239 4147
1239 4185
1239 4323
1239 4382
1239 4596
1240 1248
1240 1311
1240 1934
1240 2169
1240 2316
1240 2609
1240 3898
1240 4175
1240 4276
1240 4475
1240 4785
1240 4951
1241 1327
1241 1464
1241 2397
1241 2972
1241 3142
1241 3306
1241 3545
1241 3578
1241 3705
1241 3757
1241 3805
1241 3983
1241 4154
1241 4444
1241 4499
1241 4596
1241 4647
1241 4655
1241 4658
1241 4808
1242 1398
1242 1585
1242 1716
1242 1899
1242 1941
1242 2008
1242 2197
1242 2590
1242 2965
1242 3003
1242 3372
1242 3482
1242 4070
1242 4111
1242 4301
1242 4369
1242 4489
1242 4801
1242 4947
1243 1338
1243 1592
1243 1859
1243 2012
1243 2573
1243 2680
1243 2799
1243 2862
1243 3093
1243 3113
1243 3534
1243 3571
1243 3943
1243 4248
1243 4522
1243 4614
1243 4622
1243 4741
1243 4976
1243 4997
1244 1473
1244 2170
1244 2299
1244 2472
1244 2616
1244 2729
1244 2842
1244 2947
1244 3247
1244 3480
1244 3522
1244 3618
1244 3982
1244 4235
1244 4547
1245 1285
1245 1591
1245 1752
1245 2175
1245 2422
1245 2573
1245 2719
1245 3300
1245 3340
1245 3678
1245 3716
1245 4211
1245 4263
1245 4667
1245 4845
1245 4950
1245 4977
1246 1295
1246 1416
1246 2589
1246 2622
1246 2913
1246 3359
1246 3620
1246 3690
1246 3735
1246 3976
1246 4164
1246 4513
1246 4594
1246 4606
1246 4660
1246 4818
1247 1575
1247 1631
1247 1869
1247 2052
1247 2181
1247 3071
1247 3090
1247 3182
1247 3321
1247 3325
1247 4380
1247 4677
1247 4805
1247 4861
1248 1796
1248 1866
1248 3588
1248 3916
1248 4121
1248 4357
1248 4414
1248 4432
1248 4828
1248 4999
1249 1261
1249 1441
1249 1473
1249 1481
1249 1592
1249 1605
1249 1641
1249 1983
1249 1986
1249 2081
1249 2099
1249 2146
1249 2210
1249 2337
1249 2409
1249 2421
1249 2433
1249 2450
1249 2488
1249 2505
1249 2508
1249 2575
1249 2594
1249 2613
1249 2659
1249 3020
1249 3061
1249 3088
1249 3096
1249 3507
1249 3524
1249 4052
1249 4077
1249 4153
1249 4173
1249 4275
1249 4338
1249 4427
1249 4430
1249 4468
1249 4620
1250 1816
1250 2784
1250 3009
1250 3209
1250 3475
1250 3657
1250 3705
1250 3892
1250 4253
1251 1264
1251 1279
1251 1401
1251 1748
1251 1752
1251 2425
1251 2607
1251 2637
1251 2660
1251 2705
1251 3726
1251 3914
1251 4200
1251 4201
1251 4235
1251 4349
1251 4498
1251 4581
1251 4723
1251 4867
1252 1327
1252 1986
1252 2443
1252 2644
1252 2704
1252 3020
1252 3144
1252 3194
1252 4156
1252 4427
1252 4461
1252 4489
1252 4601
1253 1256
1253 1337
1253 1367
1253 1444
1253 1514
1253 1849
1253 1943
1253 2058
1253 2073
1253 2305
1253 2592
1253 2655
1253 2825
1253 3024
1253 3138
1253 3184
1253 3385
1253 3533
1253 3568
1253 3934
1253 4057
1253 4346
1253 4614
1253 4708
1253 4734
1254 1487
1254 2069
1254 2346
1254 2467
1254 2475
1254 2841
1254 2919
1254 2988
1254 3141
1254 3159
1254 3224
1254 3822
1254 3833
1254 3988
1254 4116
1254 4342
1254 4372
1254 4519
1254 4553
1254 4561
1255 1468
1255 1686
1255 1793
1255 1861
1255 1867
1255 2198
1255 2495
1255 3214
1255 3428
1255 3664
1255 3760
1255 3887
1255 4064
1255 4091
1255 4511
1255 4770
1255 4861
1256 1296
1256 1358
1256 1369
1256 1381
1256 1407
1256 1501
1256 1563
1256 1613
1256 1672
1256 1735
1256 1756
1256 1808
1256 1858
1256 1897
1256 2128
1256 2175
1256 2285
1256 2312
1256 2371
1256 2456
1256 2592
1256 2647
1256 2657
1256 2662
1256 2668
1256 2699
1256 2817
1256 2841
1256 2854
1256 2974
1256 3046
1256 3059
1256 3064
1256 3106
1256 3109
1256 3111
1256 3268
1256 3320
1256 3386
1256 3481
1256 3616
1256 3650
1256 3695
1256 3761
1256 3816
1256 3831
1256 3900
1256 3934
1256 3979
1256 4122
1256 4128
1256 4165
1256 4171
1256 4178
1256 4346
1256 4359
1256 4420
1256 4496
1256 4640
1256 4690
1256 4744
1256 4761
1256 4825
1256 4945
1256 4966
1256 4972
1257 1495
1257 1713
1257 1796
1257 1801
1257 2203
1257 2580
1257 3588
1257 3905
1257 4528
1257 4610
1257 4721
1257 4828
1257 4882
1258 2113
1258 2233
1258 2255
1258 2493
1258 2817
1258 3063
1258 3332
1258 3758
1258 4331
1258 4418
1258 4676
1259 2250
1259 2270
1259 2302
1259 3009
1259 3062
1259 3363
1259 4043
1259 4085
1259 4269
1259 4561
1260 1315
1260 2100
1260 2157
1260 2232
1260 2732
1260 2944
1260 3018
1260 3254
1260 3507
1260 3608
1260 4017
1260 4034
1260 4089
1260 4381
1260 4574
1260 4689
1260 4706
1260 4970
1261 1601
1261 1882
1261 1989
1261 2078
1261 2184
1261 2327
1261 2443
1261 2594
1261 2659
1261 3073
1261 3194
1261 3345
1261 4412
1261 4770
1262 1267
1262 1273
1262 1339
1262 2215
1262 3192
1262 3413
1262 3438
1262 4197
1262 4248
1262 4332
1263 1279
1263 1468
1263 1582
1263 1601
1263 1686
1263 1915
1263 2499
1263 2690
1263 2946
1263 2993
1263 3477
1263 3552
1263 3594
1263 3759
1263 3806
1263 3915
1263 4321
1263 4357
1263 4904
1264 1466
1264 1748
1264 2241
1264 2265
1264 3014
1264 3163
1264 3454
1264 4500
1264 4505
1264 4683
1264 4867
1265 1601
1265 1686
1265 1956
1265 1998
1265 2995
1265 3378
1265 3478
1265 3549
1265 3550
1265 3707
1265 3814
1265 3843
1265 4260
1265 4344
1265 4457
1265 4804
1265 4946
1266 1317
1266 1552
1266 1838
1266 1917
1266 1978
1266 2350
1266 2368
1266 2690
1266 2946
1266 2949
1266 3082
1266 3096
1266 3146
1266 3205
1266 4150
1266 4564
1266 4783
1266 4836
1266 4911
1267 1403
1267 1793
1267 2454
1267 2564
1267 2642
1267 3143
1267 3395
1267 3676
1267 3706
1267 3794
1267 4018
1267 4043
1267 4160
1267 4492
1268 1526
1268 1785
1268 2085
1268 2492
1268 2527
1268 2975
1268 3145
1268 3152
1268 3155
1268 3403
1268 3562
1268 3644
1268 3663
1268 3692
1268 3721
1269 1354
1269 1413
1269 1593
1269 1602
1269 1819
1269 1848
1269 1881
1269 1898
1269 1913
1269 2026
1269 2055
1269 2146
1269 2178
1269 2212
1269 2217
1269 2229
1269 2536
1269 3177
1269 3195
1269 3350
1269 3393
1269 3464
1269 3470
1269 3564
1269 3581
1269 3618
1269 3649
1269 3879
1269 4000
1269 4013
1269 4217
1269 4220
1269 4425
1269 4539
1269 4776
1269 4967
1269 4994
1270 1285
1270 1359
1270 2394
1270 2480
1270 2870
1270 3805
1270 3874
1270 4307
1270 4402
1270 4542
1270 4675
1270 4892
1271 1442
1271 1653
1271 1696
1271 1733
1271 1751
1271 2198
1271 2523
1271 2667
1271 2826
1271 3473
1271 4252
1271 4519
1271 4892
1272 1343
1272 1926
1272 2071
1272 2097
1272 2455
1272 2463
1272 2607
1272 2813
1272 2882
1272 3375
1272 3478
1272 3653
1272 3728
1272 3774
1272 3835
1272 3884
1272 4200
1272 4505
1272 4657
1273 1550
1273 2377
1273 2725
1273 2748
1273 3124
1273 3159
1273 3462
1273 3568
1273 3651
1273 4112
1273 4399
1273 4482
1273 4878
1274 1339
1274 1841
1274 1906
1274 1971
1274 2068
1274 2092
1274 2100
1274 2232
1274 2258
1274 2316
1274 2380
1274 2583
1274 2609
1274 2623
1274 2747
1274 2843
1274 3283
1274 3363
1274 3454
1274 3465
1274 3852
1274 3937
1274 3963
1274 3965
1274 3988
1274 4005
1274 4045
1274 4089
1274 4584
1274 4665
1274 4826
1274 4970
1275 2127
1275 2383
1275 2417
1275 2468
1275 2495
1275 2807
1275 2864
1275 2936
1275 4034
1275 4429
1275 4594
1275 4611
1275 4614
1275 4651
1275 4789
1276 2515
1276 2740
1276 2781
1276 2932
1276 2997
1276 3471
1276 3494
1276 3822
1276 4366
1276 4466
1276 4786
1276 4789
1276 4821
1277 1290
1277 1513
1277 1854
1277 2296
1277 2744
1277 2899
1277 3077
1277 3093
1277 3128
1277 3399
1277 3566
1277 4013
1277 4420
1277 4440
1277 4556
1277 4651
1277 4916
1278 1885
1278 2180
1278 2297
1278 2818
1278 3104
1278 3279
1278 3560
1278 3722
1278 3864
1278 3960
1278 4013
1278 4196
1278 4361
1278 4905
1279 1364
1279 1700
1279 1822
1279 2425
1279 2686
1279 3641
1279 3653
1279 3884
1279 4245
1279 4263
1279 4469
1279 4748
1279 4879
1280 1570
1280 1821
1280 2035
1280 2487
1280 2884
1280 2965
1280 3904
1280 4648
1280 4672
1280 4910
1281 1648
1281 1721
1281 2725
1281 3238
1281 3416
1281 3639
1281 3992
1281 4119
1281 4533
1281 4890
1282 1364
1282 1792
1282 1882
1282 2004
1282 2137
1282 2786
1282 2787
1282 2881
1282 3076
1282 3104
1282 3212
1282 3728
1282 3884
1282 3918
1282 3982
1282 4139
1282 4200
1282 4433
1282 4500
1282 4756
1282 4891
1283 1361
1283 1399
1283 1549
1283 1616
1283 1723
1283 2175
1283 2257
1283 2426
1283 2873
1283 3091
1283 3115
1283 3358
1283 3359
1283 3984
1283 4315
1283 4345
1283 4828
1284 1738
1284 1917
1284 2045
1284 2250
1284 2255
1284 2265
1284 2989
1284 3040
1284 3061
1284 3082
1284 3149
1284 3314
1284 3445
1284 3795
1284 3813
1284 3835
1284 3943
1284 4207
1285 1664
1285 1825
1285 1852
1285 2626
1285 2893
1285 2994
1285 4225
1285 4770
1285 4801
1285 4895
1285 4922
1286 1509
1286 1767
1286 1873
1286 2254
1286 2303
1286 2914
1286 2922
1286 2950
1286 3539
1286 3550
1286 3597
1286 3921
1286 4281
1286 4296
1286 4458
1286 4626
1287 1348
1287 1488
1287 1588
1287 1626
1287 1688
1287 1767
1287 1823
1287 2207
1287 2254
1287 2291
1287 2422
1287 2924
1287 3029
1287 3292
1287 3514
1287 3686
1287 3851
1287 3865
1287 4439
1287 4612
1287 4702
1287 4742
1287 4846
1287 4854
1288 1581
1288 2570
1288 2743
1288 2760
1288 3106
1288 3141
1288 3451
1288 4748
1288 4757
1288 4769
1289 1893
1289 2626
1289 3139
1289 3690
1289 4024
1289 4043
1289 4054
1289 4164
1289 4171
1289 4320
1289 4393
1289 4553
1290 1546
1290 1574
1290 1586
1290 1744
1290 1979
1290 2117
1290 2927
1290 3152
1290 3251
1290 3259
1290 3279
1290 3658
1290 4653
1291 1407
1291 1722
1291 1926
1291 2031
1291 2096
1291 2215
1291 2316
1291 2351
1291 2922
1291 3195
1291 3218
1291 3240
1291 3786
1291 4272
1291 4378
1291 4484
1291 4981
1292 1706
1292 2386
1292 3009
1292 3066
1292 3228
1292 3251
1292 3404
1292 3441
1292 3480
1292 3541
1292 4371
1292 4926
1293 1550
1293 1738
1293 1855
1293 2147
1293 2394
1293 2428
1293 2836
1293 3049
1293 3264
1293 4402
1293 4460
1293 4913
1294 1926
1294 1987
1294 2023
1294 2101
1294 2112
1294 2241
1294 2455
1294 2466
1294 2770
1294 2979
1294 3405
1294 3432
1294 3657
1294 3788
1294 4071
1295 1683
1295 1718
1295 2008
1295 2047
1295 2534
1295 2864
1295 2884
1295 2900
1295 3418
1295 3643
1295 4248
1295 4283
1295 4672
1295 4702
1296 1474
1296 2014
1296 2062
1296 2400
1296 2569
1296 2610
1296 3189
1296 3269
1296 3447
1296 3582
1296 3638
1296 4143
1296 4666
1297 1723
1297 1734
1297 1766
1297 2185
1297 2937
1297 3008
1297 3503
1297 4290
1297 4488
1297 4516
1297 4675
1297 4905
1298 1461
1298 1504
1298 1560
1298 1568
1298 2079
1298 2503
1298 3097
1298 3117
1298 4286
1298 4574
1298 4586
1298 4736
1299 1368
1299 1393
1299 1634
1299 1983
1299 2213
1299 2508
1299 2592
1299 2644
1299 2919
1299 2998
1299 3194
1299 3564
1299 4181
1299 4306
1299 4338
1299 4563
1299 4712
1300 1485
1300 2035
1300 2046
1300 2147
1300 2191
1300 2483
1300 3079
1300 3472
1300 3654
1300 3748
1300 4204
1300 4534
1300 4610
1300 4659
1300 4937
1301 1446
1301 1477
1301 1563
1301 1604
1301 1732
1301 1784
1301 1991
1301 2082
1301 2119
1301 2304
1301 2352
1301 2395
1301 2964
1301 3056
1301 3198
1301 3365
1301 3429
1301 3887
1301 4135
1301 4177
1301 4353
1301 4374
1301 4398
1301 4400
1301 4517
1301 4754
1302 1363
1302 1475
1302 1529
1302 1671
1302 1911
1302 2150
1302 2989
1302 3016
1302 3126
1302 3135
1302 3139
1302 3205
1302 3235
1302 3605
1302 3732
1302 3879
1302 3903
1302 4343
1302 4364
1302 4397
1302 4403
1302 4593
1302 4732
1302 4987
1303 1447
1303 1575
1303 1628
1303 1660
1303 2798
1303 2872
1303 2963
1303 3009
1303 3225
1303 3625
1303 3746
1303 4023
1303 4030
1303 4508
1303 4513
1303 4591
1304 2022
1304 2115
1304 2484
1304 2590
1304 2686
1304 3158
1304 3226
1304 3474
1304 3705
1304 3776
1304 3814
1304 3956
1304 4076
1304 4175
1304 4876
1305 1754
1305 2361
1305 2559
1305 2707
1305 2882
1305 2904
1305 3049
1305 3428
1305 3612
1305 3944
1305 4091
1305 4510
1305 4616
1305 4910
1306 1348
1306 1470
1306 2105
1306 2149
1306 2156
1306 2211
1306 2306
1306 2382
1306 2757
1306 3086
1306 3297
1306 3548
1306 3549
1306 3603
1306 3683
1306 3996
1306 4053
1306 4220
1306 4250
1306 4290
1306 4464
1306 4795
1306 4965
1307 1356
1307 1847
1307 1904
1307 2042
1307 2096
1307 2224
1307 2813
1307 2878
1307 2920
1307 2937
1307 2953
1307 3069
1307 3937
1307 3939
1307 3942
1307 4140
1307 4200
1307 4446
1307 4481
1307 4559
1307 4855
1307 4973
1308 1610
1308 2533
1308 2566
1308 2817
1308 3012
1308 3241
1308 3268
1308 3336
1308 3721
1308 3883
1308 3939
1308 4423
1308 4511
1308 4529
1308 4622
1309 1505
1309 1515
1309 1599
1309 1704
1309 1979
1309 2262
1309 2461
1309 2568
1309 2700
1309 2935
1309 3090
1309 3219
1309 3698
1309 3872
1310 2162
1310 2199
1310 2456
1310 2461
1310 2796
1310 2976
1310 3063
1310 3184
1310 3332
1310 3395
1310 4002
1310 4084
1311 1463
1311 1514
1311 1571
1311 1651
1311 1687
1311 1708
1311 1827
1311 1896
1311 1932
1311 1957
1311 2035
1311 2088
1311 2174
1311 2189
1311 2226
1311 2282
1311 2293
1311 2472
1311 2671
1311 2703
1311 2712
1311 2724
1311 2750
1311 2810
1311 2963
1311 3018
1311 3725
1311 3808
1311 3975
1311 3998
1311 4027
1311 4228
1311 4233
1311 4337
1311 4339
1311 4368
1311 4386
1311 4499
1311 4503
1311 4731
1311 4746
1311 4750
1311 4971
1312 1660
1312 1762
1312 2012
1312 2061
1312 2368
1312 2699
1312 2769
1312 2785
1312 2817
1312 3013
1312 3277
1312 3544
1312 3569
1312 3904
1312 4133
1312 4377
1312 4519
1312 4726
1312 4744
1312 4768
1313 1456
1313 2031
1313 2412
1313 2649
1313 2674
1313 2762
1313 3065
1313 3609
1313 3620
1313 3887
1313 4036
1313 4199
1313 4572
1313 4614
1313 4651
1313 4789
1314 1394
1314 1428
1314 1481
1314 1556
1314 1834
1314 1920
1314 1965
1314 2933
1314 3210
1314 3408
1314 3593
1314 3637
1314 3663
1314 3696
1314 3947
1314 4001
1314 4084
1314 4380
1314 4515
1314 4821
1314 4937
1315 2422
1315 2504
1315 2566
1315 2959
1315 3023
1315 3644
1315 3721
1315 3835
1315 4529
1315 4611
1315 4800
1316 1409
1316 1534
1316 1669
1316 1730
1316 2396
1316 2509
1316 2770
1316 2969
1316 3034
1316 3197
1316 3433
1316 4436
1316 4767
1317 1343
1317 1474
1317 1486
1317 1579
1317 1631
1317 2138
1317 2461
1317 2568
1317 2880
1317 2897
1317 3332
1317 3458
1317 3554
1317 3609
1317 3763
1317 3897
1317 3906
1317 3911
1317 4073
1317 4219
1317 4412
1317 4460
1317 4653
1317 4665
1318 1626
1318 2063
1318 2254
1318 3083
1318 4052
1318 4077
1318 4103
1318 4275
1318 4412
1318 4480
1318 4489
1318 4599
1319 1362
1319 1899
1319 2143
1319 2595
1319 2625
1319 2688
1319 2945
1319 2994
1319 3007
1319 3095
1319 3121
1319 3275
1319 3446
1319 3563
1319 3576
1319 3707
1319 3992
1319 4147
1319 4157
1319 4158
1319 4301
1319 4732
1319 4948
1320 2015
1320 2059
1320 2103
1320 2277
1320 2726
1320 4142
1320 4169
1320 4179
1320 4200
1320 4598
1320 4754
1320 4781
1321 1552
1321 1711
1321 1854
1321 2023
1321 2120
1321 2245
1321 2629
1321 3677
1321 3879
1321 4487
1321 4750
1322 1355
1322 1362
1322 1564
1322 1652
1322 1899
1322 1955
1322 2341
1322 3025
1322 3171
1322 3475
1322 3757
1322 4010
1322 4287
1322 4406
1323 1578
1323 1645
1323 2577
1323 2610
1323 3238
1323 3413
1323 3785
1323 4013
1323 4054
1323 4338
1323 4464
1323 4892
1324 1439
1324 1509
1324 1540
1324 1861
1324 2338
1324 2977
1324 3341
1324 3922
1324 4375
1324 4888
1324 4896
1324 4957
1325 1422
1325 2134
1325 2501
1325 2862
1325 2899
1325 3142
1325 3443
1325 3943
1325 3974
1325 4874
1325 4946
1326 1405
1326 1464
1326 2592
1326 2695
1326 2738
1326 2978
1326 3007
1326 3643
1326 3772
1326 4183
1326 4236
1326 4612
1326 4653
1326 4681
1326 4772
1327 2056
1327 2397
1327 2993
1327 3584
1327 3648
1327 4058
1327 4239
1327 4290
1327 4422
1327 4632
1327 4760
1327 4931
1327 4974
1328 1568
1328 1618
1328 1718
1328 2702
1328 2711
1328 3184
1328 3966
1328 4053
1328 4194
1328 4253
1328 4436
1328 4538
1328 4736
1328 4868
1329 1459
1329 1832
1329 1938
1329 2659
1329 2695
1329 2729
1329 2976
1329 3319
1329 3391
1329 3657
1329 3988
1329 4214
1329 4675
1330 1352
1330 1399
1330 1403
1330 1671
1330 1701
1330 1950
1330 2132
1330 2439
1330 2590
1330 2656
1330 2708
1330 3022
1330 3294
1330 3399
1330 3416
1330 3600
1330 3641
1330 4278
1330 4369
1330 4921
1330 4976
1331 1491
1331 1860
1331 1928
1331 2419
1331 2540
1331 2634
1331 3316
1331 3521
1331 3633
1331 3714
1331 4290
1331 4495
1332 1393
1332 1627
1332 2565
1332 2594
1332 2758
1332 3523
1332 4034
1332 4104
1332 4146
1332 4457
1333 1773
1333 2134
1333 2190
1333 2299
1333 2566
1333 3294
1333 3812
1333 4426
1333 4444
1333 4622
1333 4650
1333 4671
1333 4997
1334 1375
1334 2196
1334 2284
1334 2440
1334 2706
1334 2727
1334 3049
1334 3457
1334 3500
1334 3679
1334 4036
1334 4217
1334 4378
1334 4767
1335 1436
1335 1468
1335 2133
1335 2181
1335 2852
1335 3193
1335 3232
1335 3410
1335 3435
1335 3735
1335 4083
1335 4097
1335 4123
1336 1454
1336 1677
1336 3009
1336 3172
1336 3175
1336 3182
1336 3366
1336 3746
1336 4222
1336 4905
1336 4940
1336 4989
1337 2090
1337 2234
1337 2357
1337 2837
1337 2973
1337 3107
1337 3439
1337 4016
1337 4412
1337 4422
1337 4547
1338 2099
1338 2378
1338 2489
1338 2836
1338 3121
1338 3211
1338 3627
1338 3941
1338 4621
1338 4706
1339 1372
1339 1481
1339 1552
1339 1774
1339 1780
1339 1916
1339 2262
1339 2337
1339 2358
1339 2553
1339 2672
1339 2889
1339 2923
1339 2939
1339 2963
1339 2979
1339 3039
1339 3252
1339 3367
1339 3409
1339 3536
1339 3607
1339 3664
1339 3754
1339 3865
1339 4270
1339 4300
1339 4301
1339 4377
1339 4461
1339 4608
1339 4679
1339 4680
1339 4685
1339 4713
1339 4745
1339 4785
1339 4790
1339 4829
1339 4847
1339 4888
1339 4903
1340 1468
1340 1620
1340 1709
1340 2319
1340 2607
1340 2949
1340 3171
1340 3252
1340 3258
1340 3442
1340 3593
1340 3725
1340 3993
1341 1427
1341 2269
1341 2347
1341 2419
1341 2490
1341 2623
1341 2641
1341 3051
1341 3093
1341 3104
1341 3279
1341 3616
1341 3717
1341 3789
1341 4012
1341 4049
1341 4367
1341 4503
1341 4545
1341 4589
1341 4626
1341 4653
1341 4905
1341 4956
1342 1370
1342 1698
1342 1747
1342 2815
1342 2845
1342 2866
1342 3002
1342 3008
1342 3188
1342 3418
1342 3464
1342 3767
1342 3866
1342 4092
1342 4746
1342 4800
1343 1517
1343 2201
1343 2238
1343 2274
1343 2392
1343 2490
1343 2743
1343 2882
1343 3250
1343 3638
1343 4101
1343 4316
1343 4376
1343 4457
1343 4507
1343 4542
1343 4588
1343 4632
1344 1346
1344 1418
1344 1672
1344 1673
1344 1720
1344 1788
1344 2073
1344 2204
1344 2246
1344 2340
1344 2725
1344 2786
1344 2916
1344 3128
1344 3169
1344 3180
1344 3182
1344 3328
1344 3387
1344 3399
1344 3524
1344 3811
1344 3996
1344 4313
1344 4362
1344 4418
1344 4485
1344 4498
1344 4574
1344 4676
1344 4678
1344 4697
1344 4882
1344 4957
1344 4971
1345 1641
1345 2095
1345 2372
1345 2462
1345 2893
1345 2942
1345 3010
1345 3891
1345 4105
1345 4428
1345 4494
1346 2260
1346 2286
1346 2311
1346 2503
1346 2626
1346 2853
1346 2916
1346 2919
1346 3108
1346 3320
1346 3632
1346 3912
1347 1573
1347 1602
1347 1733
1347 1968
1347 2118
1347 2218
1347 2310
1347 2722
1347 2931
1347 2981
1347 3411
1347 3534
1347 3556
1347 3574
1347 3581
1347 3650
1347 3752
1347 4225
1347 4425
1347 4601
1347 4779
1347 4963
1348 1413
1348 1491
1348 1612
1348 1743
1348 1801
1348 1812
1348 1833
1348 1870
1348 1911
1348 1948
1348 2118
1348 2309
1348 2370
1348 2382
1348 2412
1348 2579
1348 2908
1348 2912
1348 3066
1348 3081
1348 3087
1348 3090
1348 3122
1348 3223
1348 3267
1348 3287
1348 3298
1348 3350
1348 3506
1348 3525
1348 3581
1348 3649
1348 3757
1348 3821
1348 3893
1348 3912
1348 3931
1348 3954
1348 4148
1348 4250
1348 4270
1348 4369
1348 4587
1348 4589
1348 4691
1348 4994
1349 1437
1349 1528
1349 1777
1349 1921
1349 2773
1349 3014
1349 3022
1349 3352
1349 3394
1349 3967
1349 3992
1349 4076
1349 4441
1349 4533
1349 4542
1350 1499
1350 2780
1350 3609
1350 4525
1350 4609
1350 4636
1350 4650
1350 4781
1351 1401
1351 1424
1351 1673
1351 1724
1351 1840
1351 2167
1351 2211
1351 2274
1351 2343
1351 2406
1351 2455
1351 2470
1351 3032
1351 3432
1351 4316
1351 4466
1351 4490
1352 1357
1352 1421
1352 1498
1352 1528
1352 1918
1352 2042
1352 2062
1352 2497
1352 2625
1352 2725
1352 3124
1352 3158
1352 3312
1352 3327
1352 3462
1352 3705
1352 3876
1352 3952
1352 4093
1353 1359
1353 1746
1353 2320
1353 2766
1353 3049
1353 3650
1353 4281
1354 1506
1354 1723
1354 1817
1354 2049
1354 2554
1354 2650
1354 3161
1354 3452
1354 3533
1354 3643
1354 4151
1354 4539
1355 1622
1355 1728
1355 1850
1355 1885
1355 1900
1355 2557
1355 2940
1355 2978
1355 3151
1355 3200
1355 3738
1355 3753
1355 3967
1355 4070
1355 4953
1356 1476
1356 1497
1356 1980
1356 2562
1356 2590
1356 2652
1356 2997
1356 3228
1356 3347
1356 3370
1356 3394
1356 4140
1356 4145
1356 4905
1356 4947
1357 1707
1357 1944
1357 1957
1357 1963
1357 2114
1357 2121
1357 2441
1357 2471
1357 2576
1357 3025
1357 3158
1357 3394
1357 3705
1357 3812
1357 3956
1357 4024
1357 4227
1357 4633
1358 1481
1358 1673
1358 1829
1358 2035
1358 2233
1358 2334
1358 2522
1358 2902
1358 2976
1358 3004
1358 3320
1358 3399
1358 3465
1358 3824
1358 3966
1358 4232
1358 4687
1358 4856
1359 2344
1359 2428
1359 2910
1359 3373
1359 3624
1359 4107
1359 4213
1359 4302
1359 4339
1359 4402
1359 4560
1359 4587
1359 4606
1359 4665
1359 4681
1359 4876
1360 1581
1360 1635
1360 1647
1360 1677
1360 1883
1360 2067
1360 3082
1360 3581
1361 1668
1361 2286
1361 3010
1361 3853
1361 3885
1361 4425
1361 4692
1361 4696
1361 4700
1361 4784
1362 1548
1362 2283
1362 2928
1362 2987
1362 3055
1362 3416
1362 3474
1362 3656
1362 3705
1362 3910
1362 4112
1362 4270
1362 4653
1363 1723
1363 1807
1363 2095
1363 2544
1363 2859
1363 2947
1363 3603
1363 3968
1363 4060
1363 4227
1363 4397
1363 4516
1364 1371
1364 1374
1364 1719
1364 1793
1364 1818
1364 2165
1364 2201
1364 2241
1364 2274
1364 2511
1364 2685
1364 3178
1364 3638
1364 3858
1364 3918
1364 4043
1364 4238
1364 4314
1364 4316
1364 4390
1364 4421
1364 4598
1365 1556
1365 1679
1365 1686
1365 1790
1365 2218
1365 2347
1365 2427
1365 2500
1365 2609
1365 2649
1365 2817
1365 2896
1365 3276
1365 3296
1365 3324
1365 3645
1365 3851
1365 4061
1365 4314
1365 4315
1365 4354
1365 4803
1366 1859
1366 2743
1366 3255
1366 3289
1366 3604
1366 3698
1366 4115
1366 4393
1366 4431
1366 4610
1366 4647
1366 4937
1367 1497
1367 1899
1367 1962
1367 2484
1367 2604
1367 3208
1367 3272
1367 3293
1367 3359
1367 3475
1367 3546
1367 4076
1367 4112
1367 4265
1367 4301
1367 4358
1367 4373
1367 4504
1367 4607
1367 4613
1367 4809
1368 1823
1368 1994
1368 2063
1368 2081
1368 2082
1368 2184
1368 2594
1368 3194
1368 3577
1368 3613
1368 3780
1368 4040
1368 4107
1368 4306
1368 4338
1368 4427
1368 4489
1369 1385
1369 1497
1369 1617
1369 1958
1369 2739
1369 3014
1369 3173
1369 3913
1369 4528
1369 4685
1370 1546
1370 2196
1370 2433
1370 2572
1370 2886
1370 3024
1370 3258
1370 3345
1370 3841
1370 4181
1370 4232
1370 4304
1370 4412
1370 4514
1370 4709
1370 4732
1371 1479
1371 1783
1371 2224
1371 2438
1371 2778
1371 2807
1371 2852
1371 2990
1371 3046
1371 3220
1371 3803
1371 3869
1371 3925
1371 4029
1371 4134
1371 4923
1372 1790
1372 3061
1372 3437
1372 3517
1372 3879
1372 4120
1372 4230
1372 4235
1373 1636
1373 1960
1373 2912
1373 3097
1373 3111
1373 3872
1373 4212
1373 4290
1373 4354
1373 4407
1373 4447
1373 4610
1373 4659
1373 4664
1373 4958
1374 1912
1374 2286
1374 2607
1374 2616
1374 3326
1374 3405
1374 3647
1374 3728
1374 3746
1374 3992
1374 4500
1374 4502
1374 4723
1375 1448
1375 1556
1375 1563
1375 1595
1375 1647
1375 2070
1375 2073
1375 2222
1375 2284
1375 2309
1375 2440
1375 2452
1375 2477
1375 2751
1375 3308
1375 3338
1375 3532
1375 3855
1375 4036
1375 4054
1375 4062
1375 4237
1375 4242
1375 4261
1375 4262
1375 4344
1375 4455
1375 4479
1375 4590
1375 4633
1375 4670
1375 4706
1375 4735
1375 4756
1375 4758
1375 4767
1375 4795
1375 4915
1375 4966
1376 1566
1376 2284
1376 2381
1376 2654
1376 2695
1376 2740
1376 2805
1376 3197
1376 3976
1376 4278
1376 4506
1376 4629
1376 4714
1376 4724
1376 4853
1377 1476
1377 1589
1377 1710
1377 1818
1377 2057
1377 2091
1377 2121
1377 2260
1377 2263
1377 2967
1377 3022
1377 3045
1377 3295
1377 3416
1377 3431
1377 4147
1377 4792
1378 1380
1378 1399
1378 1537
1378 1601
1378 1686
1378 1772
1378 2574
1378 2592
1378 2664
1378 2949
1378 3258
1378 3297
1378 3399
1378 3675
1378 3799
1378 4556
1378 4790
1379 1979
1379 2238
1379 2241
1379 2343
1379 3178
1379 3335
1379 3405
1379 3728
1379 4072
1379 4138
1379 4208
1379 4237
1379 4723
1379 4828
1379 4861
1380 1540
1380 1837
1380 2244
1380 2307
1380 2352
1380 2399
1380 2701
1380 3919
1380 4176
1380 4242
1380 4635
1381 1449
1381 1916
1381 2442
1381 2664
1381 2908
1381 3122
1381 3179
1381 3469
1381 3542
1381 3959
1381 4385
1381 4771
1382 2143
1382 2499
1382 2902
1382 3111
1382 3385
1382 3474
1382 4057
1382 4453
1382 4820
1383 1471
1383 1640
1383 1786
1383 1825
1383 1875
1383 2134
1383 2453
1383 2464
1383 2618
1383 2643
1383 2686
1383 2841
1383 2912
1383 2936
1383 2938
1383 3735
1383 3847
1383 4048
1383 4218
1383 4261
1383 4340
1383 4444
1383 4496
1383 4533
1383 4877
1384 1843
1384 1983
1384 2049
1384 2069
1384 2240
1384 2272
1384 2275
1384 2669
1384 2761
1384 3223
1384 3677
1384 3718
1384 3736
1384 3765
1384 3846
1384 3977
1384 4384
1384 4390
1384 4583
1384 4643
1384 4665
1384 4788
1384 4899
1384 4909
1384 4918
1385 1958
1385 2563
1385 2640
1385 2824
1385 3140
1385 3210
1385 3317
1385 4463
1385 4708
1386 1485
1386 2191
1386 3654
1386 3667
1386 4225
1386 4263
1386 4393
1386 4661
1386 4705
1386 4914
1386 4972
1387 1904
1387 1935
1387 2345
1387 2410
1387 2580
1387 2630
1387 2706
1387 2945
1387 2971
1387 3138
1387 3304
1387 4375
1387 4444
1387 4487
1387 4794
1387 4892
1388 1634
1388 1944
1388 2474
1388 2493
1388 2606
1388 2664
1388 2768
1388 2859
1388 2916
1388 3964
1388 4246
1388 4254
1388 4307
1388 4389
1388 4401
1388 4774
1389 2417
1389 2613
1389 2968
1389 3444
1389 3662
1389 4401
1389 4689
1389 4780
1389 4805
1389 4867
1390 1834
1390 2057
1390 2732
1390 2817
1390 3521
1390 3912
1390 4080
1390 4653
1390 4677
1391 1612
1391 2266
1391 2519
1391 2632
1391 2660
1391 3020
1391 3061
1391 3938
1391 4760
1392 1673
1392 1693
1392 1706
1392 1790
1392 2504
1392 2993
1392 3594
1392 3653
1392 3996
1392 4084
1392 4326
1392 4344
1392 4492
1392 4821
1392 4891
1392 4943
1393 1465
1393 1493
1393 1554
1393 1694
1393 1989
1393 2143
1393 2959
1393 3005
1393 3014
1393 3045
1393 3824
1393 4076
1393 4093
1394 1540
1394 1623
1394 1708
1394 1799
1394 1840
1394 1845
1394 2145
1394 2566
1394 2865
1394 3276
1394 3322
1394 3428
1394 3502
1394 3557
1394 3707
1394 3799
1394 3848
1394 3959
1394 4791
1394 4891
1395 1799
1395 1837
1395 2203
1395 2378
1395 2416
1395 3050
1395 3503
1395 3797
1395 4264
1395 4652
1395 4655
1396 1618
1396 1982
1396 2200
1396 2521
1396 2534
1396 3174
1396 4043
1396 4132
1396 4231
1396 4522
1396 4679
1397 1564
1397 2976
1397 3051
1397 3234
1397 3599
1397 3603
1397 3730
1397 4013
1397 4249
1397 4269
1397 4447
1397 4963
1398 2208
1398 2308
1398 2575
1398 2632
1398 2758
1398 2972
1398 3679
1398 3792
1398 3797
1398 4097
1398 4141
1398 4342
1398 4630
1398 4754
1398 4891
1398 4996
1399 1601
1399 1723
1399 1915
1399 2364
1399 2502
1399 2896
1399 3383
1399 4763
1399 4904
1400 1462
1400 1679
1400 1779
1400 2202
1400 2250
1400 2494
1400 2697
1400 3001
1400 3469
1400 3618
1400 3746
1400 3891
1400 4215
1400 4368
1401 1555
1401 1851
1401 2191
1401 2225
1401 2330
1401 2705
1401 3002
1401 3351
1401 3432
1401 3596
1401 3653
1401 3728
1401 3921
1401 4238
1401 4291
1401 4389
1401 4487
1401 4507
1401 4867
1402 1528
1402 1899
1402 1963
1402 2484
1402 3177
1402 3714
1402 3778
1402 3824
1402 3897
1402 4172
1402 4363
1403 1645
1403 2225
1403 2327
1403 2427
1403 2595
1403 2740
1403 2946
1403 3171
1403 3258
1403 3524
1403 4139
1403 4617
1403 4902
1404 1549
1404 2236
1404 2387
1404 2395
1404 2979
1404 3086
1404 3452
1404 3596
1404 3798
1404 4492
1404 4594
1404 4805
1404 4992
1404 4996
1405 1423
1405 1444
1405 1465
1405 1664
1405 1968
1405 2212
1405 2218
1405 2377
1405 2389
1405 2965
1405 2984
1405 2988
1405 3066
1405 3089
1405 3195
1405 3198
1405 3255
1405 3447
1405 3550
1405 3592
1405 3603
1405 3661
1405 3755
1405 3864
1405 3941
1405 3965
1405 4559
1406 1474
1406 1810
1406 2048
1406 2145
1406 2428
1406 2980
1406 3308
1406 3375
1406 3406
1406 3563
1406 3730
1406 3918
1406 4361
1407 1470
1407 1627
1407 2997
1407 3592
1407 4054
1407 4081
1407 4326
1407 4536
1407 4558
1407 4587
1407 4870
1408 1436
1408 1620
1408 1623
1408 1642
1408 1724
1408 1940
1408 1987
1408 2221
1408 2222
1408 2310
1408 2817
1408 2930
1408 3210
1408 3742
1408 3915
1408 4397
1408 4935
1409 1512
1409 1895
1409 2374
1409 2562
1409 3171
1409 3213
1409 3227
1409 3486
1409 3487
1409 3525
1409 3991
1409 3993
1409 4023
1409 4474
1409 4663
1409 4994
1410 1564
1410 1615
1410 2143
1410 2339
1410 2485
1410 2500
1410 2545
1410 2967
1410 3284
1410 3527
1410 3631
1410 3641
1410 3776
1410 3812
1410 3994
1410 4092
1410 4112
1410 4253
1410 4936
1411 1761
1411 1954
1411 2218
1411 2932
1411 3261
1411 3389
1411 3803
1411 4313
1411 4994
1412 2096
1412 2254
1412 3067
1412 3277
1412 3454
1412 3532
1412 3832
1412 3854
1412 4091
1412 4626
1412 4914
1412 4988
1413 1468
1413 1761
1413 2397
1413 3633
1413 3686
1413 4161
1413 4269
1413 4348
1413 4907
1414 1647
1414 2519
1414 2655
1414 2836
1414 2865
1414 3349
1414 4147
1414 4595
1414 4708
1414 4932
1414 4938
1415 1508
1415 1619
1415 1713
1415 1847
1415 2680
1415 2711
1415 2815
1415 2932
1415 3125
1415 3397
1415 4013
1415 4410
1415 4447
1415 4621
1416 1464
1416 1704
1416 1753
1416 1940
1416 2440
1416 2949
1416 3142
1416 3574
1416 3597
1416 3656
1416 3676
1416 3781
1416 4332
1416 4788
1416 4798
1416 4902
1416 4979
1417 1516
1417 1709
1417 1871
1417 3239
1417 3264
1417 3339
1417 3483
1417 4069
1417 4298
1417 4735
1417 4922
1418 1471
1418 1718
1418 1895
1418 1907
1418 1943
1418 2079
1418 2136
1418 2233
1418 2359
1418 2434
1418 2466
1418 2509
1418 2537
1418 2570
1418 2705
1418 2895
1418 3096
1418 3354
1418 3485
1418 3535
1418 3831
1418 3868
1418 4223
1418 4774
1418 4851
1419 1642
1419 1926
1419 1946
1419 2085
1419 2400
1419 2483
1419 2568
1419 2730
1419 2756
1419 2861
1419 3300
1419 3329
1419 3378
1419 3383
1419 3597
1419 3781
1419 4342
1419 4716
1419 4930
1420 1445
1420 1850
1420 1971
1420 2354
1420 2438
1420 2637
1420 3628
1420 3678
1420 3731
1420 4221
1420 4378
1420 4575
1420 4649
1420 4796
1421 1731
1421 2513
1421 2594
1421 2729
1421 3221
1421 3345
1421 3569
1421 4181
1421 4338
1421 4480
1421 4607
1421 4780
1422 1432
1422 1951
1422 1975
1422 2511
1422 2632
1422 3434
1422 4738
1422 4780
1423 1542
1423 2513
1423 2591
1423 2734
1423 3582
1423 3761
1423 4624
1423 4682
1423 4943
1424 1913
1424 1975
1424 2373
1424 2661
1424 2892
1424 2963
1424 3062
1424 3234
1424 3538
1424 3596
1424 3698
1424 3755
1424 3943
1424 4577
1424 4727
1424 4749
1424 4996
1425 1654
1425 1670
1425 1806
1425 1861
1425 1867
1425 2142
1425 2215
1425 2221
1425 2345
1425 2760
1425 2821
1425 2949
1425 3029
1425 3329
1425 3577
1425 3696
1425 4139
1425 4344
1425 4468
1425 4832
1426 1647
1426 2216
1426 2511
1426 3423
1426 3526
1426 3594
1426 4164
1426 4754
1427 1527
1427 1697
1427 1723
1427 1752
1427 1780
1427 1789
1427 1925
1427 2048
1427 2426
1427 3191
1427 3449
1427 3864
1427 3915
1427 4012
1427 4161
1427 4347
1427 4361
1427 4386
1427 4642
1427 4905
1427 4913
1427 4958
1428 1639
1428 1836
1428 2443
1428 2517
1428 2760
1428 2814
1428 3581
1428 3828
1428 4085
1428 4233
1428 4546
1428 4769
1428 4780
1429 1431
1429 1461
1429 1672
1429 1739
1429 2027
1429 2233
1429 2246
1429 2592
1429 2928
1429 2988
1429 3108
1429 3366
1429 3429
1429 3650
1429 3748
1429 3900
1429 4121
1429 4164
1429 4250
1429 4697
1429 4822
1430 1549
1430 2514
1430 3219
1430 3493
1430 3603
1430 3675
1430 3815
1430 3891
1430 3947
1430 3968
1430 4391
1430 4550
1430 4707
1430 4710
1431 1733
1431 2422
1431 2457
1431 2589
1431 2740
1431 3310
1431 3959
1431 4622
1431 4644
1431 4789
1431 4997
1432 1451
1432 1467
1432 1681
1432 3120
1432 3181
1432 4459
1433 1650
1433 2284
1433 2341
1433 2393
1433 2699
1433 3365
1433 3613
1433 3894
1433 4358
1433 4413
1434 1481
1434 2381
1434 2575
1434 2654
1434 2695
1434 3036
1434 3561
1434 4192
1434 4197
1434 4286
1434 4629
1435 1575
1435 1595
1435 1728
1435 1810
1435 1916
1435 2975
1435 3163
1435 3253
1435 3368
1435 3458
1435 3598
1435 3616
1435 3766
1435 3791
1435 3902
1435 4246
1435 4361
1435 4486
1435 4708
1436 1591
1436 1752
1436 2052
1436 2130
1436 2411
1436 2462
1436 2498
1436 2756
1436 2964
1436 3032
1436 3037
1436 3052
1436 3106
1436 3148
1436 3361
1436 3421
1436 3469
1436 3756
1436 4087
1436 4129
1436 4343
1436 4415
1436 4781
1436 4893
1437 1740
1437 1744
1437 2028
1437 2034
1437 3004
1437 3661
1437 3700
1437 3968
1437 4444
1437 4953
1438 2452
1438 2519
1438 2664
1438 2690
1438 2767
1438 3217
1438 3462
1438 3464
1438 3540
1438 3808
1438 4018
1438 4446
1438 4472
1438 4927
1439 1577
1439 2133
1439 2159
1439 2365
1439 2388
1439 2406
1439 2485
1439 2496
1439 3461
1439 3563
1439 3628
1439 3935
1439 4234
1439 4573
1439 4610
1439 4659
1439 4705
1439 4888
1439 4937
1439 4972
1440 1448
1440 1655
1440 1683
1440 2405
1440 2875
1440 2881
1440 3079
1440 3476
1440 4310
1440 4541
1440 4729
1440 4848
1440 4856
1441 2081
1441 2213
1441 2316
1441 2327
1441 2388
1441 2459
1441 2757
1441 2806
1441 2849
1441 3194
1441 3237
1441 4070
1441 4412
1441 4589
1441 4601
1441 4780
1441 4937
1442 1644
1442 2655
1442 3058
1442 4020
1442 4501
1442 4525
1442 4708
1443 1867
1443 2397
1443 3112
1443 3441
1443 3875
1443 3967
1443 4244
1443 4499
1443 4632
1443 4658
1443 4753
1443 4784
1443 4881
1443 4974
1444 1491
1444 1575
1444 2167
1444 2207
1444 2330
1444 2392
1444 2455
1444 2466
1444 2566
1444 2705
1444 2801
1444 2875
1444 3314
1444 3557
1444 4200
1444 4634
1444 4703
1444 4723
1444 4836
1445 2300
1445 2602
1445 2614
1445 2621
1445 2797
1445 3858
1445 4074
1445 4097
1445 4491
1446 1859
1446 2207
1446 2208
1446 2233
1446 2308
1446 2383
1446 3199
1446 3210
1446 3521
1446 3851
1447 1575
1447 1726
1447 1923
1447 2106
1447 2893
1447 2942
1447 3349
1447 3618
1447 3629
1447 4010
1447 4407
1447 4835
1447 4959
1448 1671
1448 1874
1448 2034
1448 2960
1448 3427
1448 3596
1448 3698
1448 4621
1448 4805
1448 4818
1448 4951
1449 1462
1449 1465
1449 1551
1449 1612
1449 1751
1449 1982
1449 2180
1449 2205
1449 2232
1449 2284
1449 2382
1449 2425
1449 2482
1449 2586
1449 2869
1449 2965
1449 3266
1449 3287
1449 3525
1449 3578
1449 3657
1449 3661
1449 3698
1449 3731
1449 3733
1449 3820
1449 3835
1449 3959
1449 3999
1449 4013
1449 4234
1449 4635
1449 4669
1449 4901
1450 1478
1450 1844
1450 2055
1450 2320
1450 2577
1450 2599
1450 2762
1450 2779
1450 2827
1450 3036
1450 3322
1450 3560
1450 4019
1450 4061
1450 4171
1450 4189
1450 4190
1450 4194
1450 4503
1450 4531
1450 4662
1450 4887
1451 1490
1451 1647
1451 1788
1451 2580
1451 4578
1451 4720
1451 4725
1451 4871
1452 1546
1452 1659
1452 1758
1452 2358
1452 2978
1452 3109
1452 3280
1452 3734
1452 4016
1452 4101
1452 4164
1452 4189
1452 4395
1452 4537
1452 4582
1452 4754
1453 1470
1453 2027
1453 2289
1453 2292
1453 2453
1453 2914
1453 3038
1453 3086
1453 3189
1453 4253
1453 4318
1453 4420
1453 4526
1453 4622
1453 4843
1454 1857
1454 2106
1454 2472
1454 2893
1454 3469
1454 3982
1454 4059
1454 4790
1455 1517
1455 1612
1455 1709
1455 2027
1455 2056
1455 2901
1455 3093
1455 3098
1455 3153
1455 3716
1455 4073
1455 4196
1456 1966
1456 2047
1456 2230
1456 2534
1456 2826
1456 2898
1456 2930
1456 4423
1456 4449
1456 4561
1456 4614
1456 4621
1456 4648
1456 4666
1456 4874
1457 2462
1457 2895
1457 3009
1457 3236
1457 3440
1457 3657
1457 4022
1457 4937
1458 2422
1458 2582
1458 2666
1458 2722
1458 2997
1458 3112
1458 3800
1458 3941
1458 3968
1458 4005
1458 4023
1458 4098
1458 4488
1459 2102
1459 2198
1459 2205
1459 2441
1459 2504
1459 2893
1459 3000
1459 3001
1459 3640
1459 4176
1459 4257
1459 4917
1460 1490
1460 1647
1460 1966
1460 2097
1460 2208
1460 2575
1460 2655
1460 3717
1460 3773
1460 4081
1460 4141
1460 4390
1460 4713
1460 4927
1461 1820
1461 2234
1461 2240
1461 3372
1461 3566
1461 3574
1461 4057
1461 4165
1461 4171
1461 4453
1461 4547
1461 4971
1462 1671
1462 1846
1462 2021
1462 2374
1462 2432
1462 2517
1462 2610
1462 2729
1462 2909
1462 3185
1462 3233
1462 3453
1462 3463
1462 3506
1462 3755
1462 3954
1462 4225
1462 4249
1462 4393
1462 4769
1462 4953
1463 1499
1463 1690
1463 1891
1463 2004
1463 2264
1463 2326
1463 2364
1463 2486
1463 2587
1463 2747
1463 2951
1463 3174
1463 3198
1463 3804
1463 4094
1463 4165
1463 4221
1463 4328
1463 4776
1463 4937
1464 1647
1464 1716
1464 2491
1464 2575
1464 2660
1464 2727
1464 3137
1464 3293
1464 3933
1464 4326
1464 4624
1464 4754
1465 1701
1465 1848
1465 2576
1465 2756
1465 3119
1465 3451
1465 3890
1465 4048
1465 4163
1465 4460
1465 4461
1465 4462
1465 4477
1466 1865
1466 1891
1466 2070
1466 2284
1466 2452
1466 2706
1466 2932
1466 3044
1466 3182
1466 3274
1466 3308
1466 3855
1466 3930
1466 4261
1466 4341
1466 4659
1466 4698
1466 4814
1467 2091
1467 2459
1467 2559
1467 3113
1467 3284
1467 3349
1467 3461
1467 3580
1467 3783
1467 3784
1467 3786
1467 3915
1467 4623
1467 4937
1467 4990
1468 1562
1468 1642
1468 1793
1468 2240
1468 2955
1468 3033
1468 3204
1468 3386
1468 3408
1468 3412
1468 3684
1468 3696
1468 3843
1468 3912
1468 4084
1468 4095
1468 4447
1469 1526
1469 1574
1469 1612
1469 1704
1469 1818
1469 1917
1469 2064
1469 2065
1469 2104
1469 2108
1469 2179
1469 2202
1469 2278
1469 2368
1469 2470
1469 2543
1469 2648
1469 2651
1469 2674
1469 2835
1469 2989
1469 3023
1469 3040
1469 3051
1469 3126
1469 3139
1469 3205
1469 3260
1469 3515
1469 3643
1469 3853
1469 3879
1469 4033
1469 4069
1469 4337
1469 4408
1469 4411
1469 4504
1469 4564
1469 4568
1469 4593
1469 4862
1469 4971
1470 1608
1470 1812
1470 1819
1470 1860
1470 2933
1470 3090
1470 4018
1470 4096
1470 4259
1470 4569
1471 1933
1471 2113
1471 3174
1471 3690
1471 3721
1471 3832
1471 4379
1471 4749
1471 4754
1472 1837
1472 1867
1472 3327
1472 3417
1472 3437
1472 3585
1472 3707
1472 3901
1472 4139
1472 4315
1472 4321
1472 4880
1472 4891
1472 4904
1473 1611
1473 2203
1473 2340
1473 2347
1473 2526
1473 2627
1473 3213
1473 3712
1473 3927
1473 4461
1473 4522
1473 4666
1474 1507
1474 1574
1474 2261
1474 3219
1474 3700
1474 4137
1474 4710
1475 1553
1475 2291
1475 2368
1475 3061
1475 3121
1475 3139
1476 1963
1476 2426
1476 2508
1476 2624
1476 2839
1476 3154
1476 3188
1476 3190
1476 3475
1476 3497
1476 3530
1476 3594
1476 3705
1476 3923
1476 4143
1476 4330
1476 4382
1476 4723
1477 1905
1477 2077
1477 2356
1477 2594
1477 2638
1477 3369
1477 3525
1477 3534
1477 3904
1477 4477
1477 4605
1477 4627
1477 4838
1478 1608
1478 2066
1478 2194
1478 2275
1478 2540
1478 2669
1478 3079
1478 3262
1478 3286
1478 3452
1478 3567
1478 3708
1478 3917
1478 4058
1478 4098
1478 4112
1478 4169
1478 4348
1478 4416
1478 4418
1478 4543
1478 4555
1478 4591
1478 4598
1478 4652
1478 4823
1479 1814
1479 2008
1479 2111
1479 2396
1479 2699
1479 2945
1479 3470
1479 3550
1479 3857
1479 4239
1479 4256
1479 4426
1479 4492
1479 4594
1479 4655
1479 4679
1479 4851
1479 4859
1479 4970
1479 4997
1480 1542
1480 1754
1480 1809
1480 1823
1480 2478
1480 2522
1480 2956
1480 2999
1480 3032
1480 3665
1480 4159
1480 4646
1480 4666
1481 1601
1481 1940
1481 2595
1481 2865
1481 2896
1481 3210
1481 3318
1481 3332
1481 3631
1481 3966
1481 4084
1481 4474
1481 4545
1481 4688
1482 1723
1482 1744
1482 2034
1482 2175
1482 2258
1482 2428
1482 2461
1482 3406
1482 3458
1482 3624
1482 3968
1482 4219
1482 4942
1483 1803
1483 2242
1483 2244
1483 2591
1483 2638
1483 2944
1483 2945
1483 3113
1483 3635
1483 4818
1484 1577
1484 1719
1484 1922
1484 2084
1484 2181
1484 2279
1484 2295
1484 3618
1484 4197
1484 4303
1484 4398
1484 4525
1485 1540
1485 1713
1485 1768
1485 1888
1485 2046
1485 2327
1485 2392
1485 2839
1485 3070
1485 3097
1485 3872
1485 4610
1485 4623
1485 4705
1486 2102
1486 2182
1486 2450
1486 2530
1486 2623
1486 3006
1486 3936
1486 4196
1486 4459
1486 4688
1486 4761
1487 2167
1487 2406
1487 2436
1487 3097
1487 3327
1487 3351
1487 3934
1487 4376
1487 4705
1487 4716
1487 4856
1487 4888
1487 4937
1488 1513
1488 1587
1488 1804
1488 2000
1488 2142
1488 2469
1488 2653
1488 2730
1488 2735
1488 2883
1488 3069
1488 3439
1488 3780
1488 3910
1488 3955
1488 3970
1488 4061
1488 4279
1488 4803
1488 4819
1488 4906
1488 4974
1489 1498
1489 1633
1489 1670
1489 1686
1489 1790
1489 1900
1489 2013
1489 2274
1489 2700
1489 2748
1489 2937
1489 3060
1489 3130
1489 3531
1489 3713
1489 3717
1489 3780
1489 4009
1489 4084
1489 4315
1489 4325
1489 4617
1489 4640
1489 4832
1489 4880
1489 4904
1489 4927
1489 4999
1490 1647
1490 1748
1490 2208
1490 2491
1490 2756
1490 3371
1490 3853
1490 4090
1490 4141
1490 4520
1490 4578
1490 4853
1490 4967
1491 2067
1491 3343
1491 3398
1491 3603
1491 3684
1491 4198
1491 4274
1491 4320
1492 1679
1492 2323
1492 2414
1492 2689
1492 2790
1492 2911
1492 3315
1492 3608
1492 4018
1492 4119
1492 4188
1492 4430
1492 4434
1492 4456
1492 4630
1493 1963
1493 2516
1493 2566
1493 2755
1493 2799
1493 3172
1493 3290
1493 3294
1493 3602
1493 3736
1493 4131
1493 4309
1493 4363
1494 1512
1494 1550
1494 1580
1494 2344
1494 3080
1494 3264
1494 3341
1494 3582
1494 3642
1494 4825
1495 1505
1495 1962
1495 2061
1495 2072
1495 2356
1495 2581
1495 2668
1495 2675
1495 2820
1495 2846
1495 2886
1495 2892
1495 2942
1495 3120
1495 3145
1495 3314
1495 3573
1495 3588
1495 4024
1495 4154
1495 4357
1495 4432
1495 4466
1495 4467
1495 4474
1495 4567
1495 4821
1495 4982
1496 1517
1496 2605
1496 2626
1496 2697
1496 2988
1496 3385
1496 3946
1497 1684
1497 1699
1497 1770
1497 1973
1497 2355
1497 2822
1497 2823
1497 3226
1497 3284
1497 3370
1497 3474
1497 3572
1497 3705
1497 4112
1497 4147
1498 1601
1498 1663
1498 1826
1498 2400
1498 2499
1498 2707
1498 2841
1498 2993
1498 3107
1498 3232
1498 3395
1498 3591
1498 4040
1498 4175
1498 4198
1498 4221
1498 4373
1498 4744
1498 4946
1498 4986
1499 1848
1499 2029
1499 2207
1499 2677
1499 3239
1499 3639
1499 3800
1499 4079
1499 4145
1499 4146
1500 2114
1500 2320
1500 2434
1500 2595
1500 2654
1500 3087
1500 3121
1500 3154
1500 3206
1500 3296
1500 3627
1500 3724
1500 3742
1500 4270
1501 2355
1501 2448
1501 2519
1501 2645
1501 2916
1501 3774
1501 4252
1501 4609
1501 4690
1501 4741
1501 4750
1502 2223
1502 2654
1502 3007
1502 3318
1502 3425
1502 4171
1502 4278
1502 4412
1502 4624
1502 4718
1502 4753
1503 1760
1503 2031
1503 2389
1503 2504
1503 2590
1503 2605
1503 2658
1503 3008
1503 3557
1503 3765
1503 3788
1503 3947
1503 4193
1503 4585
1503 4589
1503 4662
1504 1647
1504 1967
1504 2575
1504 2746
1504 3120
1504 3897
1504 4215
1504 4547
1505 2062
1505 2203
1505 2311
1505 2406
1505 2569
1505 3300
1505 3474
1505 3588
1505 3729
1505 3889
1505 4667
1505 4828
1505 4865
1506 1545
1506 1822
1506 1949
1506 2048
1506 2066
1506 2086
1506 2194
1506 2244
1506 2335
1506 2506
1506 2539
1506 2602
1506 2673
1506 2906
1506 2917
1506 3011
1506 3079
1506 3161
1506 3206
1506 3295
1506 3343
1506 3452
1506 3579
1506 3848
1506 4051
1506 4151
1506 4349
1506 4423
1506 4591
1506 4624
1506 4635
1506 4877
1507 1514
1507 1595
1507 1657
1507 1697
1507 1929
1507 1941
1507 1981
1507 2113
1507 2277
1507 2288
1507 2315
1507 2770
1507 3006
1507 3191
1507 3289
1507 3374
1507 3570
1507 3608
1507 3698
1507 3993
1507 4125
1507 4290
1507 4360
1507 4367
1507 4488
1507 4503
1507 4962
1508 1723
1508 1893
1508 1930
1508 1956
1508 2996
1508 3474
1508 3477
1508 3579
1508 3718
1508 4042
1508 4185
1508 4270
1508 4407
1508 4447
1508 4855
1509 1740
1509 1888
1509 2027
1509 2758
1509 3070
1509 3319
1509 3341
1509 3563
1509 4033
1509 4204
1509 4393
1509 4610
1509 4784
1509 4878
1509 4937
1509 4957
1509 4972
1510 1787
1510 1875
1510 1970
1510 2871
1510 3061
1510 3087
1510 3103
1510 3124
1510 3212
1510 3276
1510 3420
1510 4889
1511 1652
1511 1993
1511 2079
1511 2128
1511 2207
1511 2386
1511 2916
1511 3328
1511 3408
1511 3566
1511 3903
1511 4013
1511 4053
1511 4183
1511 4318
1511 4937
1512 2050
1512 2440
1512 3000
1512 4307
1512 4444
1512 4606
1512 4972
1513 1584
1513 2219
1513 2228
1513 2425
1513 2472
1513 2585
1513 2588
1513 2719
1513 2753
1513 3239
1513 3541
1513 3633
1513 3823
1513 3846
1513 4215
1513 4282
1513 4675
1513 4707
1513 4812
1514 2180
1514 2862
1514 2978
1514 3191
1514 3224
1514 3934
1514 3970
1514 4123
1514 4141
1514 4219
1514 4719
1515 1621
1515 1842
1515 2029
1515 2030
1515 2180
1515 2807
1515 3060
1515 3152
1515 3354
1515 3843
1515 4375
1515 4761
1515 4905
1516 1950
1516 2143
1516 2234
1516 2963
1516 3138
1516 3399
1516 4792
1516 4812
1517 1723
1517 1860
1517 1939
1517 2281
1517 3302
1517 3313
1517 3525
1517 3533
1517 4949
1517 4965
1518 1702
1518 1962
1518 2640
1518 2850
1518 2911
1518 3541
1518 3616
1518 3746
1518 4298
1518 4514
1518 4770
1519 2136
1519 2566
1519 3217
1519 4554
1519 4648
1519 4679
1519 4829
1519 4845
1519 4971
1519 4997
1520 2301
1520 2664
1520 2768
1520 3460
1520 3462
1520 3540
1520 3638
1520 4182
1520 4244
1520 4389
1520 4571
1521 2038
1521 2340
1521 2391
1521 2631
1521 2701
1521 3204
1521 3321
1521 3657
1521 3761
1521 4264
1521 4381
1521 4718
1521 4824
1522 1575
1522 1687
1522 1876
1522 2088
1522 2336
1522 3009
1522 3239
1522 3256
1522 3451
1522 3728
1523 1889
1523 1958
1523 1977
1523 1995
1523 2236
1523 2334
1523 2350
1523 2494
1523 2651
1523 2829
1523 3205
1523 3230
1523 3270
1523 3344
1523 3777
1523 4008
1523 4128
1523 4415
1523 4567
1524 1541
1524 1812
1524 1975
1524 2047
1524 2139
1524 2430
1524 2533
1524 2889
1524 3070
1524 3588
1524 3872
1524 4204
1524 4573
1524 4600
1524 4705
1524 4976
1525 1935
1525 2255
1525 2379
1525 2557
1525 3236
1525 3543
1525 3550
1525 3767
1525 4210
1525 4639
1525 4887
1526 2442
1526 3060
1526 3608
1526 3864
1526 3941
1526 4060
1526 4137
1526 4364
1526 4589
1527 1958
1527 2299
1527 2549
1527 2661
1527 2688
1527 2707
1527 2784
1527 2812
1527 3082
1527 3241
1527 3500
1527 3501
1527 3657
1527 4596
1527 4759
1527 4817
1527 4846
1528 1690
1528 2310
1528 2339
1528 2547
1528 2562
1528 2800
1528 3045
1528 3184
1528 3202
1528 3498
1528 3512
1528 3813
1528 3883
1528 3983
1528 4128
1528 4147
1528 4189
1528 4246
1529 1995
1529 2050
1529 2059
1529 2155
1529 2400
1529 2642
1529 3258
1529 3281
1529 3472
1529 3591
1529 3645
1529 3770
1529 4012
1529 4560
1529 4867
1529 4946
1530 1639
1530 2790
1530 2830
1530 3101
1530 3329
1530 3683
1530 3727
1530 3867
1530 4043
1530 4135
1530 4332
1530 4415
1530 4732
1531 1668
1531 2143
1531 2348
1531 2562
1531 2954
1531 2989
1531 3036
1531 3042
1531 3073
1531 3160
1531 3272
1531 3595
1531 3647
1531 3681
1531 3714
1531 4298
1531 4558
1532 1919
1532 2345
1532 2979
1532 2995
1532 3068
1532 3287
1532 3481
1532 3983
1532 4135
1532 4163
1532 4177
1532 4366
1532 4398
1532 4400
1533 1570
1533 1787
1533 2034
1533 2268
1533 2514
1533 2797
1533 3104
1533 3137
1533 3198
1533 3434
1533 3557
1533 3601
1533 3618
1533 4416
1533 4437
1533 4520
1533 4760
1533 4973
1534 1757
1534 2222
1534 2333
1534 2591
1534 3062
1534 3386
1534 3629
1534 3735
1534 4398
1534 4594
1534 4651
1535 1645
1535 1930
1535 2116
1535 2357
1535 2494
1535 2563
1535 3322
1535 3949
1535 4253
1535 4471
1535 4516
1536 1713
1536 1745
1536 2077
1536 2535
1536 2728
1536 2962
1536 3011
1536 3401
1536 3647
1536 4281
1536 4329
1536 4360
1536 4427
1536 4438
1536 4858
1537 1713
1537 2442
1537 2649
1537 2695
1537 2978
1537 2985
1537 3108
1537 3525
1537 4306
1537 4595
1537 4853
1538 1801
1538 2127
1538 2645
1538 2740
1538 2833
1538 2865
1538 3027
1538 3412
1538 3873
1538 4139
1538 4147
1538 4625
1538 4889
1538 4935
1539 2077
1539 2458
1539 2514
1539 2727
1539 2835
1539 3058
1539 3528
1539 3693
1539 3732
1539 4301
1539 4360
1539 4907
1539 4960
1539 4992
1540 2158
1540 2351
1540 2485
1540 2582
1540 2597
1540 2873
1540 3070
1540 3074
1540 3097
1540 3328
1540 4415
1540 4431
1540 4623
1540 4878
1540 4888
1540 4937
1540 4962
1540 4975
1540 4990
1541 1888
1541 1935
1541 2046
1541 2191
1541 2327
1541 2350
1541 2485
1541 3161
1541 3325
1541 3461
1541 3654
1541 3752
1541 4204
1541 4705
1541 4904
1541 4990
1542 1704
1542 1796
1542 1831
1542 1913
1542 2018
1542 2156
1542 2162
1542 2418
1542 2522
1542 2579
1542 2613
1542 2734
1542 2753
1542 2888
1542 2960
1542 3010
1542 3504
1542 3556
1542 4159
1542 4624
1542 4788
1542 4821
1542 4822
1542 4838
1543 1556
1543 1669
1543 2285
1543 2590
1543 2593
1543 2626
1543 2704
1543 2792
1543 2839
1543 3339
1543 3966
1543 3991
1543 4148
1543 4210
1543 4212
1543 4277
1543 4314
1543 4326
1543 4451
1543 4985
1544 1800
1544 1867
1544 2009
1544 2329
1544 2442
1544 2670
1544 2871
1544 2902
1544 3044
1544 3388
1544 4199
1544 4323
1544 4717
1545 2074
1545 2080
1545 2421
1545 2515
1545 2540
1545 2626
1545 2650
1545 3371
1545 3433
1545 3452
1545 3567
1545 3692
1545 3708
1545 4090
1545 4098
1545 4118
1545 4122
1545 4169
1545 4336
1546 1740
1546 2073
1546 2128
1546 2141
1546 2233
1546 2448
1546 2451
1546 2475
1546 2483
1546 2586
1546 2704
1546 2786
1546 3094
1546 3115
1546 3153
1546 3294
1546 3634
1546 3748
1546 3831
1546 3889
1546 3899
1546 3912
1546 4039
1546 4072
1546 4101
1546 4251
1546 4331
1546 4644
1546 4709
1546 4734
1546 4920
1547 1561
1547 1580
1547 1759
1547 2225
1547 2765
1547 3085
1547 3367
1547 3368
1547 4441
1547 4457
1548 1731
1548 2309
1548 2328
1548 2960
1548 3318
1548 3573
1548 3588
1548 4017
1548 4024
1548 4141
1548 4337
1548 4357
1548 4562
1548 4644
1548 4982
1549 1791
1549 1918
1549 1946
1549 2586
1549 2623
1549 3550
1549 3570
1549 3771
1549 4012
1549 4060
1549 4219
1549 4589
1549 4637
1550 1580
1550 1853
1550 2018
1550 2168
1550 2428
1550 2515
1550 3000
1550 3069
1550 3096
1550 3264
1550 3347
1550 3401
1550 3642
1550 3772
1550 4387
1550 4399
1550 4550
1550 4587
1550 4606
1550 4610
1550 4876
1550 4879
1551 1761
1551 1870
1551 1973
1551 1985
1551 3463
1551 3603
1551 3721
1551 3726
1551 4434
1551 4495
1551 4994
1552 1553
1552 1596
1552 2108
1552 2640
1552 2936
1552 3405
1552 3825
1552 3918
1552 4008
1552 4403
1552 4636
1552 4644
1552 4719
1553 1592
1553 1926
1553 1928
1553 2050
1553 2098
1553 2104
1553 2206
1553 2236
1553 2399
1553 2465
1553 2498
1553 2598
1553 2651
1553 2674
1553 2835
1553 3126
1553 3135
1553 3139
1553 3154
1553 3198
1553 3242
1553 3259
1553 3292
1553 3731
1553 3831
1553 3898
1553 3976
1553 4008
1553 4022
1553 4029
1553 4069
1553 4121
1553 4137
1553 4150
1553 4166
1553 4170
1553 4191
1553 4207
1553 4235
1553 4243
1553 4245
1553 4267
1553 4851
1554 1607
1554 1700
1554 1899
1554 1955
1554 2017
1554 2215
1554 2562
1554 2871
1554 2901
1554 3352
1554 3394
1554 3462
1554 3530
1554 3631
1554 3735
1554 4007
1554 4398
1554 4796
1554 4905
1554 4914
1555 2269
1555 2286
1555 2589
1555 3107
1555 3284
1555 3335
1555 3728
1555 3884
1555 4200
1555 4212
1555 4316
1555 4500
1556 2261
1556 2284
1556 2336
1556 2440
1556 2680
1556 2951
1556 2959
1556 3018
1556 3311
1556 4164
1556 4242
1556 4265
1556 4386
1556 4520
1556 4698
1556 4795
1556 4805
1557 1755
1557 1862
1557 1879
1557 2461
1557 2636
1557 2740
1557 2786
1557 2789
1557 3069
1557 3120
1557 3276
1557 3500
1557 3518
1557 3707
1557 4199
1557 4232
1557 4935
1558 2013
1558 2439
1558 2592
1558 2641
1558 3141
1558 3524
1558 3843
1558 4298
1558 4671
1558 4712
1558 4874
1559 1597
1559 1642
1559 1915
1559 2454
1559 2590
1559 2743
1559 2790
1559 2805
1559 2994
1559 3206
1559 3305
1559 3738
1559 3771
1559 3887
1559 4532
1559 4625
1559 4777
1559 4834
1560 1881
1560 2351
1560 2662
1560 2916
1560 3101
1560 3653
1560 4226
1560 4558
1560 4610
1560 4704
1560 4728
1560 4811
1561 1755
1561 1800
1561 1873
1561 2112
1561 2361
1561 2605
1561 2614
1561 2882
1561 3517
1561 3847
1561 3869
1561 4389
1561 4511
1561 4731
1561 4830
1562 1619
1562 1665
1562 1746
1562 1787
1562 1865
1562 2024
1562 2035
1562 2463
1562 2495
1562 2949
1562 3063
1562 3103
1562 3276
1562 3499
1562 3723
1562 4043
1563 2207
1563 2296
1563 2326
1563 2430
1563 2504
1563 2539
1563 2621
1563 2817
1563 2927
1563 3097
1563 3123
1563 3268
1563 3485
1563 3676
1563 4253
1563 4314
1563 4468
1564 1678
1564 1921
1564 2052
1564 2555
1564 2898
1564 2973
1564 3045
1564 3121
1564 3160
1564 3269
1564 3576
1564 3621
1564 4148
1564 4369
1565 2193
1565 2472
1565 2539
1565 2993
1565 3244
1565 3292
1565 3505
1565 4138
1565 4147
1565 4151
1565 4368
1565 4769
1565 4839
1565 4948
1566 1871
1566 2263
1566 2796
1566 2909
1566 3228
1566 3904
1566 3964
1566 4218
1566 4246
1566 4286
1566 4471
1566 4547
1566 4885
1567 1938
1567 2072
1567 2218
1567 2374
1567 2382
1567 2610
1567 3015
1567 3603
1567 4408
1567 4430
1568 1640
1568 1672
1568 1762
1568 1790
1568 2161
1568 2235
1568 2423
1568 2626
1568 3224
1568 3401
1568 3654
1568 3820
1568 3845
1568 4142
1568 4164
1568 4183
1568 4314
1568 4408
1568 4866
1569 1790
1569 1834
1569 2215
1569 2265
1569 2949
1569 3186
1569 3239
1569 3484
1569 3663
1569 4123
1569 4183
1569 4306
1569 4320
1569 4759
1569 4804
1569 4831
1569 4866
1569 4927
1569 4970
1570 1761
1570 2491
1570 2564
1570 3114
1570 4168
1570 4304
1570 4650
1570 4708
1570 4836
1571 2790
1571 3069
1571 3247
1571 3735
1571 4177
1571 4300
1571 4702
1571 4816
1571 4997
1572 1643
1572 2245
1572 2256
1572 2341
1572 3900
1572 3976
1572 4585
1572 4921
1572 4947
1573 1745
1573 2592
1573 2610
1573 2780
1573 3297
1573 3467
1573 3548
1573 3569
1573 3579
1573 3603
1573 3769
1573 3803
1573 4000
1573 4013
1573 4071
1573 4079
1573 4104
1573 4173
1573 4290
1573 4506
1573 4572
1573 4602
1573 4828
1573 4869
1574 1805
1574 1922
1574 2003
1574 2409
1574 2436
1574 3148
1574 3293
1574 3310
1574 3490
1574 3552
1574 3655
1574 3766
1574 3864
1574 3990
1574 4905
1574 4966
1575 1835
1575 1852
1575 1877
1575 2044
1575 2144
1575 2390
1575 2407
1575 2412
1575 2640
1575 2642
1575 2743
1575 2766
1575 3157
1575 3188
1575 3193
1575 3483
1575 3702
1575 3837
1575 3946
1575 4311
1575 4348
1575 4594
1575 4606
1575 4812
1575 4832
1575 4958
1575 4998
1576 2158
1576 2443
1576 2572
1576 2627
1576 2745
1576 2823
1576 3009
1576 3514
1576 3688
1576 4532
1576 4666
1576 4830
1576 4914
1576 4937
1577 1704
1577 1966
1577 1986
1577 2014
1577 3580
1577 3968
1577 4218
1577 4393
1577 4610
1577 4651
1577 4705
1577 4746
1577 4841
1577 4937
1578 1860
1578 2212
1578 2933
1578 3180
1578 3316
1578 3525
1578 3985
1578 4528
1578 4977
1579 2315
1579 2620
1579 2743
1579 3221
1579 3236
1579 3256
1579 3469
1579 3734
1579 3869
1579 4058
1579 4542
1579 4590
1579 4664
1579 4763
1580 1757
1580 2018
1580 2119
1580 2394
1580 3184
1580 3596
1580 3776
1580 3985
1580 4462
1580 4498
1580 4561
1581 2451
1581 2505
1581 2673
1581 2792
1581 3113
1581 3433
1581 3596
1581 4651
1581 4772
1581 4801
1582 1705
1582 1832
1582 2833
1582 3116
1582 3167
1582 3593
1582 3738
1582 3843
1582 3986
1582 3995
1582 4139
1582 4904
1583 2048
1583 2081
1583 2094
1583 2101
1583 2369
1583 2508
1583 2594
1583 3020
1583 3083
1583 3096
1583 3164
1583 3569
1583 4275
1583 4304
1583 4417
1584 2707
1584 2875
1584 2957
1584 3451
1584 3454
1584 3808
1584 4654
1584 4750
1585 1688
1585 2175
1585 2203
1585 2406
1585 2613
1585 3104
1585 3192
1585 3657
1585 3889
1585 4515
1585 4643
1585 4828
1585 4974
1586 1625
1586 1949
1586 2083
1586 2106
1586 2359
1586 2474
1586 3752
1586 4215
1586 4675
1586 4781
1587 2464
1587 2792
1587 4129
1587 4423
1587 4608
1587 4621
1587 4766
1588 1597
1588 1633
1588 1790
1588 1860
1588 3063
1588 3087
1588 3124
1588 3228
1588 3395
1588 3665
1588 3706
1588 4682
1588 4927
1589 1622
1589 1633
1589 1707
1589 2092
1589 2099
1589 2168
1589 2399
1589 2629
1589 2725
1589 3031
1589 3269
1589 3352
1589 3416
1589 3420
1589 3705
1589 3714
1589 3809
1589 3913
1589 3991
1589 4076
1589 4112
1589 4158
1589 4270
1589 4277
1589 4383
1589 4425
1589 4663
1589 4939
1590 1952
1590 2131
1590 2269
1590 2341
1590 2434
1590 3368
1590 3803
1590 4103
1590 4320
1590 4570
1590 4684
1591 1790
1591 2108
1591 2595
1591 2956
1591 3027
1591 3054
1591 3171
1591 3303
1591 4352
1591 4354
1591 4904
1592 1607
1592 1996
1592 2120
1592 2150
1592 2470
1592 2989
1592 2999
1592 3139
1592 3260
1592 3852
1592 3926
1592 4207
1592 4463
1592 4769
1593 1942
1593 2140
1593 2218
1593 2780
1593 2870
1593 3525
1593 3936
1594 1686
1594 1693
1594 2427
1594 2710
1594 2746
1594 2946
1594 3110
1594 3216
1594 3231
1594 3332
1594 3861
1594 4043
1594 4625
1594 4900
1595 1634
1595 1697
1595 1780
1595 1847
1595 2175
1595 2261
1595 2968
1595 3006
1595 3394
1595 3565
1595 3896
1595 3906
1595 3986
1595 4012
1595 4073
1595 4425
1595 4589
1596 1811
1596 2102
1596 2352
1596 2602
1596 2721
1596 2844
1596 2892
1596 3323
1596 3591
1596 3757
1596 4658
1596 4784
1596 4881
1596 4919
1597 1881
1597 1936
1597 2010
1597 2376
1597 2479
1597 2740
1597 3027
1597 3087
1597 3105
1597 3214
1597 3278
1597 3332
1597 3340
1597 3442
1597 3472
1597 3551
1597 3822
1597 3878
1597 3943
1597 4066
1597 4084
1597 4169
1597 4236
1597 4296
1597 4900
1597 4917
1597 4930
1598 1665
1598 1697
1598 2284
1598 2589
1598 2751
1598 2952
1598 2975
1598 3279
1598 3580
1598 3678
1598 3861
1598 3869
1598 3903
1599 1941
1599 2271
1599 2841
1599 3244
1599 3618
1599 3715
1599 3998
1599 4722
1599 4769
1599 4998
1600 1618
1600 1623
1600 1739
1600 2233
1600 2537
1600 2566
1600 2668
1600 3268
1600 3325
1600 3946
1600 3982
1600 4690
1601 1617
1601 1642
1601 1693
1601 1725
1601 1782
1601 1790
1601 1862
1601 1881
1601 1932
1601 1965
1601 2007
1601 2085
1601 2095
1601 2177
1601 2216
1601 2310
1601 2740
1601 2834
1601 2896
1601 3027
1601 3055
1601 3063
1601 3101
1601 3223
1601 3296
1601 3329
1601 3364
1601 3394
1601 3408
1601 3443
1601 3477
1601 3484
1601 3585
1601 3597
1601 3619
1601 3629
1601 3706
1601 3724
1601 3738
1601 3743
1601 3843
1601 3862
1601 3901
1601 4043
1601 4116
1601 4139
1601 4175
1601 4230
1601 4243
1601 4278
1601 4281
1601 4294
1601 4306
1601 4332
1601 4344
1601 4515
1601 4583
1601 4927
1601 4978
1602 1812
1602 1908
1602 2138
1602 3373
1602 3923
1602 4624
1602 4698
1603 1622
1603 1728
1603 1850
1603 1885
1603 2065
1603 2103
1603 2633
1603 2879
1603 2940
1603 3151
1603 3168
1603 3200
1603 3305
1603 3472
1603 3753
1603 3835
1603 4171
1603 4653
1603 4942
1603 4953
1604 2082
1604 2304
1604 2360
1604 2510
1604 2610
1604 3633
1604 3683
1604 4313
1604 4366
1604 4374
1604 4398
1604 4400
1604 4456
1604 4585
1605 1710
1605 1777
1605 1835
1605 2353
1605 2393
1605 3078
1605 3121
1605 3705
1605 3806
1605 4062
1605 4745
1606 1709
1606 2530
1606 2749
1606 2837
1606 2898
1606 3191
1606 3406
1606 3473
1606 3608
1606 3939
1606 3957
1606 4081
1606 4814
1606 4906
1607 1710
1607 1793
1607 1887
1607 1909
1607 2266
1607 2469
1607 2725
1607 3005
1607 3080
1607 3321
1607 3322
1607 3552
1607 3656
1607 3699
1608 1736
1608 2066
1608 2131
1608 2244
1608 2277
1608 2506
1608 2698
1608 3255
1608 4045
1608 4496
1608 4912
1609 1747
1609 1844
1609 2035
1609 2385
1609 2489
1609 2901
1609 2971
1609 3060
1609 3113
1609 4011
1609 4816
1610 2569
1610 2658
1610 4165
1610 4560
1610 4638
1610 4660
1610 4709
1611 1646
1611 2627
1611 2968
1611 3474
1611 3530
1611 4198
1611 4288
1611 4520
1611 4618
1611 4827
1612 1755
1612 1848
1612 2085
1612 2190
1612 2218
1612 2246
1612 2376
1612 2538
1612 3163
1612 3389
1612 3506
1612 3564
1612 3591
1612 3729
1612 3779
1612 3917
1612 3941
1612 4000
1612 4295
1612 4414
1612 4594
1612 4603
1612 4669
1613 2227
1613 2812
1613 2997
1613 3255
1613 3386
1613 3588
1613 3876
1613 3912
1613 3932
1613 4016
1613 4253
1613 4697
1613 4704
1613 4744
1614 2422
1614 3435
1614 4025
1614 4474
1614 4732
1614 4885
1615 1883
1615 1964
1615 2377
1615 2421
1615 2484
1615 2720
1615 2989
1615 3269
1615 3416
1615 3474
1615 4099
1615 4713
1616 1618
1616 1635
1616 2306
1616 2718
1616 2805
1616 2955
1616 2975
1616 3006
1616 3460
1616 3678
1616 4012
1616 4125
1616 4488
1617 2077
1617 2103
1617 2204
1617 2293
1617 2692
1617 2739
1617 2765
1617 2903
1617 3160
1617 3473
1617 3867
1617 4103
1617 4201
1617 4522
1617 4614
1617 4671
1617 4685
1617 4692
1617 4713
1617 4955
1618 1726
1618 1778
1618 1839
1618 1895
1618 2233
1618 2354
1618 2357
1618 2505
1618 2645
1618 2646
1618 2786
1618 2869
1618 2915
1618 3680
1618 3695
1618 3888
1618 3946
1618 4252
1618 4311
1618 4535
1618 4677
1618 4697
1619 1872
1619 1893
1619 2206
1619 2857
1619 3072
1619 3372
1619 3397
1619 3548
1619 3566
1619 4297
1619 4447
1619 4601
1620 2047
1620 2154
1620 2408
1620 2950
1620 3176
1620 3217
1620 3418
1620 3447
1620 3536
1620 3932
1620 4226
1620 4497
1620 4594
1620 4605
1620 4731
1621 1806
1621 2875
1621 2906
1621 3125
1621 3143
1621 3171
1621 3378
1621 3384
1621 3922
1621 4043
1621 4902
1622 1850
1622 2342
1622 2542
1622 2634
1622 2724
1622 3151
1622 3168
1622 3758
1622 4118
1622 4311
1622 4624
1623 1693
1623 1861
1623 2278
1623 2427
1623 3276
1623 3533
1623 3718
1623 3765
1623 3822
1623 3878
1623 3971
1623 4001
1623 4077
1623 4139
1623 4344
1623 4462
1623 4937
1624 2198
1624 2253
1624 2259
1624 2634
1624 2640
1624 2840
1624 2977
1624 3473
1624 3579
1624 3940
1624 4259
1624 4338
1624 4700
1624 4797
1625 1967
1625 2004
1625 2063
1625 2280
1625 2409
1625 3115
1625 3350
1625 3996
1625 4156
1625 4181
1625 4239
1625 4690
1625 4780
1625 4943
1626 2443
1626 2640
1626 2739
1626 2765
1626 3190
1626 3221
1626 3878
1626 4124
1626 4258
1627 1958
1627 2242
1627 2332
1627 2342
1627 2402
1627 2414
1627 2758
1627 3523
1627 4100
1627 4104
1627 4118
1627 4146
1627 4147
1627 4212
1627 4606
1628 1652
1628 1949
1628 2446
1628 2451
1628 2934
1628 2993
1628 3480
1628 3606
1628 3734
1628 3835
1628 3986
1628 4400
1628 4769
1628 4952
1628 4964
1629 1919
1629 2345
1629 2916
1629 3106
1629 3147
1629 3365
1629 4398
1629 4400
1629 4623
1629 4709
1630 1801
1630 2185
1630 2327
1630 2414
1630 2473
1630 2529
1630 2725
1630 3236
1630 3256
1630 3476
1630 3617
1630 3625
1630 4016
1630 4586
1630 4765
1631 1849
1631 1990
1631 2713
1631 2752
1631 2837
1631 3086
1631 3435
1631 3632
1631 3684
1631 4164
1631 4171
1631 4326
1631 4697
1632 1652
1632 1756
1632 3063
1632 3431
1632 3715
1632 4000
1632 4013
1632 4230
1632 4575
1632 4734
1632 4881
1633 2127
1633 2740
1633 2833
1633 2855
1633 3140
1633 3214
1633 3629
1633 3771
1633 3794
1633 4043
1633 4158
1633 4160
1633 4616
1633 4625
1633 4725
1633 4726
1633 4976
1634 1641
1634 1897
1634 2076
1634 2101
1634 2358
1634 2786
1634 3074
1634 3416
1634 3494
1634 4025
1634 4173
1634 4181
1634 4275
1634 4338
1634 4780
1634 4894
1635 1813
1635 2048
1635 2138
1635 3020
1635 3126
1635 3448
1635 3449
1635 3578
1635 3941
1635 4078
1636 1794
1636 2279
1636 2375
1636 2474
1636 2690
1636 2811
1636 2859
1636 2991
1636 3092
1636 3462
1636 4086
1636 4218
1636 4246
1636 4299
1636 4384
1636 4472
1636 4885
1637 1983
1637 2272
1637 2622
1637 2669
1637 3178
1637 3323
1637 3713
1637 3744
1637 3977
1637 4384
1637 4918
1637 4920
1637 4986
1638 1865
1638 2027
1638 2854
1638 3022
1638 3127
1638 3224
1638 3267
1638 3798
1638 4164
1638 4538
1638 4558
1638 4856
1638 4985
1639 1967
1639 2009
1639 2075
1639 2518
1639 3009
1639 3138
1639 3525
1639 4593
1639 4656
1639 4769
1640 1791
1640 1891
1640 2077
1640 2212
1640 2566
1640 2587
1640 2630
1640 2638
1640 2657
1640 2781
1640 2950
1640 3120
1640 3243
1640 3382
1640 3943
1640 3987
1640 3997
1640 4229
1640 4533
1640 4644
1640 4732
1640 4757
1640 4805
1640 4914
1641 1686
1641 3083
1641 3399
1641 3403
1641 3863
1641 4103
1641 4258
1641 4277
1641 4306
1641 4762
1641 4802
1641 4894
1642 1663
1642 1665
1642 1686
1642 2199
1642 2215
1642 2293
1642 2617
1642 2685
1642 2833
1642 2873
1642 2921
1642 3206
1642 3210
1642 3324
1642 3364
1642 3383
1642 3428
1642 3442
1642 3591
1642 3738
1642 3770
1642 3887
1642 3979
1642 4002
1642 4121
1642 4129
1642 4332
1642 4453
1642 4645
1642 4677
1642 4718
1642 4889
1642 4930
1642 4935
1642 4960
1642 4999
1643 1835
1643 2089
1643 2248
1643 2588
1643 2987
1643 3067
1643 3603
1643 3884
1643 4287
1643 4480
1643 4685
1643 4762
1644 2519
1644 2884
1644 2889
1644 2931
1644 3187
1644 3307
1644 3929
1644 4020
1644 4586
1644 4789
1644 4842
1645 1764
1645 1867
1645 1931
1645 3009
1645 3100
1645 3442
1645 3584
1645 3858
1645 4084
1645 4378
1645 4773
1645 4861
1645 4891
1645 4970
1646 1819
1646 1840
1646 1849
1646 1887
1646 1989
1646 2075
1646 2340
1646 2454
1646 2734
1646 2743
1646 2823
1646 3599
1646 3672
1646 3777
1646 3943
1646 4313
1646 4627
1646 4666
1646 4743
1647 1701
1647 1894
1647 2207
1647 2208
1647 2415
1647 2519
1647 2575
1647 2580
1647 2632
1647 3020
1647 3116
1647 3120
1647 3173
1647 3434
1647 3601
1647 3816
1647 3821
1647 3860
1647 4141
1647 4258
1647 4259
1647 4356
1647 4499
1647 4760
1648 1716
1648 2264
1648 2300
1648 2793
1648 2901
1648 3372
1648 3475
1648 3585
1648 3659
1648 3883
1648 3992
1648 4151
1648 4369
1648 4633
1648 4848
1649 1740
1649 1762
1649 2141
1649 2332
1649 2397
1649 2649
1649 3376
1649 4164
1649 4185
1650 1720
1650 2334
1650 2739
1650 3360
1650 3546
1650 3603
1650 3663
1650 4144
1650 4343
1650 4374
1650 4528
1650 4902
1651 1674
1651 1762
1651 1954
1651 1957
1651 2035
1651 2403
1651 2421
1651 2801
1651 2951
1651 2962
1651 3444
1651 3758
1651 3790
1651 3958
1651 3991
1651 4142
1651 4463
1651 4533
1651 4644
1651 4947
1652 1895
1652 2079
1652 2116
1652 2456
1652 2489
1652 3312
1652 4016
1652 4088
1652 4171
1652 4408
1653 2127
1653 2679
1653 2867
1653 3079
1653 3480
1653 3596
1653 4001
1653 4201
1653 4293
1653 4664
1653 4700
1654 1864
1654 1891
1654 2188
1654 2557
1654 3065
1654 3132
1654 3174
1654 3227
1654 3241
1654 3301
1654 3389
1654 3430
1654 3450
1654 3693
1654 3919
1654 3971
1654 3974
1654 4025
1654 4041
1654 4197
1654 4426
1654 4614
1654 4660
1654 4861
1654 4872
1654 4957
1655 1904
1655 2039
1655 2134
1655 2302
1655 2844
1655 2895
1655 2922
1655 2937
1655 3217
1655 3247
1655 3465
1655 3467
1655 3707
1655 3948
1655 4026
1655 4169
1655 4290
1655 4331
1655 4423
1655 4475
1655 4492
1655 4496
1655 4529
1655 4858
1656 2508
1656 2617
1656 2644
1656 2803
1656 3440
1656 4138
1656 4433
1656 4689
1656 4693
1657 2484
1657 2625
1657 2835
1657 3112
1657 3622
1657 3643
1657 3727
1657 4143
1657 4377
1657 4633
1657 4882
1657 4912
1658 2206
1658 2622
1658 3197
1658 3596
1658 3644
1658 4020
1658 4300
1658 4423
1658 4444
1658 4594
1658 4669
1658 4898
1659 1702
1659 1954
1659 2036
1659 2144
1659 2228
1659 2267
1659 2355
1659 2380
1659 2456
1659 2475
1659 2570
1659 2823
1659 2833
1659 2916
1659 3108
1659 3265
1659 3386
1659 3476
1659 3539
1659 3737
1659 4069
1659 4127
1659 4216
1659 4485
1659 4549
1659 4671
1659 4744
1660 1687
1660 1800
1660 2279
1660 2475
1660 2719
1660 2852
1660 2858
1660 3037
1660 3134
1660 3178
1660 3190
1660 3196
1660 3302
1660 3311
1660 3364
1660 3505
1660 3980
1660 4270
1660 4792
1660 4863
1660 4940
1661 1808
1661 2491
1661 3287
1661 3560
1661 3602
1661 4051
1661 4290
1661 4686
1661 4826
1662 1785
1662 2747
1662 2947
1662 3009
1662 3214
1662 3239
1662 4136
1662 4141
1662 4462
1662 4486
1662 4535
1663 2335
1663 2812
1663 3124
1663 3300
1663 3329
1663 3442
1663 3922
1664 2114
1664 2129
1664 2198
1664 3506
1664 4013
1664 4080
1664 4240
1664 4295
1665 1670
1665 1884
1665 2255
1665 2379
1665 2702
1665 2937
1665 2993
1665 3010
1665 3171
1665 3264
1665 3327
1665 3456
1665 3570
1665 3706
1665 3781
1665 3933
1665 4001
1665 4084
1666 1675
1666 1886
1666 2193
1666 2221
1666 2354
1666 2424
1666 2665
1666 2667
1666 2778
1666 2788
1666 3148
1666 3431
1666 3870
1666 3880
1666 3912
1666 4105
1666 4211
1666 4452
1666 4777
1666 4787
1666 4832
1666 4881
1667 1965
1667 2162
1667 2565
1667 2669
1667 3051
1667 3172
1667 3287
1667 3519
1667 3579
1667 3581
1667 3614
1667 4000
1667 4290
1667 4488
1667 4930
1668 1826
1668 1879
1668 2562
1668 2590
1668 3083
1668 3180
1668 3202
1668 3221
1668 3475
1668 3595
1668 4512
1669 2168
1669 2353
1669 2434
1669 2489
1669 2627
1669 2964
1669 3032
1669 3035
1669 3113
1669 4492
1669 4605
1669 4816
1670 2400
1670 2443
1670 2499
1670 3287
1670 3469
1670 3526
1670 3698
1670 3822
1670 4409
1670 4816
1670 4922
1671 1846
1671 1848
1671 1939
1671 2114
1671 2159
1671 2374
1671 3139
1671 3182
1671 3227
1671 3422
1671 3463
1671 3649
1671 3801
1671 3938
1671 4077
1671 4162
1671 4259
1671 4493
1671 4735
1671 4765
1672 1758
1672 1766
1672 1792
1672 1829
1672 1855
1672 2180
1672 2296
1672 2353
1672 2397
1672 2626
1672 2699
1672 2916
1672 2996
1672 3030
1672 3099
1672 3182
1672 3374
1672 3513
1672 3544
1672 3651
1672 3814
1672 3912
1672 3919
1672 4108
1672 4113
1672 4171
1672 4326
1672 4362
1672 4498
1672 4538
1672 4602
1672 4722
1672 4734
1672 4748
1672 4824
1672 4866
1672 4941
1672 4952
1672 4957
1672 4966
1673 1808
1673 2047
1673 2240
1673 2438
1673 2573
1673 2626
1673 3123
1673 3224
1673 3695
1673 3846
1673 3946
1673 4164
1673 4331
1673 4830
1673 4905
1674 1831
1674 1935
1674 2207
1674 2230
1674 2273
1674 2403
1674 2421
1674 2764
1674 2771
1674 2901
1674 2910
1674 2942
1674 2962
1674 3347
1674 3381
1674 3392
1674 3853
1674 3920
1674 4262
1674 4381
1674 4464
1674 4545
1674 4652
1674 4725
1674 4842
1674 4871
1675 1685
1675 1734
1675 2037
1675 2131
1675 2163
1675 2207
1675 2290
1675 2310
1675 2321
1675 2790
1675 2866
1675 2901
1675 3407
1675 3790
1675 3808
1675 3850
1675 3866
1675 3953
1675 3994
1675 4161
1675 4666
1676 1685
1676 1761
1676 1792
1676 1831
1676 1899
1676 1946
1676 2251
1676 2364
1676 2693
1676 2750
1676 2774
1676 3224
1676 3524
1676 3677
1676 3790
1676 4060
1676 4142
1676 4396
1676 4588
1677 1702
1677 1865
1677 1998
1677 2522
1677 2594
1677 2613
1677 2617
1677 2627
1677 2686
1677 2838
1677 3650
1677 3743
1677 4061
1677 4624
1677 4646
1677 4788
1677 4871
1677 4893
1677 4932
1678 1787
1678 2016
1678 2133
1678 2682
1678 2976
1678 3064
1678 3111
1678 3290
1678 3946
1678 3951
1678 4016
1678 4128
1678 4164
1678 4210
1678 4227
1678 4363
1678 4444
1678 4663
1678 4720
1679 1785
1679 1967
1679 2137
1679 2343
1679 2623
1679 3009
1679 3190
1679 3505
1679 3776
1679 4456
1679 4653
1680 1978
1680 2269
1680 2417
1680 2463
1680 2471
1680 2474
1680 3113
1680 3180
1680 3418
1680 3573
1680 4548
1681 1828
1681 1953
1681 2340
1681 2753
1681 2762
1681 2838
1681 2978
1681 3935
1681 3967
1681 4267
1681 4409
1681 4826
1681 4827
1681 4838
1681 4893
1682 1686
1682 1754
1682 1915
1682 2483
1682 2785
1682 3264
1682 3348
1682 3519
1682 3887
1682 4344
1682 4617
1682 4786
1682 4813
1682 4908
1683 1786
1683 1891
1683 2413
1683 2422
1683 2686
1683 3179
1683 3427
1683 3433
1683 3644
1683 3991
1683 4492
1683 4622
1683 4646
1684 2801
1684 3037
1684 3290
1684 3370
1684 3392
1684 3411
1684 3498
1684 4198
1684 4893
1685 1691
1685 1726
1685 1747
1685 1768
1685 1795
1685 1834
1685 1863
1685 1876
1685 1927
1685 1933
1685 1935
1685 2088
1685 2403
1685 2522
1685 2567
1685 2607
1685 2697
1685 2745
1685 2750
1685 2757
1685 2774
1685 2801
1685 2887
1685 2940
1685 2961
1685 3076
1685 3104
1685 3234
1685 3309
1685 3392
1685 3475
1685 3696
1685 3725
1685 3767
1685 3792
1685 3904
1685 3958
1685 3961
1685 3995
1685 4080
1685 4120
1685 4195
1685 4343
1685 4410
1685 4588
1685 4759
1685 4776
1685 4857
1685 4871
1685 4943
1685 4954
1686 1868
1686 1932
1686 1965
1686 2007
1686 2281
1686 2379
1686 2411
1686 2447
1686 2461
1686 2691
1686 2978
1686 3087
1686 3154
1686 3318
1686 3332
1686 3408
1686 3472
1686 3629
1686 3717
1686 4043
1686 4211
1686 4315
1686 4338
1686 4527
1686 4601
1686 4716
1686 4729
1687 2563
1687 2903
1687 3071
1687 3652
1687 3958
1687 4848
1687 4940
1688 1823
1688 2254
1688 2291
1688 2354
1688 2520
1688 2635
1688 2662
1688 2924
1688 3098
1688 3366
1688 3623
1688 3751
1688 3851
1688 4483
1688 4580
1688 4742
1689 2174
1689 2207
1689 2272
1689 2382
1689 2454
1689 2671
1689 2698
1689 2831
1689 2901
1689 3139
1689 3313
1689 3347
1689 3571
1689 3613
1689 3930
1689 4233
1689 4962
1690 1957
1690 2207
1690 2226
1690 2913
1690 2930
1690 2942
1690 3118
1690 3392
1690 3637
1690 4318
1690 4685
1690 4888
1690 4927
1691 1953
1691 2033
1691 2055
1691 2207
1691 2259
1691 2742
1691 2815
1691 2901
1691 3067
1691 3156
1691 3744
1691 3920
1691 4359
1691 4735
1691 4875
1692 1702
1692 1837
1692 2011
1692 2139
1692 2215
1692 2306
1692 2363
1692 2430
1692 2453
1692 2577
1692 2894
1692 2921
1692 2958
1692 3029
1692 3306
1692 3544
1692 3919
1692 4361
1692 4455
1692 4635
1693 2651
1693 2937
1693 2964
1693 3186
1693 3216
1693 3300
1693 3335
1693 3707
1693 4306
1693 4454
1693 4930
1694 1738
1694 1837
1694 2020
1694 2307
1694 2363
1694 2577
1694 2677
1694 2721
1694 2921
1694 2976
1694 3050
1694 3235
1694 3306
1694 3309
1694 3775
1694 4177
1694 4268
1694 4381
1694 4635
1694 4802
1695 1869
1695 2396
1695 2397
1695 2590
1695 2976
1695 3057
1695 3088
1695 3721
1695 4272
1695 4368
1695 4874
1696 2198
1696 2349
1696 3072
1696 3293
1696 4704
1696 4816
1696 4952
1697 2048
1697 2443
1697 2642
1697 2686
1697 2873
1697 3009
1697 3233
1697 3334
1697 3378
1697 3968
1697 3972
1697 4196
1697 4448
1698 2035
1698 2307
1698 2421
1698 2497
1698 2559
1698 2697
1698 2750
1698 2984
1698 3047
1698 3392
1698 3775
1698 3904
1698 4320
1698 4610
1698 4815
1698 4974
1699 2349
1699 2995
1699 3032
1699 3304
1699 3470
1699 4474
1699 4644
1699 4728
1699 4789
1700 2168
1700 2625
1700 3021
1700 3130
1700 3149
1700 3226
1700 3290
1700 3323
1700 3446
1700 3710
1700 4028
1700 4040
1700 4093
1700 4109
1701 1730
1701 2300
1701 2377
1701 2798
1701 2940
1701 3703
1701 4373
1701 4441
1702 1806
1702 1837
1702 2307
1702 2354
1702 2626
1702 2721
1702 2749
1702 2767
1702 2798
1702 3015
1702 3321
1702 3733
1702 3874
1702 4404
1702 4424
1702 4457
1702 4565
1702 4627
1702 4635
1702 4673
1702 4949
1702 4991
1703 2931
1703 2938
1703 3065
1703 3197
1703 3217
1703 3223
1703 3366
1703 4169
1703 4496
1703 4621
1703 4729
1703 4859
1703 4905
1704 2177
1704 2242
1704 2259
1704 2265
1704 2304
1704 2920
1704 3209
1704 3263
1704 3440
1704 4116
1704 4214
1705 2083
1705 3133
1705 3136
1705 3739
1705 4016
1705 4127
1705 4185
1705 4816
1705 4996
1706 1707
1706 1752
1706 1937
1706 2291
1706 2650
1706 2771
1706 3216
1706 3239
1706 3785
1706 4087
1706 4460
1706 4530
1706 4713
1706 4938
1707 1802
1707 1890
1707 2264
1707 2636
1707 2797
1707 2825
1707 2998
1707 3243
1707 3290
1707 3295
1707 3304
1707 3352
1707 3464
1707 3474
1707 3897
1707 4254
1707 4646
1708 2035
1708 2910
1708 2962
1708 3741
1708 3938
1708 3985
1708 4038
1708 4209
1708 4343
1708 4652
1709 1740
1709 1744
1709 1810
1709 1910
1709 1922
1709 2036
1709 2038
1709 2056
1709 2134
1709 2175
1709 2347
1709 2436
1709 2454
1709 2616
1709 2733
1709 3006
1709 3026
1709 3098
1709 3104
1709 3140
1709 3212
1709 3249
1709 3310
1709 3329
1709 3358
1709 3458
1709 3482
1709 3526
1709 3593
1709 3597
1709 3630
1709 3632
1709 3676
1709 3683
1709 3730
1709 3771
1709 3834
1709 3873
1709 3902
1709 3934
1709 3941
1709 4036
1709 4060
1709 4161
1709 4206
1709 4239
1709 4514
1709 4998
1710 2015
1710 2266
1710 2320
1710 2403
1710 2569
1710 2828
1710 2916
1710 3154
1710 3294
1710 3372
1710 3475
1710 3548
1710 3641
1710 3868
1710 3992
1710 4270
1710 4369
1710 4511
1711 2470
1711 2712
1711 2800
1711 2827
1711 2989
1711 3014
1711 3082
1711 3126
1711 3860
1711 4170
1711 4282
1711 4597
1711 4697
1712 1911
1712 2397
1712 2542
1712 2617
1712 2814
1712 3511
1712 3955
1712 4262
1712 4501
1712 4632
1712 4784
1712 4974
1713 1872
1713 2049
1713 2474
1713 2635
1713 3229
1713 3446
1713 3723
1713 3978
1713 4268
1713 4484
1713 4740
1713 4956
1714 2357
1714 2878
1714 2984
1714 3715
1714 3824
1714 3887
1714 4017
1714 4269
1714 4356
1714 4603
1714 4830
1714 4945
1714 4959
1715 2131
1715 2167
1715 2200
1715 2251
1715 2317
1715 2381
1715 2695
1715 2895
1715 3000
1715 3255
1715 3374
1715 3426
1715 3452
1715 3679
1715 4117
1715 4197
1715 4262
1715 4278
1715 4506
1715 4629
1715 4718
1715 4812
1715 4968
1716 1876
1716 2087
1716 2295
1716 2463
1716 2590
1716 2714
1716 2973
1716 3208
1716 3246
1716 3404
1716 3558
1716 4112
1716 4195
1716 4389
1716 4536
1716 4789
1716 4921
1717 1860
1717 2146
1717 2246
1717 2530
1717 2773
1717 3433
1717 3579
1717 3603
1717 4871
1718 1851
1718 1904
1718 1984
1718 1989
1718 2355
1718 2668
1718 2715
1718 2777
1718 2827
1718 3343
1718 3533
1718 3594
1718 3695
1718 3946
1718 4025
1718 4128
1718 4164
1718 4171
1718 4227
1718 4598
1718 4691
1718 4706
1718 4720
1718 4734
1718 4774
1718 4799
1718 4985
1719 2329
1719 2491
1719 2585
1719 4099
1719 4276
1719 4594
1719 4805
1720 1816
1720 1824
1720 2093
1720 2438
1720 2892
1720 2987
1720 3501
1720 3865
1720 4380
1721 1871
1721 1886
1721 1920
1721 2231
1721 2359
1721 2612
1721 2633
1721 2824
1721 3073
1721 3871
1721 4419
1721 4700
1722 1782
1722 2236
1722 2528
1722 2618
1722 3403
1722 3564
1722 3603
1722 3674
1722 3789
1722 3827
1722 3993
1722 4152
1722 4198
1722 4219
1722 4361
1723 1740
1723 1780
1723 1922
1723 1979
1723 2034
1723 2056
1723 2140
1723 2297
1723 2398
1723 2603
1723 2634
1723 2880
1723 2901
1723 2960
1723 2983
1723 3006
1723 3081
1723 3140
1723 3170
1723 3221
1723 3288
1723 3294
1723 3333
1723 3359
1723 3459
1723 3655
1723 3700
1723 3766
1723 3789
1723 3829
1723 3843
1723 4004
1723 4104
1723 4477
1723 4589
1723 4916
1724 1949
1724 2207
1724 2251
1724 2290
1724 2421
1724 2764
1724 2910
1724 3034
1724 3143
1724 3156
1724 3195
1724 3256
1724 3351
1724 3371
1724 3407
1724 3556
1724 3659
1724 3904
1724 4027
1724 4303
1724 4343
1724 4367
1724 4378
1724 4588
1724 4655
1724 4776
1724 4800
1724 4883
1724 4897
1725 1834
1725 2009
1725 2253
1725 2570
1725 2608
1725 2612
1725 2629
1725 2705
1725 2937
1725 2946
1725 2989
1725 2993
1725 3676
1725 3684
1725 4260
1725 4617
1725 4737
1725 4798
1725 4889
1726 1905
1726 2080
1726 2229
1726 2289
1726 2508
1726 2545
1726 2570
1726 2594
1726 2997
1726 3402
1726 4054
1726 4253
1726 4598
1726 4677
1727 1851
1727 2115
1727 2592
1727 2593
1727 2626
1727 2647
1727 2758
1727 3312
1727 3401
1727 3916
1727 4171
1727 4213
1727 4927
1727 4992
1728 1782
1728 1850
1728 1896
1728 2482
1728 2580
1728 2605
1728 2634
1728 2682
1728 2995
1728 3168
1728 3753
1728 4311
1728 4953
1729 1860
1729 2047
1729 2464
1729 2589
1729 2843
1729 3174
1729 3487
1729 4099
1729 4283
1729 4290
1729 4500
1729 4672
1729 4683
1729 4816
1729 4937
1729 4997
1730 2111
1730 2734
1730 2960
1730 3017
1730 3423
1730 3761
1730 4617
1730 4666
1731 1971
1731 2048
1731 3487
1731 4012
1731 4053
1731 4844
1731 4931
1732 1887
1732 1892
1732 2090
1732 2231
1732 2416
1732 2850
1732 3485
1732 3848
1732 3983
1732 4398
1732 4400
1733 1993
1733 2127
1733 2640
1733 3302
1733 3388
1733 3546
1733 3672
1733 4528
1733 4692
1733 4700
1733 4840
1734 1814
1734 1934
1734 1959
1734 1976
1734 1990
1734 2088
1734 2111
1734 2169
1734 2187
1734 2229
1734 2292
1734 2497
1734 2544
1734 2881
1734 2903
1734 2913
1734 3043
1734 3072
1734 3088
1734 3454
1734 3467
1734 3552
1734 3600
1734 3646
1734 3666
1734 3928
1734 3937
1734 3963
1734 3989
1734 4055
1734 4203
1734 4207
1734 4259
1734 4284
1734 4933
1734 4995
1735 1921
1735 2536
1735 3596
1735 3985
1735 3993
1735 4012
1735 4441
1735 4592
1735 4594
1735 4957
1735 4996
1736 1846
1736 2184
1736 2228
1736 2592
1736 2626
1736 2976
1736 3414
1736 3566
1736 4326
1736 4615
1737 1956
1737 2206
1737 2364
1737 3387
1737 3528
1737 3723
1737 3767
1737 3895
1737 4447
1737 4686
1737 4751
1738 1892
1738 2307
1738 2354
1738 2361
1738 2723
1738 2798
1738 2894
1738 3201
1738 3259
1738 3589
1738 3919
1738 4108
1738 4172
1738 4193
1738 4288
1738 4298
1738 4381
1738 4610
1738 4627
1738 4802
1739 1826
1739 1854
1739 1895
1739 2004
1739 2064
1739 2171
1739 2180
1739 2231
1739 2451
1739 2455
1739 2475
1739 2503
1739 2525
1739 2592
1739 2944
1739 2986
1739 3089
1739 3225
1739 3231
1739 3320
1739 3351
1739 3482
1739 3485
1739 3539
1739 3555
1739 3617
1739 3632
1739 3827
1739 3996
1739 4226
1739 4418
1739 4436
1739 4544
1739 4602
1739 4671
1739 4677
1739 4951
1739 4989
1740 1744
1740 1775
1740 1800
1740 1981
1740 2175
1740 2618
1740 2725
1740 2728
1740 3406
1740 3456
1740 3492
1740 3624
1740 3779
1740 3841
1740 4005
1740 4006
1740 4012
1740 4227
1740 4545
1740 4789
1741 1779
1741 1802
1741 2393
1741 3041
1741 3149
1741 3370
1741 3372
1741 4006
1741 4021
1741 4076
1741 4147
1741 4330
1741 4594
1741 4988
1742 1780
1742 1842
1742 1854
1742 2113
1742 2183
1742 2301
1742 2442
1742 2734
1742 3246
1742 3248
1742 3568
1742 3621
1742 3896
1742 3970
1742 4060
1743 1870
1743 2138
1743 2323
1743 2389
1743 3082
1743 3551
1743 3579
1743 3740
1743 3769
1743 4162
1743 4275
1743 4525
1744 1757
1744 1898
1744 2006
1744 2269
1744 2943
1744 3120
1744 3219
1744 3249
1744 3525
1744 3598
1744 4206
1744 4359
1744 4575
1744 4785
1744 4980
1745 1771
1745 1850
1745 1865
1745 1899
1745 1942
1745 1961
1745 1975
1745 1976
1745 2311
1745 2329
1745 2538
1745 2592
1745 2668
1745 2820
1745 2907
1745 2959
1745 3037
1745 3038
1745 3066
1745 3220
1745 3315
1745 3530
1745 3578
1745 3856
1745 3869
1745 3903
1745 3905
1745 3969
1745 4022
1745 4347
1745 4721
1745 4727
1745 4817
1745 4964
1745 4984
1746 1811
1746 2139
1746 2550
1746 2654
1746 2766
1746 2832
1746 2876
1746 3277
1746 3633
1746 3634
1746 3673
1746 3763
1746 4021
1746 4100
1746 4281
1746 4470
1746 4539
1747 2033
1747 2174
1747 2230
1747 2249
1747 2263
1747 2364
1747 2697
1747 2724
1747 2795
1747 2800
1747 3008
1747 3179
1747 3209
1747 3422
1747 3821
1747 3859
1747 4195
1747 4300
1747 4327
1747 4337
1747 4384
1747 4689
1747 4842
1747 4897
1748 2000
1748 2135
1748 2238
1748 2241
1748 2443
1748 2663
1748 2706
1748 2787
1748 3432
1748 3557
1748 3653
1748 3728
1748 3879
1748 4029
1748 4302
1748 4335
1748 4398
1748 4502
1748 4693
1748 4700
1749 1847
1749 2079
1749 2631
1749 2850
1749 3024
1749 3541
1749 3560
1749 3606
1749 3657
1749 3746
1749 4803
1749 4940
1749 4984
1750 1938
1750 1961
1750 2539
1750 2776
1750 2820
1750 3174
1750 3925
1750 4063
1750 4097
1750 4199
1750 4479
1750 4673
1750 4788
1750 4802
1751 2685
1751 2760
1751 3689
1751 4752
1752 2047
1752 2070
1752 2144
1752 2624
1752 2713
1752 2729
1752 2802
1752 2803
1752 2869
1752 3182
1752 3239
1752 3644
1752 3828
1752 4398
1752 4931
1753 1931
1753 2489
1753 2727
1753 2865
1753 2900
1753 3171
1753 3327
1753 3593
1753 3774
1753 4446
1753 4930
1754 1756
1754 1764
1754 2622
1754 2665
1754 2670
1754 2707
1754 2736
1754 2849
1754 2904
1754 3513
1754 3612
1754 4184
1754 4349
1754 4592
1754 4646
1754 4875
1754 4910
1754 4950
1755 1821
1755 1822
1755 1857
1755 1975
1755 1980
1755 1988
1755 2372
1755 2420
1755 2550
1755 2576
1755 2752
1755 2757
1755 2807
1755 2890
1755 2909
1755 2918
1755 2944
1755 2973
1755 3050
1755 3056
1755 3096
1755 3284
1755 3303
1755 3517
1755 3828
1755 3856
1755 3870
1755 3909
1755 3960
1755 4004
1755 4007
1755 4016
1755 4063
1755 4074
1755 4097
1755 4129
1755 4134
1755 4149
1755 4271
1755 4326
1755 4347
1755 4450
1755 4511
1755 4567
1755 4615
1755 4681
1755 4720
1755 4854
1755 4890
1755 4926
1755 4929
1755 4939
1756 2355
1756 2549
1756 2765
1756 2824
1756 3150
1756 3312
1756 3434
1756 3748
1756 3924
1756 3946
1756 3951
1756 4016
1756 4101
1756 4193
1757 1820
1757 1926
1757 2048
1757 2241
1757 3220
1757 3621
1757 3784
1757 3905
1757 3960
1757 4044
1758 1932
1758 1947
1758 1963
1758 2140
1758 2180
1758 2202
1758 2357
1758 2433
1758 2532
1758 2705
1758 2786
1758 2895
1758 3202
1758 3562
1758 3777
1758 4058
1758 4128
1758 4164
1758 4326
1758 4337
1758 4458
1758 4690
1758 4957
1759 2242
1759 2383
1759 2664
1759 2859
1759 3793
1759 3888
1759 3925
1759 4181
1759 4187
1759 4560
1759 4923
1760 1798
1760 2379
1760 2474
1760 2565
1760 2594
1760 2599
1760 2603
1760 2856
1760 3090
1760 3458
1760 3532
1760 3543
1760 3584
1760 3938
1760 3947
1760 4114
1760 4558
1760 4639
1760 4662
1760 4850
1761 1812
1761 2110
1761 2159
1761 2176
1761 2267
1761 2278
1761 2374
1761 2714
1761 2837
1761 2865
1761 2965
1761 2981
1761 3227
1761 3785
1761 4079
1761 4220
1761 4290
1762 2151
1762 2203
1762 3108
1762 3282
1762 3740
1762 4131
1762 4171
1762 4227
1762 4253
1762 4561
1762 4775
1762 4898
1763 1977
1763 2049
1763 2215
1763 2467
1763 2583
1763 2618
1763 2626
1763 3104
1763 3279
1763 3925
1763 4299
1763 4517
1763 4923
1764 2047
1764 2088
1764 2400
1764 2467
1764 2916
1764 2989
1764 3252
1764 3476
1764 3721
1764 4077
1764 4276
1764 4474
1764 4482
1765 1858
1765 2181
1765 2395
1765 2499
1765 2863
1765 2972
1765 4134
1765 4269
1766 1814
1766 2257
1766 2498
1766 2536
1766 3021
1766 3680
1766 3693
1766 4032
1766 4614
1766 4984
1767 1781
1767 1918
1767 2320
1767 3550
1767 3763
1767 4094
1767 4214
1767 4296
1767 4409
1767 4487
1767 4931
1768 2136
1768 2207
1768 2380
1768 2448
1768 2626
1768 2837
1768 3095
1768 3108
1768 3243
1768 4171
1768 4326
1768 4389
1769 2281
1769 2361
1769 2416
1769 2721
1769 2749
1769 2798
1769 2921
1769 3012
1769 3609
1769 3754
1769 4270
1769 4386
1769 4673
1770 2084
1770 2471
1770 2578
1770 2716
1770 2897
1770 3025
1770 3656
1770 4102
1770 4466
1771 1783
1771 1962
1771 2015
1771 2150
1771 2216
1771 2219
1771 2225
1771 2390
1771 2401
1771 2515
1771 2591
1771 2776
1771 2822
1771 3318
1771 3836
1771 3847
1771 3869
1771 3875
1771 3914
1771 4061
1771 4166
1771 4219
1771 4464
1771 4842
1771 4872
1771 4923
1772 1867
1772 2056
1772 2224
1772 2326
1772 2499
1772 2644
1772 2740
1772 2781
1772 2812
1772 2930
1772 3582
1772 3735
1772 4092
1772 4135
1772 4320
1772 4352
1772 4904
1773 2428
1773 2501
1773 2672
1773 2798
1773 2902
1773 2922
1773 3277
1773 3317
1773 3459
1773 3498
1773 3546
1773 3693
1773 3698
1773 3735
1773 3882
1773 3885
1773 4242
1773 4488
1773 4513
1773 4527
1773 4575
1773 4762
1774 1897
1774 2415
1774 2686
1774 2710
1774 2716
1774 2936
1774 2959
1774 3076
1774 3217
1774 3721
1774 3948
1774 4261
1774 4281
1774 4458
1774 4493
1774 4611
1774 4816
1774 4851
1775 1880
1775 2626
1775 2993
1775 3093
1775 3358
1775 3624
1775 3787
1775 4453
1775 4589
1775 4613
1776 2249
1776 2266
1776 2719
1776 2725
1776 3141
1776 4007
1776 4109
1776 4188
1776 4330
1776 4798
1777 1899
1777 2121
1777 2668
1777 2956
1777 3023
1777 3250
1777 3372
1777 3475
1777 3534
1777 3595
1777 3613
1777 4301
1777 4527
1777 4633
1777 4996
1778 2235
1778 2267
1778 2285
1778 2592
1778 2626
1778 2833
1778 3115
1778 3606
1778 3676
1778 3736
1778 3795
1778 3946
1778 3973
1778 4164
1778 4206
1778 4418
1778 4468
1778 4671
1779 1797
1779 1879
1779 2266
1779 2293
1779 2484
1779 2957
1779 3018
1779 3149
1779 3370
1779 3401
1779 3416
1779 3531
1779 3636
1779 3987
1779 3997
1779 4007
1779 4406
1779 4449
1779 4481
1779 4858
1780 2182
1780 2461
1780 3006
1780 3093
1780 3215
1780 3374
1780 3452
1780 3456
1780 3599
1780 3667
1780 3678
1780 3700
1780 3993
1780 4928
1781 1811
1781 1927
1781 2139
1781 2247
1781 2254
1781 2325
1781 2393
1781 2746
1781 2977
1781 3467
1781 3550
1781 3762
1781 4409
1781 4449
1781 4610
1781 4806
1781 4905
1782 1817
1782 2261
1782 2983
1782 3152
1782 3497
1782 3624
1782 3968
1782 4575
1783 2192
1783 2707
1783 2736
1783 3704
1783 4105
1783 4127
1783 4592
1783 4950
1784 1919
1784 2119
1784 2142
1784 2244
1784 2313
1784 2345
1784 2360
1784 2379
1784 2757
1784 3152
1784 3154
1784 3365
1784 3832
1784 4369
1784 4398
1784 4456
1784 4629
1784 4731
1785 2038
1785 2044
1785 2076
1785 2412
1785 2472
1785 2729
1785 2839
1785 2850
1785 2942
1785 3009
1785 3218
1785 3239
1785 3377
1785 3438
1785 3522
1785 3523
1785 3551
1785 4732
1785 4752
1785 4959
1785 4969
1786 2347
1786 2501
1786 2939
1786 3087
1786 3263
1786 3948
1786 3964
1786 4234
1786 4439
1786 4482
1786 4816
1786 4952
1787 2785
1787 2830
1787 2855
1787 3014
1787 3338
1787 3734
1787 4066
1787 4902
1788 2575
1788 2580
1788 2648
1788 2722
1788 2874
1788 3047
1788 3212
1788 4128
1788 4316
1788 4630
1788 4859
1789 1851
1789 2264
1789 2266
1789 2377
1789 2458
1789 2993
1789 3226
1789 3266
1789 3553
1789 3570
1789 3608
1789 3812
1789 3897
1789 3981
1789 4147
1789 4316
1789 4369
1790 1840
1790 1926
1790 1961
1790 2001
1790 2343
1790 2371
1790 2694
1790 2834
1790 3105
1790 3276
1790 3378
1790 3563
1790 3593
1790 3727
1790 3843
1790 4005
1790 4033
1790 4128
1790 4139
1790 4308
1790 4354
1790 4576
1790 4709
1790 4710
1790 4817
1790 4880
1790 4889
1790 4903
1790 4904
1791 1803
1791 2017
1791 2134
1791 3481
1791 3685
1791 3721
1791 4898
1792 1831
1792 2035
1792 2088
1792 2207
1792 2222
1792 2251
1792 2308
1792 2330
1792 2546
1792 2698
1792 2755
1792 2801
1792 2810
1792 2886
1792 2913
1792 2961
1792 2962
1792 3028
1792 3067
1792 3198
1792 3262
1792 3668
1792 3674
1792 3676
1792 3767
1792 3804
1792 3810
1792 3882
1792 3885
1792 3919
1792 3975
1792 3991
1792 3994
1792 4168
1792 4327
1792 4359
1792 4826
1792 4875
1792 4883
1792 4962
1793 2155
1793 2473
1793 2483
1793 2595
1793 2633
1793 2790
1793 3143
1793 3165
1793 3171
1793 3206
1793 3210
1793 3273
1793 3322
1793 3384
1793 3395
1793 3594
1793 3602
1793 3742
1793 3922
1793 3956
1793 4354
1793 4449
1793 4861
1793 4902
1794 1944
1794 2186
1794 2208
1794 2301
1794 2474
1794 2576
1794 2664
1794 2690
1794 2768
1794 2859
1794 3644
1794 3787
1794 3859
1794 3894
1794 4148
1794 4163
1794 4286
1794 4389
1794 4437
1794 4885
1795 2230
1795 2427
1795 2577
1795 2901
1795 3028
1795 3214
1795 4845
1796 1922
1796 1929
1796 1930
1796 2042
1796 2047
1796 2123
1796 2203
1796 2328
1796 2554
1796 2581
1796 2608
1796 2846
1796 3382
1796 3449
1796 3548
1796 3588
1796 3952
1796 4410
1796 4667
1796 4865
1797 1858
1797 2386
1797 2656
1797 2728
1797 3372
1797 3457
1797 3474
1797 3531
1797 3767
1797 3894
1797 4229
1798 1981
1798 2509
1798 2534
1798 2603
1798 2779
1798 2900
1798 3138
1798 3463
1798 3797
1798 3947
1798 4110
1798 4114
1798 4151
1798 4194
1798 4531
1798 4585
1798 4639
1798 4642
1799 2181
1799 2364
1799 2474
1799 3187
1799 3347
1799 3558
1800 1865
1800 1873
1800 2053
1800 2757
1800 3140
1800 3147
1800 3888
1800 3960
1800 4199
1800 4287
1800 4304
1801 2678
1801 3170
1801 3449
1801 3548
1801 4525
1802 2100
1802 2625
1802 2728
1802 2967
1802 3042
1802 3198
1802 3697
1802 3749
1802 4907
1802 4967
1803 1960
1803 1978
1803 2533
1803 2587
1803 2654
1803 2985
1803 3222
1803 3317
1803 3721
1803 4790
1803 4914
1803 4988
1803 4993
1804 1882
1804 2036
1804 2184
1804 2582
1804 2764
1804 2815
1804 2962
1804 3309
1804 3371
1804 3936
1804 3938
1804 4051
1804 4075
1805 2268
1805 3058
1805 3551
1805 3603
1805 3633
1805 3744
1805 3903
1805 4230
1806 2328
1806 2427
1806 2430
1806 2624
1806 3139
1806 3239
1806 3284
1806 3332
1806 3615
1806 4043
1806 4195
1806 4935
1806 4999
1807 2216
1807 2373
1807 2606
1807 2740
1807 3054
1807 3340
1807 3408
1807 3593
1807 3738
1808 2175
1808 2228
1808 2233
1808 2255
1808 2307
1808 4171
1808 4869
1809 1906
1809 2016
1809 2121
1809 2389
1809 2637
1809 3015
1809 3622
1809 4063
1809 4269
1809 4542
1809 4597
1809 4645
1810 2028
1810 2047
1810 2067
1810 2284
1810 2347
1810 2654
1810 2985
1810 3312
1810 3374
1810 3614
1810 3698
1810 3730
1810 3800
1810 3902
1810 4060
1810 4488
1811 1970
1811 2254
1811 2294
1811 2332
1811 2529
1811 2554
1811 2557
1811 2746
1811 3113
1811 3160
1811 3177
1811 3465
1811 3550
1811 3619
1811 3638
1811 4281
1811 4296
1811 4409
1811 4449
1811 4515
1811 4952
1812 1848
1812 1948
1812 1968
1812 2029
1812 2522
1812 2663
1812 3015
1812 3534
1812 3733
1812 3740
1812 4000
1812 4026
1812 4219
1812 4220
1812 4259
1812 4290
1812 4477
1812 4493
1812 4681
1812 4810
1812 4815
1812 4967
1813 1975
1813 2068
1813 2124
1813 2841
1813 2846
1813 2886
1813 2911
1813 2913
1813 3315
1813 3344
1813 3400
1813 3464
1813 3668
1813 4071
1813 4179
1813 4188
1813 4434
1813 4493
1813 4579
1813 4701
1813 4810
1814 1917
1814 1960
1814 1984
1814 2008
1814 2071
1814 2630
1814 2641
1814 3231
1814 3460
1814 3596
1814 3688
1814 4210
1814 4492
1814 4529
1814 4614
1814 4677
1814 4976
1815 2393
1815 2590
1815 3204
1815 3480
1815 3631
1815 3641
1815 4520
1815 4833
1816 1961
1816 2863
1816 3261
1816 3869
1816 3988
1816 4319
1816 4365
1817 2181
1817 2743
1817 2955
1817 3538
1817 3657
1817 3750
1817 4243
1817 4298
1817 4705
1817 4769
1817 4792
1818 1898
1818 2130
1818 2144
1818 2626
1818 2689
1818 2893
1818 2963
1818 3566
1818 4977
1819 2004
1819 2389
1819 3172
1819 3495
1819 3579
1819 3652
1819 3826
1819 3894
1819 4886
1820 1978
1820 2075
1820 2190
1820 2215
1820 2472
1820 2508
1820 2839
1820 3111
1820 3334
1820 3472
1820 3538
1820 3831
1820 3880
1820 4193
1820 4262
1820 4537
1820 4538
1820 4631
1820 4744
1820 4971
1821 1828
1821 1888
1821 1924
1821 2300
1821 2972
1821 3085
1821 4029
1821 4371
1822 3239
1822 3276
1822 4203
1822 4450
1823 1875
1823 2233
1823 2361
1823 2625
1823 2662
1823 2724
1823 2840
1823 2924
1823 3029
1823 3303
1823 3416
1823 3736
1823 3908
1823 3950
1823 4483
1823 4520
1823 4612
1823 4742
1824 1940
1824 2093
1824 2147
1824 2290
1824 2438
1824 2542
1824 2608
1824 3372
1824 3514
1824 3865
1824 4167
1824 4230
1824 4465
1824 4680
1825 2265
1825 2288
1825 2330
1825 2861
1825 2893
1825 4148
1825 4215
1825 4320
1825 4953
1826 2061
1826 3086
1826 3182
1826 3402
1826 3651
1826 3861
1826 4252
1826 4420
1827 2055
1827 2130
1827 2698
1827 2774
1827 3063
1827 3079
1827 3215
1827 3461
1827 3852
1827 4142
1827 4366
1827 4686
1827 4746
1827 4883
1828 1849
1828 2015
1828 2035
1828 2583
1828 2629
1828 2867
1828 2887
1828 2962
1828 2994
1828 3047
1828 3859
1828 3904
1828 3991
1828 4681
1828 4800
1828 4937
1829 2270
1829 2370
1829 2373
1829 2708
1829 3903
1829 4171
1829 4227
1829 4326
1829 4436
1829 4510
1830 2757
1830 2807
1830 3236
1830 4097
1830 4545
1830 4572
1830 4811
1831 1904
1831 2000
1831 2035
1831 2088
1831 2815
1831 3879
1831 4622
1831 4793
1831 4844
1832 2262
1832 2283
1832 2629
1832 3169
1832 3205
1832 3242
1832 3308
1832 3415
1832 3552
1832 3726
1833 2039
1833 2061
1833 2449
1833 2835
1833 2933
1833 3103
1833 3495
1833 3785
1833 4249
1833 4686
1833 4769
1834 2056
1834 3107
1834 3472
1834 3727
1834 4009
1834 4036
1834 4043
1834 4332
1834 4688
1834 4910
1835 1893
1835 1998
1835 2725
1835 3045
1835 3078
1835 3357
1835 3994
1835 4056
1836 2050
1836 2271
1836 2318
1836 2437
1836 2729
1836 2751
1836 2850
1836 2852
1836 2875
1836 2942
1836 3404
1836 4917
1836 4977
1837 2307
1837 2354
1837 2416
1837 2771
1837 2921
1837 3364
1837 3589
1837 3696
1837 3720
1837 3825
1837 4097
1837 4269
1837 4288
1837 4381
1837 4510
1837 4635
1837 4856
1838 2759
1838 3277
1838 3483
1838 3541
1838 4173
1838 4423
1838 4559
1838 4863
1838 4973
1839 1870
1839 1940
1839 2016
1839 2099
1839 2266
1839 2393
1839 2678
1839 3080
1839 3275
1839 3587
1839 3987
1839 4076
1839 4094
1839 4937
1840 2566
1840 2588
1840 2993
1840 3055
1840 4219
1840 4728
1840 4902
1841 1999
1841 2095
1841 2306
1841 2380
1841 2865
1841 2882
1841 2997
1841 3399
1841 3606
1841 3848
1841 4108
1841 4121
1841 4246
1841 4840
1841 4916
1842 2186
1842 2207
1842 2226
1842 2750
1842 2801
1842 2910
1842 2922
1842 3076
1842 3255
1842 4787
1842 4978
1843 2123
1843 2128
1843 2275
1843 2514
1843 2956
1843 3124
1843 3251
1843 3538
1843 3583
1843 4909
1843 4920
1844 1993
1844 2209
1844 2278
1844 2653
1844 2824
1844 2915
1844 3077
1844 3162
1844 3224
1844 3525
1844 3748
1844 3760
1844 3851
1844 3981
1844 4561
1844 4919
1845 2126
1845 2454
1845 2834
1845 2855
1845 3395
1845 4043
1845 4071
1845 4483
1845 4512
1845 4538
1845 4741
1845 4920
1846 1860
1846 2437
1846 3281
1846 3412
1846 3525
1846 3569
1846 3690
1846 3762
1847 2024
1847 2060
1847 2147
1847 2161
1847 2169
1847 2576
1847 2609
1847 3328
1847 3966
1847 3981
1847 4600
1847 4638
1848 2432
1848 2677
1848 2883
1848 3051
1848 3172
1848 3215
1848 3442
1848 3548
1848 3744
1848 3787
1848 3801
1848 3835
1848 4013
1848 4145
1848 4189
1848 4262
1848 4350
1848 4385
1848 4465
1848 4517
1848 4567
1848 4648
1848 4791
1848 4812
1848 4965
1848 4967
1849 1883
1849 2128
1849 2177
1849 2668
1849 2853
1849 2997
1849 3108
1849 3275
1849 3396
1849 3401
1849 3606
1849 3718
1849 3979
1849 4054
1849 4158
1849 4183
1849 4206
1849 4253
1849 4314
1849 4331
1849 4390
1849 4671
1849 4697
1849 4820
1850 1885
1850 1912
1850 2031
1850 2633
1850 2634
1850 2754
1850 2981
1850 3151
1850 3168
1850 3200
1850 3363
1850 3516
1850 3753
1850 3827
1850 4157
1850 4879
1851 2032
1851 2233
1851 2265
1851 2408
1851 2509
1851 2575
1851 2592
1851 2695
1851 2711
1851 2845
1851 2919
1851 3231
1851 3966
1851 4063
1851 4161
1851 4252
1851 4369
1851 4558
1851 4559
1851 4597
1851 4934
1852 2150
1852 2202
1852 2358
1852 2511
1852 2818
1852 2947
1852 3182
1852 3633
1852 4683
1852 4831
1853 2149
1853 2239
1853 2610
1853 2826
1853 2836
1853 2844
1853 2875
1853 3264
1853 3864
1853 4280
1853 4460
1853 4554
1854 2073
1854 2204
1854 2373
1854 2503
1854 2593
1854 2604
1854 2624
1854 2626
1854 2766
1854 2958
1854 3009
1854 3478
1854 3523
1854 3561
1854 3774
1854 4053
1854 4056
1854 4121
1854 4137
1854 4164
1854 4213
1854 4253
1854 4309
1854 4538
1854 4734
1855 1964
1855 2149
1855 2246
1855 2394
1855 3000
1855 3642
1855 3891
1855 4167
1855 4400
1855 4625
1856 2245
1856 2740
1856 2859
1856 3303
1856 3378
1856 3716
1856 3838
1856 4204
1856 4393
1856 4610
1856 4623
1856 4805
1856 4937
1856 4990
1857 2255
1857 2285
1857 2331
1857 2990
1857 3065
1857 4061
1857 4097
1857 4199
1857 4741
1858 2082
1858 2196
1858 2201
1858 2351
1858 2379
1858 2503
1858 2525
1858 2536
1858 2582
1858 2837
1858 2905
1858 3231
1858 3561
1858 3880
1858 3912
1858 4054
1858 4244
1858 4372
1858 4436
1858 4478
1858 4733
1858 4985
1859 2155
1859 2581
1859 2654
1859 2774
1859 3164
1859 3588
1859 3689
1859 4024
1859 4837
1860 1901
1860 1911
1860 2159
1860 2183
1860 2205
1860 2248
1860 2304
1860 2341
1860 2432
1860 2708
1860 2933
1860 3095
1860 3213
1860 3255
1860 3393
1860 3495
1860 3504
1860 3551
1860 3564
1860 3645
1860 3657
1860 3674
1860 3733
1860 3906
1860 3936
1860 3983
1860 4067
1860 4105
1860 4151
1860 4163
1860 4225
1860 4250
1860 4290
1860 4385
1860 4395
1860 4444
1860 4484
1860 4509
1860 4963
1860 4994
1861 2109
1861 2155
1861 2404
1861 2608
1861 3038
1861 3085
1861 3087
1861 3167
1861 3210
1861 3584
1861 3615
1861 3663
1861 3727
1861 3738
1861 3742
1861 3802
1861 3924
1861 4043
1861 4124
1861 4160
1861 4354
1861 4600
1861 4665
1861 4786
1861 4787
1861 4798
1862 1867
1862 1886
1862 1932
1862 2178
1862 2790
1862 2981
1862 3001
1862 3033
1862 3186
1862 3318
1862 3471
1862 3726
1863 1876
1863 1925
1863 2055
1863 2154
1863 2158
1863 2419
1863 2464
1863 2522
1863 2726
1863 2727
1863 2774
1863 2815
1863 2916
1863 2927
1863 2943
1863 2989
1863 3027
1863 3076
1863 3156
1863 3201
1863 3228
1863 3371
1863 3392
1863 3434
1863 3735
1863 3808
1863 3882
1863 3920
1863 4276
1863 4359
1863 4578
1863 4746
1863 4802
1863 4815
1863 4987
1864 2069
1864 2255
1864 2287
1864 2527
1864 2561
1864 2630
1864 2888
1864 3705
1864 4429
1864 4727
1864 4763
1865 1873
1865 1924
1865 1947
1865 2053
1865 2383
1865 2401
1865 2427
1865 2507
1865 2621
1865 2728
1865 2757
1865 2807
1865 3110
1865 3347
1865 3359
1865 3662
1865 3798
1865 3869
1865 3903
1865 3935
1865 4074
1865 4086
1865 4097
1865 4187
1865 4377
1865 4444
1865 4451
1865 4511
1865 4581
1865 4830
1866 2276
1866 2962
1866 3476
1866 3735
1866 4218
1866 4429
1866 4513
1866 4529
1866 4675
1866 4679
1866 4851
1867 2103
1867 2302
1867 2384
1867 2415
1867 2574
1867 2642
1867 2802
1867 2833
1867 2861
1867 2988
1867 3027
1867 3056
1867 3143
1867 3283
1867 3442
1867 3477
1867 3479
1867 3547
1867 3571
1867 3585
1867 3629
1867 3664
1867 3991
1867 4023
1867 4043
1867 4141
1867 4160
1867 4344
1867 4798
1867 4900
1867 4988
1868 2064
1868 2136
1868 2614
1868 2727
1868 2806
1868 2959
1868 3019
1868 3869
1868 4065
1868 4097
1868 4365
1868 4436
1868 4511
1868 4520
1868 4914
1868 4964
1868 4984
1868 4992
1869 2348
1869 3200
1869 3236
1869 3313
1869 4275
1869 4619
1869 4699
1869 4902
1870 2285
1870 2359
1870 2559
1870 3197
1870 3223
1870 4220
1870 4233
1870 4290
1870 4385
1870 4559
1871 2023
1871 2240
1871 3279
1871 3677
1871 3952
1871 4643
1871 4679
1871 4748
1871 4987
1872 2206
1872 2307
1872 2683
1872 2758
1872 2821
1872 3283
1872 3459
1872 3565
1872 3682
1872 3723
1872 4216
1872 4447
1872 4916
1873 2807
1873 2959
1873 2990
1873 3141
1873 3220
1873 3272
1873 3367
1873 4061
1873 4186
1873 4355
1874 2249
1874 2457
1874 2750
1874 2847
1874 2879
1874 2913
1874 2951
1874 3047
1874 3082
1874 3156
1874 3292
1874 4440
1874 4532
1874 4662
1875 1970
1875 2083
1875 2322
1875 2990
1875 3029
1875 3261
1875 3770
1875 3851
1875 3950
1875 4438
1875 4439
1875 4483
1875 4742
1876 2403
1876 2750
1876 2815
1876 2887
1876 3057
1876 3102
1876 3392
1876 3703
1876 3741
1876 3772
1876 3804
1876 3972
1876 4412
1877 2136
1877 2472
1877 2850
1877 3009
1877 3200
1877 3276
1877 3409
1877 3922
1877 4003
1877 4649
1877 4757
1878 1934
1878 2766
1878 3449
1878 3618
1878 3698
1878 4000
1878 4383
1878 4546
1878 4624
1878 4653
1878 4901
1878 4914
1878 4949
1879 1899
1879 2309
1879 2725
1879 3029
1879 3243
1879 3251
1879 3410
1879 3595
1879 3613
1879 3976
1879 4093
1879 4151
1879 4437
1879 4536
1879 4603
1880 2076
1880 2253
1880 3150
1880 3275
1880 3463
1880 3552
1880 3715
1880 4009
1880 4143
1880 4181
1880 4250
1880 4385
1880 4568
1880 4685
1881 1940
1881 2131
1881 2592
1881 2930
1881 3011
1881 3210
1881 3427
1881 3593
1881 3603
1881 3606
1881 3922
1881 4769
1882 3499
1882 3534
1882 3889
1882 3895
1882 4320
1882 4367
1882 4487
1882 4499
1882 4653
1882 4836
1883 2027
1883 2551
1883 2895
1883 2906
1883 2969
1883 3385
1883 3386
1883 3810
1883 3989
1883 4059
1883 4121
1883 4157
1883 4178
1883 4314
1883 4418
1883 4519
1883 4574
1883 4624
1883 4690
1883 4736
1884 1957
1884 2277
1884 2764
1884 2901
1884 3150
1884 3364
1884 3444
1884 4960
1885 1963
1885 2634
1885 3049
1885 3062
1885 3168
1885 3200
1885 3305
1885 4080
1885 4891
1886 1895
1886 2611
1886 3108
1886 3912
1886 4163
1886 4171
1886 4210
1886 4217
1886 4371
1886 4574
1886 4825
1887 1994
1887 2082
1887 2219
1887 2304
1887 3070
1887 3984
1887 4062
1887 4398
1887 4684
1888 2351
1888 3097
1888 3160
1888 3654
1888 3872
1888 4368
1888 4393
1888 4592
1888 4623
1888 4659
1888 4789
1888 4937
1889 2175
1889 2261
1889 2270
1889 2347
1889 2503
1889 2527
1889 2948
1889 3763
1889 3968
1889 4035
1890 1964
1890 2118
1890 3051
1890 3219
1890 3406
1890 3568
1890 3640
1890 4227
1890 4658
1891 2187
1891 2231
1891 2326
1891 2345
1891 2453
1891 2534
1891 2710
1891 2776
1891 2867
1891 2917
1891 3035
1891 3136
1891 3174
1891 3247
1891 3329
1891 3431
1891 3467
1891 3596
1891 3620
1891 3685
1891 3701
1891 3791
1891 4054
1891 4406
1891 4651
1891 4702
1891 4727
1891 4816
1891 4932
1891 4976
1892 1919
1892 1950
1892 2082
1892 2304
1892 2360
1892 2433
1892 2650
1892 2809
1892 3024
1892 3210
1892 3365
1892 3838
1892 3996
1892 4135
1892 4353
1892 4366
1892 4400
1892 4583
1892 4728
1892 4848
1892 4980
1893 1956
1893 2133
1893 2636
1893 2696
1893 2711
1893 2736
1893 2821
1893 2924
1893 2932
1893 3125
1893 3334
1893 3397
1893 3655
1893 3682
1893 3723
1893 4399
1893 4447
1893 4484
1893 4526
1893 4661
1893 4716
1893 4751
1893 4781
1893 4831
1893 4906
1894 2268
1894 2575
1894 2732
1894 3533
1894 3601
1894 4310
1894 4424
1894 4447
1894 4811
1895 1928
1895 2037
1895 2136
1895 2231
1895 2333
1895 2384
1895 2448
1895 2655
1895 2817
1895 2870
1895 2974
1895 2997
1895 3166
1895 3542
1895 3606
1895 3628
1895 3815
1895 3946
1895 3979
1895 3996
1895 4164
1895 4269
1895 4318
1895 4351
1895 4422
1895 4536
1895 4558
1895 4738
1895 4801
1895 4826
1895 4966
1895 4999
1896 1897
1896 2120
1896 2249
1896 2251
1896 2255
1896 2519
1896 2737
1896 2742
1896 2887
1896 3067
1896 3195
1896 3407
1896 3463
1896 3980
1896 4013
1896 4253
1896 4704
1896 4793
1896 4943
1897 2039
1897 2100
1897 2566
1897 3041
1897 3136
1897 3891
1897 3948
1897 4923
1898 1938
1898 2029
1898 2053
1898 2694
1898 3049
1898 3213
1898 3534
1898 3748
1898 3929
1898 4013
1898 4064
1899 2265
1899 2983
1899 3158
1899 3253
1899 3362
1899 3703
1899 3705
1899 3727
1899 3824
1899 4051
1899 4070
1899 4093
1899 4229
1899 4366
1899 4607
1899 4621
1899 4919
1900 2365
1900 2593
1900 2615
1900 2779
1900 2993
1900 3122
1900 3707
1900 4074
1900 4389
1900 4902
1900 4910
1901 3287
1901 3525
1901 3534
1901 3648
1901 3936
1901 4395
1901 4539
1901 4656
1902 2308
1902 2424
1902 2743
1902 2868
1902 3203
1902 3441
1902 4428
1902 4702
1902 4759
1902 4814
1903 1908
1903 2174
1903 2374
1903 2935
1903 3051
1903 3525
1903 4215
1903 4220
1903 4646
1904 2619
1904 2814
1904 3039
1904 3794
1904 3836
1904 4621
1904 4638
1904 4680
1904 4988
1904 4996
1904 4997
1905 2051
1905 2247
1905 3277
1905 3550
1905 3704
1905 3705
1905 4027
1905 4074
1905 4668
1906 2147
1906 2224
1906 2389
1906 2562
1906 2576
1906 2755
1906 2941
1906 3283
1906 3666
1906 3733
1906 3925
1906 4110
1906 4970
1907 2108
1907 2525
1907 2545
1907 2693
1907 2802
1907 3108
1907 3173
1907 3294
1907 3551
1907 4436
1907 4597
1907 4693
1907 4736
1907 4791
1908 2091
1908 2183
1908 2538
1908 3095
1908 3329
1908 3995
1908 4013
1908 4324
1908 4464
1908 4563
1908 4634
1909 3290
1909 3416
1909 3474
1909 3678
1909 3712
1909 3794
1909 3904
1909 3976
1909 4521
1909 4633
1909 4879
1910 2028
1910 3816
1910 3968
1910 4028
1910 4104
1910 4278
1910 4809
1910 4905
1910 4937
1911 2177
1911 2218
1911 2452
1911 2738
1911 4107
1912 2218
1912 2229
1912 2233
1912 2425
1912 2493
1912 2587
1912 2705
1912 3125
1912 3220
1912 3335
1912 3638
1912 4202
1912 4214
1912 4316
1912 4502
1912 4668
1912 4723
1913 1953
1913 2435
1913 3194
1913 3754
1913 4020
1913 4426
1913 4576
1913 4700
1913 4749
1914 1923
1914 2415
1914 2595
1914 2917
1914 3158
1914 3214
1914 3423
1914 4693
1915 2835
1915 2883
1915 2937
1915 3105
1915 3143
1915 3636
1915 3922
1915 4570
1915 4861
1915 4893
1915 4904
1916 1949
1916 1985
1916 2118
1916 2315
1916 3090
1916 3227
1916 3551
1916 3803
1917 1978
1917 2120
1917 2133
1917 2209
1917 2273
1917 2340
1917 2385
1917 2523
1917 2813
1917 3131
1917 3146
1917 3205
1917 3283
1917 3309
1917 4170
1917 4411
1917 4862
1917 4871
1917 4968
1918 1964
1918 2228
1918 2239
1918 2261
1918 2736
1918 3340
1918 3358
1918 3449
1918 3484
1918 3568
1918 4488
1918 4956
1919 2090
1919 2124
1919 2146
1919 2220
1919 2313
1919 2809
1919 3965
1919 3983
1919 4084
1919 4130
1919 4386
1919 4400
1919 4684
1919 4764
1919 4846
1919 4921
1920 2199
1920 2333
1920 2400
1920 2833
1920 3472
1920 3676
1920 4000
1920 4804
1920 4902
1921 2263
1921 2959
1921 2979
1921 3178
1921 3213
1921 3755
1921 4205
1921 4603
1921 4848
1921 4908
1922 1941
1922 1985
1922 2442
1922 2467
1922 2654
1922 3041
1922 3199
1922 3241
1922 3247
1922 3585
1922 3680
1922 3693
1922 3789
1922 3800
1922 3837
1922 3896
1922 4020
1922 4286
1922 4645
1923 2279
1923 2686
1923 2725
1923 3123
1923 3550
1923 3840
1923 4936
1923 4952
1924 1974
1924 3246
1924 3263
1924 3661
1924 4940
1925 1927
1925 2729
1925 2800
1925 2801
1925 2901
1925 3220
1925 3332
1925 3767
1925 4070
1925 4142
1925 4371
1925 4415
1925 4933
1925 4966
1926 2427
1926 2830
1926 2855
1926 3812
1926 3922
1926 4084
1926 4315
1926 4902
1927 2703
1927 2726
1927 2750
1927 3008
1927 3309
1927 3556
1927 3790
1927 3867
1927 4485
1927 4619
1927 4815
1928 1961
1928 2159
1928 2188
1928 2701
1928 2912
1928 3595
1928 3904
1928 4096
1928 4290
1928 4594
1929 1976
1929 2581
1929 3689
1929 3869
1929 3877
1929 4001
1929 4529
1929 4721
1929 4828
1930 1961
1930 1980
1930 2015
1930 2311
1930 2367
1930 2383
1930 2401
1930 2480
1930 2757
1930 2907
1930 3588
1930 3630
1930 3888
1930 3928
1930 4089
1930 4780
1930 4842
1931 2288
1931 2519
1931 2542
1931 2725
1931 2740
1931 2959
1931 3171
1931 3675
1931 4930
1932 2205
1932 2719
1932 2865
1932 3378
1932 3428
1932 3479
1932 3547
1932 3749
1932 3956
1932 4035
1932 4043
1932 4142
1932 4161
1932 4716
1932 4802
1932 4821
1932 4902
1932 4935
1933 2008
1933 2067
1933 2925
1933 2931
1933 3449
1933 3450
1933 3607
1933 3608
1933 3767
1933 3839
1933 3919
1933 3948
1933 4426
1933 4526
1933 4648
1933 4679
1934 2096
1934 2384
1934 2735
1934 3033
1934 3273
1934 3373
1934 3387
1934 3395
1934 3415
1934 3669
1934 3988
1935 2033
1935 2035
1935 2255
1935 2280
1935 2671
1935 2797
1935 2800
1935 2815
1935 2879
1935 2913
1935 3220
1935 3325
1935 3432
1935 3543
1935 3767
1935 3861
1935 3891
1935 4303
1935 4337
1936 2284
1936 2752
1936 2807
1936 3230
1936 3342
1936 3360
1936 3875
1936 4061
1936 4199
1936 4347
1936 4831
1936 4890
1936 4923
1937 2052
1937 2077
1937 2083
1937 2144
1937 2472
1937 2593
1937 2748
1937 2802
1937 2970
1937 3279
1937 3337
1937 3342
1937 3382
1937 3623
1937 3640
1937 3930
1937 3933
1937 4044
1937 4698
1937 4834
1937 4900
1937 4912
1937 4917
1938 1948
1938 2119
1938 2159
1938 2235
1938 2288
1938 2327
1938 2451
1938 2480
1938 2859
1938 2980
1938 3117
1938 3213
1938 3233
1938 3281
1938 3287
1938 3484
1938 3508
1938 3525
1938 3548
1938 3850
1938 3960
1938 4051
1938 4163
1938 4290
1938 4414
1938 4464
1938 4539
1938 4589
1938 4713
1939 2754
1939 2794
1939 2912
1939 3136
1939 3255
1939 3519
1939 3542
1939 3548
1939 3578
1939 3598
1939 3752
1939 3842
1939 3936
1939 3951
1939 4170
1939 4220
1939 4290
1939 4426
1939 4963
1939 4986
1940 1953
1940 2001
1940 2007
1940 2789
1940 2830
1940 3054
1940 3116
1940 3171
1940 3247
1940 3276
1940 3324
1940 3395
1940 3518
1940 3582
1940 3615
1940 3689
1940 3705
1940 3706
1940 3717
1940 3878
1940 4001
1940 4121
1940 4226
1940 4230
1940 4491
1940 4687
1940 4935
1941 2313
1941 2442
1941 2988
1941 3279
1941 3310
1941 3416
1941 3445
1941 3467
1941 3492
1941 3630
1941 3675
1941 3854
1941 3864
1941 3906
1941 4545
1941 4575
1941 4857
1941 4948
1942 2261
1942 2320
1942 2331
1942 3127
1942 3869
1942 4842
1943 1967
1943 2414
1943 2628
1943 2948
1943 2985
1943 3292
1943 3311
1943 4228
1943 4390
1943 4407
1943 4606
1943 4848
1944 2474
1944 2664
1944 2859
1944 3298
1944 3462
1944 3863
1944 4102
1944 4218
1944 4231
1944 4389
1944 4711
1945 2008
1945 2181
1945 2645
1945 2705
1945 2797
1945 3105
1945 3628
1945 3847
1945 4108
1946 2725
1946 2967
1946 3026
1946 3170
1946 3582
1946 3830
1946 4020
1946 4393
1946 4413
1946 4610
1946 4982
1947 1961
1947 2008
1947 2457
1947 2501
1947 3191
1947 3381
1947 3386
1947 3667
1947 4073
1947 4426
1947 4997
1948 2066
1948 3525
1948 3690
1948 3863
1948 4290
1948 4994
1948 4996
1949 2085
1949 2318
1949 2554
1949 2750
1949 2771
1949 2868
1949 2897
1949 3193
1949 3256
1949 3525
1949 3583
1949 3922
1949 4538
1949 4542
1949 4624
1949 4695
1950 2703
1950 2725
1950 2815
1950 2834
1950 3171
1950 3305
1950 3378
1950 3843
1950 4043
1950 4825
1950 4856
1950 4891
1950 4930
1951 2316
1951 2576
1951 2845
1951 4203
1951 4232
1951 4370
1952 1967
1952 2145
1952 2486
1952 3876
1952 4013
1952 4624
1952 4646
1952 4666
1952 4740
1952 4783
1952 4893
1952 4942
1953 2054
1953 2291
1953 2335
1953 2524
1953 2613
1953 2624
1953 2732
1953 2738
1953 3212
1953 3353
1953 3374
1953 3475
1953 3894
1953 3989
1953 4335
1953 4646
1953 4682
1954 2002
1954 2047
1954 2129
1954 2783
1954 2858
1954 2878
1954 2906
1954 2984
1954 4132
1954 4238
1954 4598
1955 2416
1955 2836
1955 3061
1955 3474
1955 3976
1955 3992
1955 4012
1955 4147
1955 4256
1956 2117
1956 2206
1956 2564
1956 2598
1956 2821
1956 2836
1956 3125
1956 3170
1956 3397
1956 3486
1956 4121
1956 4447
1956 4606
1957 2035
1957 2263
1957 2984
1957 3558
1957 3725
1957 3771
1957 3944
1957 4219
1957 4423
1957 4828
1957 4962
1958 2178
1958 2299
1958 2322
1958 2435
1958 2549
1958 2676
1958 2688
1958 2734
1958 2784
1958 3961
1958 4111
1958 4444
1958 4474
1958 4540
1958 4596
1958 4769
1958 4800
1959 2068
1959 2096
1959 2161
1959 2609
1959 2829
1959 3988
1959 4180
1959 4346
1960 2463
1960 2474
1960 2546
1960 3192
1960 3382
1960 4816
1961 1988
1961 2053
1961 2418
1961 2616
1961 2727
1961 2752
1961 2776
1961 2890
1961 2972
1961 3056
1961 3165
1961 3473
1961 3833
1961 3880
1961 3888
1961 3951
1961 4084
1961 4314
1961 4451
1961 4754
1961 4860
1961 4984
1962 2092
1962 2850
1962 2852
1962 2861
1962 2890
1962 3541
1962 3821
1962 3850
1962 4675
1962 4848
1962 4898
1963 2188
1963 2266
1963 2556
1963 2803
1963 3129
1963 3184
1963 3269
1963 3294
1963 3370
1963 3372
1963 3531
1963 3595
1963 3705
1963 3992
1963 4010
1963 4158
1963 4218
1963 4330
1964 2873
1964 3006
1964 3119
1964 3218
1964 3219
1964 3518
1964 3771
1964 3929
1964 4462
1964 4488
1964 4902
1965 2182
1965 2587
1965 2671
1965 3124
1965 3247
1965 3378
1965 3390
1965 3476
1965 3591
1965 3887
1965 3985
1965 4229
1966 2673
1966 2894
1966 3114
1966 3607
1966 3758
1966 3872
1966 3951
1966 4428
1966 4489
1966 4705
1966 4937
1967 1985
1967 2005
1967 2053
1967 2237
1967 2492
1967 2590
1967 2731
1967 2771
1967 2793
1967 2814
1967 2954
1967 2970
1967 3001
1967 3041
1967 3213
1967 3239
1967 3264
1967 3286
1967 3593
1967 3657
1967 3658
1967 3705
1967 3710
1967 3756
1967 3778
1967 3783
1967 3802
1967 3927
1967 3933
1967 4050
1967 4664
1967 4778
1967 4832
1968 2159
1968 2382
1968 3309
1968 3648
1968 3729
1968 3844
1968 3966
1968 4736
1968 4969
1969 2031
1969 2508
1969 3073
1969 3534
1969 4103
1969 4106
1969 4108
1969 4148
1969 4153
1969 4181
1969 4412
1969 4515
1969 4683
1969 4780
1969 4823
1970 2031
1970 3474
1970 3566
1970 3776
1970 4016
1970 4112
1970 4441
1970 4988
1971 2043
1971 2096
1971 2187
1971 2576
1971 2663
1971 2941
1971 3268
1971 3575
1971 4561
1971 4820
1972 2757
1972 2972
1972 3047
1972 3127
1972 3263
1972 3758
1972 4004
1972 4939
1973 2104
1973 2443
1973 2496
1973 2507
1973 2508
1973 2587
1973 2828
1973 3748
1973 3793
1973 3820
1973 4153
1973 4181
1973 4275
1974 2519
1974 2655
1974 2758
1974 3120
1974 3179
1974 3194
1974 3241
1974 3601
1974 4437
1974 4815
1975 1988
1975 2098
1975 2152
1975 2353
1975 2390
1975 2537
1975 2553
1975 2775
1975 2907
1975 2916
1975 2949
1975 2990
1975 3046
1975 3056
1975 3127
1975 3425
1975 3828
1975 3830
1975 3888
1975 3935
1975 4011
1975 4074
1975 4097
1975 4167
1975 4638
1976 2100
1976 2292
1976 2331
1976 2576
1976 2676
1976 3475
1976 3898
1976 3934
1976 4034
1977 2092
1977 2209
1977 2236
1977 2895
1977 2989
1977 3029
1977 3061
1977 3712
1977 4306
1977 4732
1978 2126
1978 2285
1978 2470
1978 3092
1978 3139
1978 4012
1978 4207
1978 4912
1979 1981
1979 2006
1979 2201
1979 2482
1979 2568
1979 2960
1979 2983
1979 3037
1979 3057
1979 3127
1979 3142
1979 3381
1979 3657
1979 3747
1979 4125
1979 4456
1979 4488
1979 4503
1979 4773
1979 4792
1980 2470
1980 3040
1980 3277
1980 3869
1980 4029
1980 4460
1980 4894
1981 2048
1981 2138
1981 2492
1981 2582
1981 2957
1981 3033
1981 3777
1981 3939
1981 3969
1981 4217
1981 4361
1981 4366
1981 4375
1981 4507
1981 4857
1981 4875
1982 2043
1982 2232
1982 2258
1982 2867
1982 2944
1982 3130
1982 3208
1982 3907
1982 4009
1983 2101
1983 2216
1983 2473
1983 3049
1983 3283
1983 3406
1983 3569
1983 4070
1983 4156
1983 4227
1983 4306
1983 4360
1983 4427
1983 4491
1983 4698
1983 4780
1984 2185
1984 2347
1984 2878
1984 3109
1984 4076
1984 4391
1984 4443
1984 4568
1984 4589
1985 2067
1985 2088
1985 2109
1985 2110
1985 2217
1985 2301
1985 2370
1985 2397
1985 2610
1985 3066
1985 3095
1985 3203
1985 3313
1985 3556
1985 3560
1985 3574
1985 3579
1985 3895
1985 3898
1985 3965
1985 4250
1985 4423
1985 4525
1985 4589
1985 4722
1986 2024
1986 2452
1986 2507
1986 2576
1986 2609
1986 2779
1986 3088
1986 3904
1986 3942
1986 4220
1986 4247
1986 4306
1986 4317
1986 4351
1986 4559
1986 4638
1986 4773
1986 4849
1986 4990
1987 2043
1987 2170
1987 2316
1987 2878
1987 3055
1987 3566
1987 3729
1987 3755
1987 4034
1987 4095
1987 4132
1987 4226
1987 4297
1987 4479
1987 4894
1987 4973
1987 4995
1988 2015
1988 2614
1988 2907
1988 3100
1988 3263
1988 3847
1988 4004
1988 4134
1988 4411
1988 4429
1989 2032
1989 2107
1989 2339
1989 2627
1989 2734
1989 2956
1989 3413
1989 3488
1989 3534
1989 3845
1989 4228
1989 4297
1989 4410
1989 4893
1989 4952
1990 2229
1990 2396
1990 2576
1990 2609
1990 2955
1990 3568
1990 3671
1990 3771
1990 3937
1990 4446
1990 4828
1991 2114
1991 2374
1991 2533
1991 2963
1991 3051
1991 3255
1991 3744
1991 4412
1991 4491
1991 4525
1992 2048
1992 2178
1992 3219
1992 3771
1992 4236
1992 4391
1992 4589
1992 4626
1993 2079
1993 2172
1993 2312
1993 2611
1993 2672
1993 2785
1993 3224
1993 3606
1993 3946
1993 4453
1993 4640
1993 4785
1994 2187
1994 2443
1994 2508
1994 3104
1994 3329
1994 3569
1994 4456
1994 4574
1994 4780
1995 2362
1995 2406
1995 2674
1995 3061
1995 3406
1995 3415
1996 2665
1996 3032
1996 3075
1996 3201
1996 3227
1996 3533
1996 4586
1996 4789
1996 4983
1997 2219
1997 2331
1997 2464
1997 2516
1997 2584
1997 3098
1997 3484
1997 4020
1997 4187
1997 4229
1997 4890
1998 2024
1998 2632
1998 2654
1998 2869
1998 3019
1998 3087
1998 3781
1998 3822
1998 4297
1998 4347
1998 4502
1998 4617
1998 4856
1998 4861
1998 4961
1999 2734
1999 3601
1999 3671
1999 4364
1999 4488
1999 4497
1999 4598
1999 4733
2000 2055
2000 2207
2000 2400
2000 2750
2000 2879
2000 2913
2000 4276
2001 2162
2001 2544
2001 2626
2001 3054
2001 3536
2001 3706
2001 3822
2001 3871
2001 3909
2002 2153
2002 2169
2002 2224
2002 2251
2002 2258
2002 2576
2002 2590
2002 3128
2002 3374
2002 3917
2002 3963
2002 4472
2002 4559
2003 2313
2003 2828
2003 2893
2003 3009
2003 3014
2003 3737
2003 4546
2003 4696
2003 4863
2003 4959
2004 2078
2004 2099
2004 2101
2004 2213
2004 2243
2004 2409
2004 2443
2004 2466
2004 2516
2004 2611
2004 2956
2004 3010
2004 3083
2004 3501
2004 3613
2004 3943
2004 4107
2004 4153
2004 4334
2004 4371
2004 4430
2004 4486
2004 4488
2004 4514
2004 4605
2004 4780
2005 2566
2005 2714
2005 2864
2005 3046
2005 3192
2005 3255
2005 3410
2005 3602
2005 4914
2006 2011
2006 2048
2006 2261
2006 2454
2006 2467
2006 2568
2006 2618
2006 2708
2006 3219
2006 3269
2006 3374
2006 4267
2006 4273
2006 4361
2007 2085
2007 2993
2007 3217
2007 3472
2007 3526
2007 3707
2007 4052
2007 4786
2008 2027
2008 2695
2008 2792
2008 3418
2008 3730
2008 4170
2008 4426
2008 4586
2008 4816
2008 4821
2009 2313
2009 2317
2009 2618
2009 2670
2009 2694
2009 2871
2009 2902
2009 3044
2009 3169
2009 3411
2009 3606
2009 3832
2009 4495
2009 4569
2009 4717
2009 4732
2010 2150
2010 2262
2010 2397
2010 2480
2010 2563
2010 2819
2010 2835
2010 2989
2010 3728
2010 3866
2010 3879
2010 4132
2010 4508
2010 4779
2011 2628
2011 2820
2011 2918
2011 3279
2011 3728
2011 3925
2011 4186
2011 4194
2011 4830
2011 4992
2012 2086
2012 2299
2012 2561
2012 2673
2012 3494
2012 3533
2012 3886
2012 4098
2012 4122
2012 4151
2012 4184
2012 4452
2012 4753
2013 2500
2013 3475
2013 4398
2014 2446
2014 2503
2014 3580
2014 3618
2014 3657
2014 3872
2014 4393
2014 4610
2014 4912
2014 4937
2014 4972
2015 2242
2015 2794
2015 2822
2015 3168
2015 4186
2015 4347
2016 2503
2016 2647
2016 2834
2016 2879
2016 3128
2016 3399
2016 3432
2016 3541
2016 3781
2016 4722
2016 4736
2016 4744
2016 4841
2017 2062
2017 2560
2017 2638
2017 2708
2017 2725
2017 2973
2017 3269
2017 3295
2017 3297
2017 3372
2017 3812
2017 3913
2017 3987
2018 3955
2018 4190
2019 2806
2019 3589
2019 3645
2019 3676
2019 3691
2019 3696
2019 4084
2019 4315
2019 4716
2019 4935
2020 2150
2020 2171
2020 2367
2020 2985
2020 3481
2020 3682
2020 3754
2020 4226
2020 4413
2020 4594
2020 4622
2020 4679
2020 4727
2020 4914
2021 2224
2021 3051
2021 3087
2021 3801
2021 4963
2021 4965
2022 2207
2022 2445
2022 2671
2022 2712
2022 2810
2022 3156
2022 3467
2022 3650
2022 3804
2023 2098
2023 2245
2023 2256
2023 2262
2023 3131
2023 3237
2023 3490
2023 3736
2023 3989
2023 4185
2023 4207
2023 4243
2023 4364
2023 4524
2023 4668
2024 2042
2024 2169
2024 2172
2024 2497
2024 2519
2024 2916
2024 2922
2024 3048
2024 3215
2024 3218
2024 3231
2024 3240
2024 3283
2024 3285
2024 3363
2024 3437
2024 3666
2024 3898
2024 3984
2024 4203
2024 4322
2024 4886
2024 4933
2025 2092
2025 2283
2025 2989
2025 3023
2025 3164
2025 3931
2025 3958
2025 4191
2025 4207
2025 4312
2025 4428
2026 2647
2026 2686
2026 3032
2026 3382
2026 3402
2026 3852
2026 3874
2026 4467
2026 4781
2027 2451
2027 2524
2027 2570
2027 2610
2027 2682
2027 2997
2027 3111
2027 3257
2027 3399
2027 3485
2027 3524
2027 3553
2027 3651
2027 3679
2027 3696
2027 4108
2027 4127
2027 4315
2027 4365
2027 4392
2027 4408
2027 4419
2027 4429
2027 4556
2027 4697
2027 4724
2027 4809
2028 2618
2028 2620
2028 2972
2028 3040
2028 3261
2028 4028
2029 2039
2029 2110
2029 2146
2029 2663
2029 2941
2029 3015
2029 3051
2029 3075
2029 3122
2029 3384
2029 3423
2029 3769
2029 4950
2030 2048
2030 2527
2030 2646
2030 3191
2030 3316
2030 3370
2030 4012
2030 4086
2030 4219
2030 4401
2031 2444
2031 3226
2031 4171
2031 4441
2031 4781
2032 2427
2032 3091
2032 3303
2032 3312
2032 3399
2032 3946
2032 4253
2032 4408
2032 4748
2033 2125
2033 2850
2033 2900
2033 3758
2033 3904
2033 4005
2033 4118
2033 4195
2033 4234
2033 4366
2033 4436
2033 4693
2033 4708
2034 3655
2034 3679
2034 3800
2034 4008
2034 4020
2034 4081
2034 4239
2034 4589
2034 4738
2034 4759
2035 2048
2035 2142
2035 2154
2035 2226
2035 2230
2035 2255
2035 2349
2035 2450
2035 2760
2035 2845
2035 2951
2035 2961
2035 3026
2035 3392
2035 3430
2035 3558
2035 3613
2035 3674
2035 3698
2035 3758
2035 3797
2035 3804
2035 3810
2035 3853
2035 3901
2035 3913
2035 3958
2035 3975
2035 3976
2035 4233
2035 4328
2035 4513
2035 4844
2035 4943
2036 2094
2036 2640
2036 2827
2036 3039
2036 3754
2036 4179
2036 4248
2036 4679
2036 4789
2037 2423
2037 2473
2037 2584
2037 2591
2037 3184
2037 3373
2037 3576
2037 3651
2037 3872
2037 4084
2037 4227
2037 4464
2037 4485
2037 4491
2037 4828
2038 2245
2038 2249
2038 2570
2038 2918
2038 2997
2038 3315
2038 3625
2038 3891
2038 4236
2038 4443
2039 2398
2039 2622
2039 2643
2039 2716
2039 4369
2039 4789
2039 4841
2040 2185
2040 2546
2040 3175
2040 4675
2041 2447
2041 2539
2041 3884
2041 4331
2041 4513
2041 4529
2041 4586
2041 4793
2041 4941
2042 2062
2042 2498
2042 2609
2042 3043
2042 4349
2042 4351
2042 4942
2043 2096
2043 2215
2043 2395
2043 2823
2043 3004
2043 3014
2043 3937
2043 4279
2043 4981
2044 2089
2044 2437
2044 2457
2044 2525
2044 2750
2044 2828
2044 2962
2044 3603
2044 4020
2044 4620
2044 4768
2045 2827
2045 3139
2045 3270
2045 3916
2045 4149
2046 2839
2046 3244
2046 3529
2046 3885
2046 4208
2046 4393
2046 4546
2046 4610
2046 4878
2047 2471
2047 2487
2047 2489
2047 2495
2047 2498
2047 2589
2047 2591
2047 2596
2047 2630
2047 2638
2047 2653
2047 2672
2047 2686
2047 2840
2047 2843
2047 2889
2047 2932
2047 2936
2047 2996
2047 3039
2047 3084
2047 3203
2047 3304
2047 3317
2047 3410
2047 3418
2047 3459
2047 3513
2047 3524
2047 3644
2047 3719
2047 3832
2047 3857
2047 3931
2047 3942
2047 3949
2047 3950
2047 4044
2047 4088
2047 4294
2047 4443
2047 4529
2047 4605
2047 4652
2047 4679
2047 4736
2047 4763
2047 4815
2047 4816
2047 4851
2047 4872
2047 4874
2048 2185
2048 2192
2048 2241
2048 2269
2048 2322
2048 2347
2048 2436
2048 2442
2048 2565
2048 2618
2048 2639
2048 2760
2048 2873
2048 2978
2048 3048
2048 3157
2048 3278
2048 3279
2048 3285
2048 3288
2048 3529
2048 3568
2048 3678
2048 3698
2048 3716
2048 3739
2048 3747
2048 3754
2048 3818
2048 4005
2048 4028
2048 4081
2048 4118
2048 4140
2048 4288
2048 4554
2048 4602
2048 4653
2049 2074
2049 2506
2049 2514
2049 2537
2049 2650
2049 2710
2049 2733
2049 2839
2049 3161
2049 3244
2049 3343
2049 3526
2049 3533
2049 3574
2049 3708
2049 4098
2049 4122
2049 4148
2050 2098
2050 2120
2050 2133
2050 2262
2050 2328
2050 2385
2050 2470
2050 2989
2050 3112
2050 3135
2050 3146
2050 3886
2050 3937
2050 4008
2050 4051
2050 4388
2050 4475
2050 4560
2051 2239
2051 2294
2051 2311
2051 2338
2051 2626
2051 3153
2051 3329
2051 4390
2051 4409
2051 4448
2051 4931
2052 2241
2052 2332
2052 2383
2052 2747
2052 2773
2052 2858
2052 2994
2052 3009
2052 3127
2052 3182
2052 3211
2052 3448
2052 3623
2052 3756
2052 3883
2052 4101
2052 4111
2052 4345
2052 4831
2053 2241
2053 2256
2053 2275
2053 2959
2053 2990
2053 3387
2053 3702
2053 3828
2053 3935
2053 4186
2053 4187
2053 4284
2053 4926
2053 4959
2054 2838
2054 3642
2054 3668
2054 4159
2054 4293
2054 4542
2054 4585
2054 4666
2054 4682
2054 4739
2054 4827
2054 4978
2055 2186
2055 2774
2055 2990
2055 3300
2055 3392
2055 4195
2055 4229
2055 4386
2055 4419
2055 4826
2055 4943
2056 2126
2056 2164
2056 3082
2056 3102
2056 3278
2056 3358
2056 3789
2056 3837
2056 3972
2056 4123
2056 4125
2056 4144
2056 4190
2056 4236
2056 4367
2056 4516
2056 4611
2056 4822
2057 2319
2057 2503
2057 2636
2057 3154
2057 3562
2057 3787
2057 4008
2057 4408
2057 4726
2057 4736
2057 4957
2058 2313
2058 2683
2058 3338
2058 3643
2058 3987
2058 4479
2058 4558
2058 4756
2058 4767
2059 2189
2059 2194
2059 2514
2059 2558
2059 2627
2059 2673
2059 2749
2059 2763
2059 2822
2059 2867
2059 3108
2059 3587
2059 3595
2059 3811
2059 4393
2060 2151
2060 2298
2060 3213
2060 3259
2060 3380
2060 3447
2060 3687
2060 3838
2060 4370
2060 4383
2061 2135
2061 2203
2061 2277
2061 2356
2061 2370
2061 2868
2061 2926
2061 3139
2061 3145
2061 3573
2061 4267
2061 4355
2061 4357
2061 4466
2061 4521
2061 4629
2061 4728
2061 4828
2061 4897
2062 2089
2062 2224
2062 2310
2062 3022
2062 3042
2062 3160
2062 3243
2062 3352
2062 3365
2062 3441
2062 3525
2062 3558
2062 3580
2062 3832
2062 3897
2062 4112
2062 4441
2062 4754
2062 4891
2063 2099
2063 2196
2063 2419
2063 2644
2063 2796
2063 2816
2063 3671
2063 3693
2063 4090
2063 4111
2063 4114
2063 4256
2063 4428
2063 4432
2063 4591
2063 4844
2063 4928
2063 4992
2064 2098
2064 2136
2064 2233
2064 2570
2064 2748
2064 2915
2064 2969
2064 3189
2064 3555
2064 3668
2064 3774
2064 4401
2064 4597
2064 4611
2064 4625
2064 4773
2065 2072
2065 2133
2065 2195
2065 2245
2065 2470
2065 2566
2065 2568
2065 2597
2065 2629
2065 2651
2065 3112
2065 3450
2065 3604
2065 4050
2065 4504
2065 4540
2065 4732
2066 2086
2066 2103
2066 2194
2066 2388
2066 2558
2066 2602
2066 2650
2066 2754
2066 2922
2066 3533
2066 3772
2066 4151
2066 4168
2066 4191
2066 4360
2066 4798
2066 4905
2066 4923
2066 4979
2067 2503
2067 2634
2067 3104
2067 3656
2067 3803
2067 4032
2067 4153
2067 4624
2067 4694
2067 4865
2067 4967
2068 2187
2068 2215
2068 2224
2068 2316
2068 2585
2068 2629
2068 2955
2068 3195
2068 3204
2068 3283
2068 3671
2068 3878
2068 3907
2068 4045
2068 4222
2068 4247
2068 4284
2069 2322
2069 2333
2069 2475
2069 2503
2069 2582
2069 2626
2069 2646
2069 2684
2069 2748
2069 2787
2069 2839
2069 2988
2069 3184
2069 3399
2069 3724
2069 3736
2069 4053
2069 4164
2069 4370
2069 4657
2069 4677
2069 4678
2069 4801
2069 4832
2070 2309
2070 2681
2070 3211
2070 3522
2070 3569
2070 4081
2070 4086
2070 4242
2070 4692
2071 2178
2071 2193
2071 2221
2071 2583
2071 2687
2071 2693
2071 2708
2071 2788
2071 3237
2071 3431
2071 3825
2071 3847
2071 3997
2071 4297
2071 4452
2071 4509
2071 4743
2071 4787
2072 2092
2072 2098
2072 2133
2072 2252
2072 2358
2072 2480
2072 2598
2072 2619
2072 2725
2072 2726
2072 2999
2072 3126
2072 3139
2072 3181
2072 3205
2072 3455
2072 3529
2072 3604
2072 3605
2072 3844
2072 4134
2072 4235
2072 4397
2072 4428
2072 4438
2072 4481
2072 4564
2072 4719
2072 4732
2073 2079
2073 2171
2073 2282
2073 2371
2073 2527
2073 2976
2073 3071
2073 3736
2073 4372
2073 4467
2073 4535
2073 4597
2073 4678
2073 4722
2073 4772
2073 4806
2073 4901
2074 2129
2074 2514
2074 3021
2074 3125
2074 3643
2074 4098
2074 4110
2074 4151
2074 4178
2074 4306
2074 4598
2074 4830
2075 2235
2075 2272
2075 2295
2075 2321
2075 2456
2075 2514
2075 2586
2075 2626
2075 2699
2075 2927
2075 3051
2075 3224
2075 3257
2075 3373
2075 3619
2075 4028
2075 4436
2075 4602
2075 4744
2075 4913
2076 2114
2076 2218
2076 2375
2076 2503
2076 2680
2076 3227
2076 3566
2076 3581
2076 3984
2076 4063
2076 4125
2076 4539
2077 2113
2077 2181
2077 2369
2077 2429
2077 3386
2077 3789
2077 4360
2077 4724
2078 2081
2078 2101
2078 2243
2078 2266
2078 2280
2078 2358
2078 2741
2078 2928
2078 3569
2078 4173
2078 4232
2078 4283
2078 4304
2078 4306
2078 4412
2078 4577
2079 2233
2079 2332
2079 2592
2079 2626
2079 2682
2079 2839
2079 2976
2079 3150
2079 3603
2079 3628
2079 3746
2079 4164
2079 4511
2079 4577
2079 4677
2079 4720
2079 4941
2079 4978
2080 2277
2080 2733
2080 3001
2080 3161
2080 3533
2080 3603
2080 3777
2080 3789
2080 4265
2080 4336
2080 4358
2080 4645
2080 4653
2081 2099
2081 2101
2081 2140
2081 2177
2081 2213
2081 2594
2081 2700
2081 3088
2081 3346
2081 3391
2081 3495
2081 3501
2081 4069
2081 4149
2081 4181
2081 4183
2081 4189
2081 4306
2081 4325
2081 4468
2081 4486
2081 4601
2081 4608
2081 4638
2081 4715
2081 4996
2082 2313
2082 2352
2082 2404
2082 2432
2082 2896
2082 3527
2082 3683
2082 3744
2082 3983
2082 3984
2082 4035
2082 4135
2082 4177
2082 4398
2082 4400
2082 4952
2083 2104
2083 2110
2083 2747
2083 2803
2083 2850
2083 2886
2083 3009
2083 3105
2083 3441
2083 3657
2083 3846
2083 4381
2083 4467
2083 4669
2083 4727
2083 4757
2083 4977
2083 4988
2084 2115
2084 2394
2084 2487
2084 2737
2084 2973
2084 3158
2084 3226
2084 3238
2084 3319
2084 3812
2084 3913
2084 4158
2084 4229
2084 4318
2084 4369
2084 4480
2084 4813
2085 2155
2085 2199
2085 3001
2085 3210
2085 3322
2085 3706
2085 3727
2085 3922
2085 4043
2085 4084
2085 4160
2085 4786
2085 4891
2085 4946
2085 4979
2086 2142
2086 2320
2086 2514
2086 2544
2086 2917
2086 3102
2086 3600
2086 3608
2086 3735
2086 4070
2086 4122
2086 4191
2086 4232
2086 4532
2086 4598
2086 4810
2087 2132
2087 2339
2087 2399
2087 2611
2087 2814
2087 2850
2087 3077
2087 3093
2087 3141
2087 3239
2087 3451
2087 3522
2087 3627
2087 3652
2087 3823
2087 3982
2087 4450
2087 4470
2087 4546
2087 4855
2088 2093
2088 2107
2088 2697
2088 3026
2088 3209
2088 3420
2088 3804
2088 3810
2088 3899
2088 4010
2088 4040
2088 4094
2088 4337
2088 4623
2088 4943
2089 2168
2089 2247
2089 2248
2089 2266
2089 2472
2089 2973
2089 3187
2089 3268
2089 3291
2089 3320
2089 3705
2089 3801
2089 3812
2089 3913
2089 3981
2089 3992
2089 3997
2089 4078
2089 4109
2089 4145
2089 4158
2089 4229
2089 4301
2089 4363
2089 4382
2089 4502
2089 4536
2089 4598
2090 2304
2090 2352
2090 2417
2090 2426
2090 2432
2090 2460
2090 3386
2090 3418
2090 3983
2090 3984
2090 4398
2090 4400
2090 4523
2090 4695
2090 4868
2091 3316
2091 3377
2091 3386
2091 3545
2091 3560
2091 3577
2091 3618
2091 3803
2091 4253
2091 4290
2091 4428
2091 4798
2091 4807
2091 4852
2092 2150
2092 2181
2092 2245
2092 2646
2092 2819
2092 2944
2092 3014
2092 3108
2092 3126
2092 3139
2092 3397
2092 3445
2092 3604
2092 3860
2092 4564
2092 4593
2092 4732
2092 4844
2092 4994
2093 2410
2093 2486
2093 2527
2093 2578
2093 2803
2093 3865
2093 4167
2093 4226
2093 4378
2093 4380
2093 4465
2093 4796
2094 2177
2094 2184
2094 2243
2094 2390
2094 2433
2094 2443
2094 2631
2094 2816
2094 3049
2094 4148
2094 4149
2094 4181
2094 4304
2094 4306
2095 2157
2095 2664
2095 2985
2095 3279
2095 3458
2095 3751
2095 3771
2095 3879
2095 4060
2095 4073
2095 4081
2095 4855
2096 2157
2096 2316
2096 2373
2096 2384
2096 2439
2096 2497
2096 2576
2096 2922
2096 2955
2096 3092
2096 3229
2096 3363
2096 3465
2096 3891
2096 4140
2096 4180
2096 4221
2096 4245
2096 4247
2096 4414
2096 4446
2096 4584
2096 4683
2096 4716
2096 4945
2097 2154
2097 2444
2097 2504
2097 2519
2097 2561
2097 2580
2097 2632
2097 3662
2097 4141
2097 4229
2097 4252
2097 4459
2097 4743
2098 2120
2098 2265
2098 2367
2098 2544
2098 2726
2098 2946
2098 3011
2098 3082
2098 3139
2098 4397
2098 4892
2099 2184
2099 2213
2099 2252
2099 2271
2099 2293
2099 2409
2099 2505
2099 2508
2099 2513
2099 2629
2099 2899
2099 2969
2099 2997
2099 3020
2099 3049
2099 3074
2099 3088
2099 3162
2099 3194
2099 3210
2099 3494
2099 3501
2099 3553
2099 4070
2099 4077
2099 4107
2099 4153
2099 4156
2099 4172
2099 4223
2099 4275
2099 4283
2099 4376
2099 4412
2099 4427
2099 4468
2099 4557
2099 4601
2099 4718
2099 4824
2100 2169
2100 2232
2100 2877
2100 2955
2100 3363
2100 3371
2100 3558
2100 3942
2100 3989
2100 4089
2100 4095
2100 4119
2100 4140
2100 4240
2100 4559
2101 2211
2101 2339
2101 2488
2101 2661
2101 2690
2101 2693
2101 3792
2101 3800
2101 3881
2101 4077
2101 4181
2101 4325
2101 4338
2101 4383
2101 4755
2101 4780
2101 4931
2102 2397
2102 2600
2102 3163
2102 3757
2102 3997
2102 4499
2102 4655
2102 4797
2102 4974
2103 2122
2103 2129
2103 2194
2103 2243
2103 2277
2103 2514
2103 2602
2103 2887
2103 2917
2103 3421
2103 3500
2103 3643
2103 3662
2103 3708
2103 4110
2103 4645
2104 2149
2104 2150
2104 2265
2104 2383
2104 2706
2104 2781
2104 2874
2104 3293
2104 3385
2104 4364
2104 4624
2104 4645
2104 4646
2105 2218
2105 2273
2105 2740
2105 3111
2105 3167
2105 3550
2105 3893
2105 4083
2105 4174
2105 4482
2105 4675
2106 2254
2106 2295
2106 2644
2106 2729
2106 2979
2106 3175
2106 3196
2106 3346
2106 3522
2106 3617
2106 3618
2106 3688
2106 3746
2106 3785
2106 4129
2106 4291
2106 4501
2106 4831
2107 2482
2107 2627
2107 2956
2107 3110
2107 3263
2107 3289
2107 3306
2107 3981
2107 4139
2107 4666
2107 4682
2107 4772
2107 4893
2108 2948
2108 3471
2108 3581
2108 3691
2108 4170
2108 4409
2108 4452
2108 4732
2108 4796
2109 2237
2109 2517
2109 2732
2109 3155
2109 3266
2109 3327
2109 3482
2109 3649
2109 3752
2110 2652
2110 3579
2110 3736
2110 3815
2110 3848
2110 4010
2110 4226
2110 4493
2110 4626
2110 4633
2110 4669
2111 2258
2111 2609
2111 2839
2111 2944
2111 3575
2111 3608
2111 4008
2111 4284
2111 4741
2111 4806
2112 2311
2112 2413
2112 2654
2112 2830
2112 3046
2112 3372
2112 3960
2112 4184
2112 4248
2112 4569
2112 4779
2112 4890
2113 2347
2113 2426
2113 2467
2113 2618
2113 3152
2113 3170
2113 3249
2113 3771
2113 3893
2113 4012
2113 4192
2113 4361
2114 2183
2114 2374
2114 2919
2114 3227
2114 3316
2114 3406
2114 3482
2114 3552
2114 3731
2114 3801
2114 3857
2114 3929
2114 4055
2114 4477
2114 4572
2114 4636
2114 4688
2114 4778
2114 4967
2115 2484
2115 2850
2115 2914
2115 3042
2115 3224
2115 3226
2115 3319
2115 3352
2115 3621
2115 3776
2115 3782
2115 3814
2115 4112
2115 4333
2115 4373
2116 2662
2116 2707
2116 2849
2116 3262
2116 3466
2116 3752
2116 4105
2116 4344
2116 4646
2116 4950
2117 2270
2117 2319
2117 2560
2117 2599
2117 2687
2117 2748
2117 2841
2117 2872
2117 3091
2117 3539
2117 3774
2117 4035
2117 4113
2117 4171
2117 4213
2117 4733
2118 2299
2118 2382
2118 2534
2118 2653
2118 3095
2118 3326
2118 3543
2118 3744
2118 4967
2119 2291
2119 2304
2119 2313
2119 2345
2119 2352
2119 2432
2119 2940
2119 3015
2119 3095
2119 4366
2119 4610
2119 4684
2120 2179
2120 2195
2120 2236
2120 2418
2120 2531
2120 2598
2120 2845
2120 2971
2120 3014
2120 3061
2120 3139
2120 3333
2120 3604
2120 4008
2120 4137
2120 4243
2120 4296
2120 4341
2120 4349
2120 4564
2120 4699
2121 3121
2121 3352
2121 3416
2121 3455
2121 3471
2121 3831
2121 3981
2121 4010
2121 4105
2121 4158
2121 4220
2121 4406
2122 2514
2122 2558
2122 2733
2122 3533
2122 3546
2122 3660
2122 3681
2122 3800
2122 3995
2122 4653
2122 4946
2123 2191
2123 2675
2123 3389
2123 3422
2123 3423
2123 3588
2123 4357
2123 4799
2123 4828
2123 4882
2124 2192
2124 2213
2124 2414
2124 2517
2124 2744
2124 2911
2124 3400
2124 4188
2124 4654
2124 4747
2125 2765
2125 2816
2125 2941
2125 3090
2125 3108
2125 3195
2125 3340
2125 3360
2125 3368
2125 3672
2125 4027
2125 4956
2126 2171
2126 2179
2126 2265
2126 2350
2126 2369
2126 2574
2126 2629
2126 2651
2126 2835
2126 2989
2126 3205
2126 3259
2126 3670
2126 3949
2126 4235
2126 4388
2126 4508
2127 2306
2127 2416
2127 2610
2127 2694
2127 2959
2127 4502
2127 4557
2127 4692
2128 2414
2128 2550
2128 2626
2128 2781
2128 3399
2128 4171
2128 4227
2128 4252
2128 4408
2128 4987
2129 2335
2129 3002
2129 3029
2129 3452
2129 3533
2129 3567
2129 3627
2129 3947
2129 4010
2129 4033
2129 4110
2129 4151
2129 4169
2129 4591
2129 4710
2129 4738
2129 4936
2130 2132
2130 2181
2130 2597
2130 2621
2130 2942
2130 3421
2130 3441
2130 3945
2130 4282
2130 4293
2130 4781
2130 4849
2130 4952
2130 4959
2131 2175
2131 2317
2131 2381
2131 2498
2131 2654
2131 2695
2131 3426
2131 4197
2131 4629
2131 4714
2131 4753
2132 2279
2132 2719
2132 2743
2132 3134
2132 4136
2132 4227
2132 4542
2132 4675
2132 4940
2133 2150
2133 2207
2133 2674
2133 2989
2133 3112
2133 3146
2133 3173
2133 3460
2133 3485
2133 3569
2133 3603
2133 4412
2133 4418
2133 4487
2133 4508
2133 4730
2134 2990
2134 3217
2134 3568
2134 3721
2134 3943
2134 4019
2134 4328
2134 4789
2134 4988
2135 2203
2135 2405
2135 2458
2135 2554
2135 3027
2135 3145
2135 3322
2135 3457
2135 3573
2135 3889
2135 4043
2135 4116
2135 4409
2135 4460
2135 4466
2135 4742
2136 2246
2136 2494
2136 2545
2136 2586
2136 2591
2136 2956
2136 3073
2136 3250
2136 3285
2136 3695
2136 3764
2136 3861
2136 3885
2136 4108
2136 4171
2136 4253
2136 4640
2136 4676
2136 4849
2137 2241
2137 2297
2137 2655
2137 2657
2137 2932
2137 3120
2137 3146
2137 4141
2137 4229
2137 4393
2137 4396
2137 4708
2137 4754
2138 2206
2138 2359
2138 2375
2138 2436
2138 2500
2138 2716
2138 2959
2138 3004
2138 3170
2138 3381
2138 3675
2138 3934
2138 3941
2138 3952
2138 3968
2138 4052
2138 4549
2139 2191
2139 2372
2139 2431
2139 2485
2139 3070
2139 3402
2139 3553
2139 3654
2139 3670
2139 4212
2139 4431
2139 4610
2139 4692
2139 4888
2139 4937
2140 2644
2140 2927
2140 3439
2140 3448
2140 3576
2140 3730
2140 3854
2140 4012
2140 4488
2140 4632
2140 4880
2140 4905
2141 2242
2141 2268
2141 2332
2141 2565
2141 2731
2141 2758
2141 2831
2141 3136
2141 3199
2141 3245
2141 3376
2141 3466
2141 3490
2141 3499
2141 3523
2141 3586
2141 3643
2141 3791
2141 3823
2141 3890
2141 4146
2141 4289
2141 4379
2141 4469
2141 4590
2141 4707
2141 4864
2141 4874
2141 4892
2141 4894
2142 2469
2142 2612
2142 2653
2142 2735
2142 2917
2142 3253
2142 3439
2142 3872
2142 3910
2142 3923
2142 4079
2142 4279
2142 4409
2142 4803
2142 4819
2142 4908
2143 2569
2143 2625
2143 3025
2143 4393
2143 4862
2144 2472
2144 2475
2144 2771
2144 2934
2144 3239
2144 3280
2144 3483
2144 3522
2144 3647
2144 3657
2144 3968
2144 4068
2144 4246
2144 4439
2144 4470
2144 4525
2144 4769
2144 4814
2145 2245
2145 2397
2145 2931
2145 3347
2145 3355
2145 3478
2145 4118
2145 4244
2145 4284
2145 4555
2145 4655
2145 4735
2146 2466
2146 2536
2146 2861
2146 3213
2146 4196
2146 4283
2146 4565
2147 2609
2147 2800
2147 4014
2147 4055
2147 4095
2147 4602
2148 2193
2148 2221
2148 2407
2148 2547
2148 2638
2148 2693
2148 2708
2148 2772
2148 3133
2148 3825
2148 4211
2148 4881
2148 4894
2148 4932
2149 2154
2149 2514
2149 2521
2149 3118
2149 3191
2149 3264
2149 3470
2149 3572
2149 3694
2149 3772
2149 3977
2149 4179
2149 4279
2149 4460
2149 4817
2149 4876
2149 4995
2150 2160
2150 2415
2150 2480
2150 2670
2150 3605
2150 3917
2150 4235
2150 4412
2150 4428
2150 4732
2150 4876
2151 2263
2151 2415
2151 2617
2151 2635
2151 2907
2151 3014
2151 3042
2151 3423
2151 3707
2151 3921
2151 3923
2151 4138
2151 4179
2151 4286
2151 4693
2151 4832
2152 2257
2152 2503
2152 2640
2152 3430
2152 3848
2152 4510
2152 4679
2152 4692
2153 2514
2153 2555
2153 2594
2153 2954
2153 3707
2153 3942
2153 3989
2153 4031
2153 4076
2153 4132
2153 4247
2153 4284
2153 4298
2153 4349
2153 4815
2154 2299
2154 2349
2154 2394
2154 2421
2154 2703
2154 2737
2154 2783
2154 2879
2154 2901
2154 2948
2154 2951
2154 2961
2154 2962
2154 3156
2154 3373
2154 3741
2154 3790
2154 3904
2154 3971
2154 4311
2154 4327
2154 4337
2154 4776
2154 4844
2154 4871
2154 4904
2154 4927
2155 2423
2155 2574
2155 2833
2155 3101
2155 3154
2155 3318
2155 3364
2155 3464
2155 3663
2155 4284
2155 4306
2155 4333
2155 4880
2156 2237
2156 2240
2156 2340
2156 2516
2156 2734
2156 2998
2156 3364
2156 4624
2156 4646
2156 4666
2156 4727
2156 4827
2157 2161
2157 2172
2157 2187
2157 2258
2157 2609
2157 2619
2157 2877
2157 3283
2157 3641
2157 3973
2157 4319
2157 4349
2157 4404
2158 2263
2158 2566
2158 2695
2158 2962
2158 3067
2158 3156
2158 3958
2158 3991
2158 4269
2158 4343
2158 4411
2158 4655
2158 4871
2158 4902
2159 2262
2159 2273
2159 2340
2159 2389
2159 3183
2159 3258
2159 3457
2159 3463
2159 3464
2159 3525
2159 3939
2159 4248
2159 4464
2159 4493
2159 4586
2159 4614
2159 4686
2160 2195
2160 2465
2160 3139
2160 3526
2160 3561
2160 3836
2160 3879
2160 4839
2161 2232
2161 2285
2161 2316
2161 2523
2161 2564
2161 2878
2161 2926
2161 2955
2161 3285
2161 3307
2161 3344
2161 3925
2161 3988
2161 4124
2161 4235
2161 4294
2161 4401
2162 2259
2162 2482
2162 2510
2162 2568
2162 2579
2162 2697
2162 2956
2162 3013
2162 3017
2162 3212
2162 3599
2162 3712
2162 4018
2162 4198
2162 4229
2162 4231
2162 4403
2162 4666
2162 4972
2162 4978
2163 2189
2163 2207
2163 2282
2163 2369
2163 2403
2163 2613
2163 2737
2163 2795
2163 2879
2163 3038
2163 3614
2163 3619
2163 3790
2163 4082
2163 4546
2163 4622
2163 4704
2163 4815
2163 4826
2163 4946
2163 4969
2164 2366
2164 2415
2164 2554
2164 3118
2164 3263
2164 3320
2164 3965
2164 4033
2164 4522
2164 4693
2165 2292
2165 2392
2165 2472
2165 2705
2165 2770
2165 3224
2165 3602
2165 3835
2165 3884
2165 4030
2165 4153
2165 4263
2165 4302
2165 4376
2165 4615
2165 4835
2166 2172
2166 2215
2166 2232
2166 2320
2166 2321
2166 2384
2166 2402
2166 2458
2166 3069
2166 3141
2166 3159
2166 3218
2166 3283
2166 3470
2166 3666
2166 3942
2166 3973
2166 4294
2166 4319
2166 4961
2166 4970
2167 2771
2167 2787
2167 2957
2167 3178
2167 3591
2167 3601
2167 3602
2167 3638
2167 3670
2167 3884
2167 3895
2167 3909
2167 3918
2167 4306
2167 4321
2167 4727
2168 2252
2168 2269
2168 2341
2168 2488
2168 3018
2168 3129
2168 3377
2168 3775
2168 3824
2168 3894
2168 3976
2168 4097
2168 4112
2168 4147
2168 4398
2168 4401
2168 4413
2168 4627
2169 2663
2169 3644
2169 3852
2169 3928
2169 4240
2169 4247
2169 4269
2169 4683
2170 2209
2170 2265
2170 2686
2170 2949
2170 3131
2170 3139
2170 3713
2170 3837
2170 4207
2170 4260
2170 4504
2171 2228
2171 2260
2171 2312
2171 2555
2171 2586
2171 2611
2171 2699
2171 2815
2171 2817
2171 2824
2171 2834
2171 2929
2171 3068
2171 3224
2171 3349
2171 3481
2171 3651
2171 3736
2171 3926
2171 4066
2171 4113
2171 4165
2171 4183
2171 4408
2171 4420
2171 4602
2171 4625
2171 4631
2171 4640
2171 4687
2171 4866
2171 4957
2172 2609
2172 2955
2172 3218
2172 3677
2172 4187
2172 4261
2172 4446
2173 2242
2173 2397
2173 2846
2173 3132
2173 3409
2173 3757
2173 4647
2173 4784
2173 4974
2174 2365
2174 2592
2174 2712
2174 2778
2174 2815
2174 2935
2174 3156
2174 4173
2174 4327
2174 4337
2174 4351
2174 4483
2174 4737
2174 4847
2175 2441
2175 2442
2175 2802
2175 2952
2175 3060
2175 3333
2175 3646
2175 3896
2175 3968
2175 3990
2175 4012
2175 4026
2175 4060
2175 4625
2176 2714
2176 2719
2176 2788
2176 2933
2176 3429
2176 4459
2176 4620
2176 4986
2176 4990
2177 2419
2177 2443
2177 2508
2177 2856
2177 3010
2177 3049
2177 3074
2177 3194
2177 3280
2177 3345
2177 3494
2177 3553
2177 3569
2177 3578
2177 3581
2177 3606
2177 3642
2177 3881
2177 4077
2177 4111
2177 4148
2177 4181
2177 4232
2177 4265
2177 4306
2177 4325
2177 4334
2177 4419
2177 4427
2177 4601
2177 4634
2177 4688
2178 2322
2178 2559
2178 2688
2178 2968
2178 3044
2178 3490
2178 3812
2178 4596
2178 4603
2178 4805
2179 2265
2179 2999
2179 3014
2179 3402
2179 3735
2179 4326
2179 4513
2179 4564
2179 4621
2179 4720
2179 4948
2179 4950
2180 2234
2180 2305
2180 2373
2180 2564
2180 2569
2180 3094
2180 3109
2180 3115
2180 3125
2180 3224
2180 4164
2180 4642
2180 4944
2181 2202
2181 2630
2181 2788
2181 2791
2181 2844
2181 2974
2181 3138
2181 3175
2181 3189
2181 3231
2181 3236
2181 3409
2181 3448
2181 3461
2181 3640
2181 3743
2181 3997
2181 4049
2181 4804
2181 4814
2181 4831
2181 4832
2181 4989
2182 2261
2182 2296
2182 2590
2182 2808
2182 3100
2182 3381
2182 3604
2182 3686
2182 3939
2182 4307
2182 4734
2182 4999
2183 2269
2183 2280
2183 2733
2183 2736
2183 2912
2183 3548
2183 3633
2183 3677
2183 4218
2184 2329
2184 2521
2184 2644
2184 2708
2184 2998
2184 3395
2184 4149
2184 4232
2184 4256
2184 4275
2184 4382
2184 4514
2185 2321
2185 2880
2185 3084
2185 3478
2185 3480
2185 3574
2185 3608
2185 3789
2185 4760
2185 4905
2186 2470
2186 2493
2186 2690
2186 2768
2186 2991
2186 3056
2186 3462
2186 3540
2186 3543
2186 3701
2186 3809
2186 3964
2186 3966
2186 4102
2186 4218
2186 4299
2186 4472
2186 4571
2186 4644
2186 4645
2186 4777
2186 4885
2187 2316
2187 2403
2187 2576
2187 2582
2187 2955
2187 3451
2187 4013
2187 4132
2187 4607
2187 4734
2187 4970
2188 2209
2188 2298
2188 2516
2188 3201
2188 3462
2188 3519
2188 3639
2188 3687
2188 3754
2188 4103
2188 4220
2188 4273
2188 4512
2188 4590
2189 2204
2189 2259
2189 2275
2189 2726
2189 2750
2189 2800
2189 2910
2189 3056
2189 3169
2189 3506
2189 3543
2189 3771
2189 3804
2189 3848
2189 3961
2189 3991
2189 4168
2189 4383
2189 4604
2190 2313
2190 2643
2190 3163
2190 3217
2190 3265
2190 3536
2190 3635
2190 3754
2190 3949
2190 4332
2190 4648
2190 4651
2190 4702
2190 4851
2191 2351
2191 2372
2191 2431
2191 2459
2191 2484
2191 2485
2191 3097
2191 3274
2191 3323
2191 3461
2191 3622
2191 3693
2191 3745
2191 3761
2191 3925
2191 4170
2191 4204
2191 4573
2191 4705
2191 4813
2191 4878
2191 4975
2191 4990
2192 2241
2192 2442
2192 2527
2192 3078
2192 3170
2192 3279
2192 3568
2192 4060
2192 4147
2192 4589
2193 2407
2193 2462
2193 2687
2193 2693
2193 2713
2193 2720
2193 2760
2193 3031
2193 3096
2193 3352
2193 3852
2193 4162
2193 4254
2193 4452
2193 4715
2193 4777
2193 4881
2194 2247
2194 2514
2194 2540
2194 3002
2194 3017
2194 3199
2194 3226
2194 3643
2194 3948
2194 4058
2194 4100
2194 4125
2194 4350
2194 4598
2194 4619
2194 4636
2194 4715
2194 4925
2195 2209
2195 2245
2195 2282
2195 2418
2195 2577
2195 2629
2195 2651
2195 2989
2195 3139
2195 3146
2195 3230
2195 4069
2195 4243
2195 4428
2195 4481
2195 4618
2195 4732
2195 4823
2195 4859
2196 2613
2196 3083
2196 3868
2196 3975
2196 4070
2196 4232
2196 4306
2196 4399
2196 4417
2196 4427
2196 4780
2197 2391
2197 2903
2197 3122
2197 3173
2197 4201
2197 4209
2197 4293
2197 4509
2197 4685
2197 4692
2198 2259
2198 2640
2198 2718
2198 2765
2198 2829
2198 3269
2198 3502
2198 4084
2198 4208
2198 4214
2198 4258
2198 4273
2198 4319
2198 4528
2198 4550
2199 2483
2199 2946
2199 3706
2199 3748
2199 3843
2199 3878
2199 4016
2199 4205
2199 4315
2199 4791
2199 4802
2200 2381
2200 2546
2200 2654
2200 2798
2200 3426
2200 3604
2200 4180
2200 4278
2200 4484
2200 4629
2200 4730
2200 4853
2201 2425
2201 2454
2201 2505
2201 2596
2201 3360
2201 3405
2201 3432
2201 3557
2201 3602
2201 4490
2201 4502
2201 4758
2201 4761
2202 2722
2202 2828
2202 2861
2202 2913
2202 3023
2202 3366
2202 3516
2202 3522
2202 4011
2202 4895
2203 2328
2203 2356
2203 2492
2203 2553
2203 2581
2203 2608
2203 2675
2203 2688
2203 2723
2203 2846
2203 2894
2203 2956
2203 3145
2203 3243
2203 3588
2203 3689
2203 3889
2203 3952
2203 4214
2203 4306
2203 4357
2203 4402
2203 4466
2203 4589
2203 4667
2203 4713
2203 4721
2203 4828
2203 4882
2204 2348
2204 2937
2204 4003
2204 4157
2204 4258
2204 4692
2205 2624
2205 2771
2205 2813
2205 3263
2205 3267
2205 3525
2205 3816
2205 4057
2205 4269
2205 4324
2205 4477
2206 2404
2206 2476
2206 2636
2206 2711
2206 2932
2206 3125
2206 3229
2206 3234
2206 3344
2206 3397
2206 3432
2206 3479
2206 3528
2206 3723
2206 3816
2206 3895
2206 3962
2206 4254
2206 4297
2206 4447
2206 4484
2206 4525
2206 4661
2206 4740
2206 4751
2206 4899
2207 2226
2207 2349
2207 2597
2207 2621
2207 2626
2207 2671
2207 2761
2207 2800
2207 2810
2207 3028
2207 3053
2207 3076
2207 3156
2207 3595
2207 3710
2207 3758
2207 3795
2207 3859
2207 3904
2207 3937
2207 3958
2207 3975
2207 3998
2207 4168
2207 4304
2207 4410
2207 4826
2207 4828
2207 4844
2207 4883
2207 4954
2207 4987
2208 2318
2208 2632
2208 2655
2208 2989
2208 3601
2208 3904
2208 4501
2208 4520
2208 4641
2208 4686
2208 4708
2208 4723
2208 4777
2209 2250
2209 2518
2209 2597
2209 3014
2209 3082
2209 3206
2209 3612
2209 4185
2209 4487
2209 4732
2210 2211
2210 2290
2210 2327
2210 2851
2210 3003
2210 3027
2210 3248
2210 3728
2210 4181
2210 4200
2210 4283
2210 4625
2210 4935
2211 2219
2211 2252
2211 2443
2211 2450
2211 2508
2211 2644
2211 2674
2211 3003
2211 3083
2211 3303
2211 3689
2211 4283
2211 4399
2211 4427
2211 4468
2211 4624
2211 4789
2211 4870
2212 2246
2212 2560
2212 2581
2212 2677
2212 2989
2212 3223
2212 3389
2212 3413
2212 4000
2212 4142
2212 4146
2212 4188
2213 2275
2213 2424
2213 2594
2213 3088
2213 3194
2213 3346
2213 3569
2213 3591
2213 4054
2213 4370
2213 4780
2214 2361
2214 2399
2214 2430
2214 2472
2214 2532
2214 2701
2214 2767
2214 3136
2214 3157
2214 3525
2214 3923
2214 4264
2214 4892
2214 4949
2215 2229
2215 2292
2215 2493
2215 2576
2215 2591
2215 2609
2215 2634
2215 2877
2215 2926
2215 2941
2215 3043
2215 3069
2215 3178
2215 3283
2215 3575
2215 3743
2215 4045
2215 4084
2215 4089
2215 4132
2215 4210
2215 4240
2215 4317
2215 4319
2215 4360
2215 4727
2215 4933
2215 4951
2215 4970
2215 4973
2216 2307
2216 2625
2216 3032
2216 3089
2216 3505
2216 3537
2216 4407
2216 4600
2216 4621
2216 4622
2216 4983
2217 2430
2217 2517
2217 2660
2217 2780
2217 3006
2217 3197
2217 3241
2217 3548
2217 4524
2217 4615
2217 4774
2217 4936
2218 2530
2218 2610
2218 2847
2218 3015
2218 3213
2218 3287
2218 3525
2218 3585
2218 3801
2218 4013
2218 4103
2218 4234
2218 4395
2218 4547
2218 4571
2218 4572
2219 2268
2219 2390
2219 2541
2219 2757
2219 2874
2219 2942
2219 2959
2219 3448
2219 3816
2219 4181
2219 4441
2219 4956
2220 2601
2220 2622
2220 2707
2220 2894
2220 3595
2220 4006
2220 4105
2220 4218
2220 4527
2220 4616
2220 4653
2220 4839
2220 4950
2221 2407
2221 2583
2221 2623
2221 2665
2221 2667
2221 2687
2221 2708
2221 2772
2221 2788
2221 2797
2221 2802
2221 2953
2221 3050
2221 3219
2221 3326
2221 3720
2221 3969
2221 4452
2221 4464
2221 4509
2221 4511
2221 4600
2221 4715
2221 4752
2221 4777
2221 4787
2222 2452
2222 2465
2222 2477
2222 2681
2222 2884
2222 3271
2222 3279
2222 3457
2222 3500
2222 3580
2222 3606
2222 4139
2222 4242
2222 4479
2223 2730
2223 2735
2223 2883
2223 2973
2223 3310
2223 3622
2223 4279
2223 4620
2223 4797
2223 4807
2223 4906
2223 4980
2224 2609
2224 3666
2224 3846
2224 4089
2224 4140
2224 4553
2224 4635
2224 4639
2225 2270
2225 2383
2225 2757
2225 2776
2225 2990
2225 3287
2225 3322
2225 3577
2225 3807
2225 4023
2225 4031
2225 4347
2226 2301
2226 2617
2226 2636
2226 2742
2226 3130
2226 3154
2226 3165
2226 3597
2226 3938
2226 3975
2226 4120
2226 4276
2226 4343
2226 4359
2226 4501
2226 4943
2227 2259
2227 2640
2227 2954
2227 2987
2227 3430
2227 3502
2227 3867
2227 4258
2227 4299
2227 4528
2227 4692
2227 4700
2227 4750
2228 2345
2228 2380
2228 2536
2228 2592
2228 2626
2228 3030
2228 3115
2228 3363
2228 3912
2228 4043
2228 4160
2228 4326
2228 4342
2229 2922
2229 3057
2229 3283
2229 3748
2229 3858
2229 3978
2229 4046
2229 4240
2229 4736
2230 2255
2230 2434
2230 2690
2230 2733
2230 2760
2230 2774
2230 2783
2230 3382
2230 3447
2230 3810
2230 3904
2230 3964
2230 3998
2230 4094
2230 4530
2230 4815
2231 2246
2231 2346
2231 2425
2231 2536
2231 2916
2231 3099
2231 3402
2231 3450
2231 4164
2231 4471
2231 4506
2231 4677
2231 4678
2232 2576
2232 2881
2232 3057
2232 3426
2232 4242
2233 2509
2233 2585
2233 3402
2233 3566
2233 3606
2233 3749
2233 4016
2233 4274
2233 4453
2233 4498
2233 4752
2233 4785
2233 4985
2234 2239
2234 2296
2234 2312
2234 3386
2234 3550
2234 3676
2234 3695
2234 3696
2234 3899
2234 4101
2234 4314
2234 4602
2234 4744
2235 2748
2235 2839
2235 2841
2235 2935
2235 3169
2235 3386
2235 3628
2235 3789
2235 4002
2235 4028
2235 4171
2235 4213
2235 4736
2235 4917
2236 2273
2236 2283
2236 2346
2236 2418
2236 2605
2236 2880
2236 2989
2236 2999
2236 3243
2236 3344
2236 3860
2236 4022
2236 4106
2236 4507
2236 4559
2236 4578
2236 4593
2237 2424
2237 2554
2237 2579
2237 2592
2237 2627
2237 3761
2237 4436
2237 4788
2238 2490
2238 2618
2238 2660
2238 2663
2238 2705
2238 2844
2238 2846
2238 3207
2238 4200
2238 4221
2238 4238
2238 4263
2238 4469
2238 4490
2239 2247
2239 2254
2239 2294
2239 2303
2239 2831
2239 2876
2239 3277
2239 3361
2239 3550
2239 3695
2239 3763
2239 4181
2239 4390
2239 4449
2239 4607
2239 4726
2239 4931
2240 3243
2240 3717
2240 3933
2240 4909
2241 2274
2241 2425
2241 2616
2241 2705
2241 2710
2241 2787
2241 2849
2241 2960
2241 3008
2241 3147
2241 3178
2241 3293
2241 3299
2241 3302
2241 3405
2241 3428
2241 3557
2241 3653
2241 3749
2241 3844
2241 3932
2241 4025
2241 4238
2241 4263
2241 4316
2241 4376
2241 4490
2241 4505
2241 4657
2241 4659
2241 4695
2241 4703
2241 4836
2242 2307
2242 2332
2242 2538
2242 2565
2242 2758
2242 2840
2242 2859
2242 2967
2242 2971
2242 2992
2242 3379
2242 3466
2242 3523
2242 3890
2242 4061
2242 4146
2242 4188
2242 4289
2242 4333
2242 4371
2242 4379
2242 4409
2242 4457
2242 4583
2242 4684
2242 4707
2242 4840
2242 4892
2243 2424
2243 2443
2243 2575
2243 2588
2243 2609
2243 2816
2243 3010
2243 3083
2243 3240
2243 4077
2243 4149
2243 4283
2243 4486
2243 4524
2243 4687
2243 4825
2244 2506
2244 2514
2244 3002
2244 3533
2244 3587
2244 3805
2244 4058
2244 4098
2244 4271
2244 4554
2245 2265
2245 2480
2245 2829
2245 3112
2245 3139
2245 3882
2245 4119
2245 4137
2245 4245
2245 4361
2245 4593
2246 2262
2246 2824
2246 2825
2246 3086
2246 3189
2246 3224
2246 4249
2246 4253
2246 4622
2246 4677
2246 4712
2247 2256
2247 2276
2247 2303
2247 2432
2247 2529
2247 2557
2247 2718
2247 2746
2247 2762
2247 2832
2247 2914
2247 2980
2247 3089
2247 3277
2247 3529
2247 3550
2247 3643
2247 3758
2247 3763
2247 3832
2247 3951
2247 4026
2247 4048
2247 4087
2247 4091
2247 4201
2247 4241
2247 4296
2247 4380
2247 4449
2247 4515
2247 4544
2247 4701
2247 4828
2247 4843
2248 2310
2248 2508
2248 2607
2248 2761
2248 3005
2248 3292
2248 3352
2248 3402
2248 3883
2248 4102
2248 4229
2248 4459
2248 4573
2249 2255
2249 2319
2249 2587
2249 2704
2249 2797
2249 2877
2249 2901
2249 2916
2249 3804
2249 3840
2249 4120
2249 4386
2249 4574
2249 4800
2250 2480
2250 2989
2250 3061
2250 3139
2250 3656
2250 3983
2250 4150
2250 4600
2251 2349
2251 2703
2251 2750
2251 2845
2251 2913
2251 3047
2251 3653
2251 3904
2251 4173
2251 4378
2251 4485
2252 2443
2252 2508
2252 2590
2252 2858
2252 3003
2252 3020
2252 3345
2252 3689
2252 3912
2252 3913
2252 4052
2252 4148
2252 4172
2252 4275
2252 4468
2252 4517
2252 4732
2252 4870
2253 2378
2253 2640
2253 2840
2253 2997
2253 3262
2253 3411
2253 3505
2253 3760
2253 3772
2253 4106
2253 4971
2254 2256
2254 2320
2254 2379
2254 2529
2254 2801
2254 2832
2254 2980
2254 3089
2254 3230
2254 3241
2254 3708
2254 3762
2254 3850
2254 3921
2254 4241
2254 4285
2254 4374
2254 4409
2254 4448
2254 4449
2254 4639
2254 4873
2255 2282
2255 2703
2255 2750
2255 2984
2255 3198
2255 3240
2255 3300
2255 3303
2255 3400
2255 3458
2255 3764
2255 4163
2255 4328
2255 4359
2255 4793
2255 4797
2255 4925
2256 2929
2256 3258
2256 3550
2256 3763
2256 3832
2256 3970
2257 2903
2257 2966
2257 3572
2257 3867
2257 3885
2257 3981
2257 4125
2257 4209
2257 4233
2257 4258
2257 4293
2257 4700
2257 4713
2257 4730
2258 2347
2258 2869
2258 2878
2258 3043
2258 3240
2258 3285
2258 3401
2258 3641
2258 3671
2258 3748
2258 3928
2258 4033
2258 4089
2258 4319
2259 2518
2259 2692
2259 2765
2259 2867
2259 2969
2259 3093
2259 3152
2259 3173
2259 3221
2259 3379
2259 3417
2259 3440
2259 3685
2259 3707
2259 4088
2259 4258
2259 4333
2259 4347
2259 4658
2259 4739
2260 2265
2260 2458
2260 2490
2260 2535
2260 2571
2260 3569
2260 3916
2260 4248
2260 4339
2260 4360
2260 4476
2260 4512
2260 4765
2260 4907
2260 4928
2260 4960
2261 2297
2261 2315
2261 2366
2261 2618
2261 3004
2261 3032
2261 3049
2261 3140
2261 3152
2261 3163
2261 3248
2261 3255
2261 3425
2261 3472
2261 3529
2261 3542
2261 3748
2261 3789
2261 3885
2261 3906
2261 3934
2261 4125
2261 4232
2261 4426
2261 4545
2261 4819
2262 2470
2262 2512
2262 2523
2262 2989
2262 3126
2262 3145
2262 3175
2262 3227
2262 4209
2262 4243
2262 4403
2262 4992
2263 2349
2263 2464
2263 2726
2263 2760
2263 2797
2263 2905
2263 2951
2263 3026
2263 3028
2263 3076
2263 3371
2263 3586
2263 3804
2263 3904
2263 4235
2263 4509
2263 4681
2263 4746
2263 4987
2264 2412
2264 2725
2264 3258
2264 3357
2264 3497
2264 3894
2264 3927
2264 4156
2264 4229
2264 4255
2264 4369
2264 4604
2264 4670
2264 4906
2264 4947
2265 2291
2265 2368
2265 2465
2265 2596
2265 2656
2265 2923
2265 2989
2265 2992
2265 2999
2265 3059
2265 3126
2265 3139
2265 3146
2265 3259
2265 3575
2265 3602
2265 3604
2265 3794
2265 3873
2265 4130
2265 4140
2265 4205
2265 4207
2265 4341
2265 4403
2265 4428
2265 4481
2265 4508
2265 4540
2265 4732
2265 4911
2266 2490
2266 2555
2266 2804
2266 2931
2266 3025
2266 3238
2266 3253
2266 3744
2266 3812
2266 3922
2266 3981
2266 3992
2266 4167
2266 4168
2266 4198
2266 4270
2266 4360
2266 4633
2267 2399
2267 2509
2267 2626
2267 2690
2267 2725
2267 2958
2267 3224
2267 3428
2267 3481
2267 3488
2267 3546
2267 3598
2267 3880
2267 4519
2267 4656
2267 4764
2267 4820
2268 2519
2268 2720
2268 4131
2268 4310
2268 4353
2268 4390
2268 4754
2268 4891
2269 2544
2269 2960
2269 3079
2269 3251
2269 3412
2269 3484
2269 3667
2269 3738
2269 4060
2269 4073
2269 4905
2270 2456
2270 2496
2270 2511
2270 2537
2270 2570
2270 3268
2270 3373
2270 3418
2270 4128
2270 4180
2270 4277
2270 4365
2270 4498
2270 4640
2270 4690
2270 4748
2270 4847
2270 4849
2271 2519
2271 3486
2271 3867
2271 4083
2271 4722
2271 4863
2271 4895
2271 4948
2272 2387
2272 3315
2272 3400
2272 3583
2272 3674
2272 3677
2272 4156
2272 4643
2272 4827
2272 4899
2272 4909
2272 4918
2273 2370
2273 3061
2273 3213
2273 3277
2273 3320
2273 3482
2273 3603
2273 3628
2273 3769
2273 3796
2273 3803
2273 4022
2273 4111
2273 4128
2274 2331
2274 2466
2274 2620
2274 2650
2274 2663
2274 2959
2274 2977
2274 3293
2274 3362
2274 3557
2274 3602
2274 3789
2274 3918
2274 4208
2274 4263
2274 4469
2275 2320
2275 2669
2275 2698
2275 2867
2275 3457
2275 3977
2275 4665
2275 4899
2276 2280
2276 2564
2276 2847
2276 2876
2276 3277
2276 3474
2276 3550
2276 3832
2276 4241
2276 4409
2276 4469
2276 4699
2276 4873
2277 2514
2277 2539
2277 2563
2277 2733
2277 2826
2277 3304
2277 3440
2277 3533
2277 3959
2277 4058
2277 4122
2277 4191
2277 4292
2277 4319
2277 4366
2277 4409
2277 4424
2277 4555
2277 4645
2277 4825
2277 4889
2278 2443
2278 2462
2278 2480
2278 3025
2278 3139
2278 3164
2278 3230
2278 3272
2278 3287
2278 3776
2278 3803
2278 3929
2278 4170
2278 4732
2279 2858
2279 2963
2279 3021
2279 3141
2279 3216
2279 3480
2279 3734
2279 3772
2279 3784
2279 4182
2279 4222
2279 4546
2279 4876
2279 4989
2280 2450
2280 2505
2280 2594
2280 2739
2280 3413
2280 3569
2280 3916
2280 4009
2280 4052
2280 4232
2280 4306
2280 4320
2280 4338
2280 4344
2280 4399
2280 4417
2280 4486
2280 4675
2280 4712
2280 4976
2281 2431
2281 2894
2281 3919
2281 4164
2281 4288
2281 4381
2281 4610
2281 4635
2281 4726
2282 2568
2282 2658
2282 2984
2282 3047
2282 3119
2282 3495
2282 3672
2282 4027
2282 4195
2282 4478
2282 4686
2283 2428
2283 2470
2283 2480
2283 3023
2283 3557
2283 3860
2283 4213
2283 4235
2283 4243
2283 4976
2284 2309
2284 2452
2284 2681
2284 2683
2284 2702
2284 2883
2284 3079
2284 3103
2284 3213
2284 3308
2284 3338
2284 3554
2284 3755
2284 4179
2284 4262
2284 4305
2284 4455
2284 4479
2284 4590
2284 4698
2284 4735
2284 4758
2284 4795
2284 4890
2285 2357
2285 2398
2285 2427
2285 2443
2285 2509
2285 2586
2285 2592
2285 2678
2285 2916
2285 2925
2285 3109
2285 3391
2285 3574
2285 3592
2285 3695
2285 3877
2285 3919
2285 4165
2285 4314
2285 4342
2285 4422
2285 4567
2285 4697
2285 4761
2285 4869
2285 4957
2286 2343
2286 2616
2286 2663
2286 2690
2286 3277
2286 3638
2286 3728
2286 4291
2286 4321
2286 4490
2286 4723
2286 4802
2287 2335
2287 2406
2287 2433
2287 2469
2287 2719
2287 3003
2287 3173
2287 3347
2287 3522
2287 3946
2287 4060
2287 4070
2287 4103
2287 4153
2287 4156
2287 4181
2287 4205
2287 4232
2287 4275
2287 4306
2287 4524
2287 4693
2287 4699
2288 2607
2288 3633
2288 3752
2288 3860
2288 3968
2288 4269
2288 4295
2288 4640
2289 2334
2289 2631
2289 2638
2289 2814
2289 2837
2289 3416
2289 3435
2289 3510
2289 4054
2289 4234
2289 4538
2289 4568
2289 4641
2289 4869
2290 3865
2290 3906
2290 4380
2290 4649
2290 4782
2290 4796
2291 2520
2291 2662
2291 2924
2291 3420
2291 3851
2291 3950
2291 4346
2291 4453
2291 4483
2291 4540
2291 4580
2291 4636
2291 4648
2291 4846
2292 2343
2292 2926
2292 3030
2292 3730
2292 3898
2292 4124
2292 4149
2292 4977
2293 2418
2293 2728
2293 3272
2293 4156
2293 4158
2293 4214
2293 4504
2293 4692
2293 4947
2294 3036
2294 3089
2294 3162
2294 3550
2294 3613
2294 3784
2294 3832
2294 4082
2294 4544
2294 4567
2294 4863
2294 4907
2295 2994
2295 3084
2295 3138
2295 3199
2295 3211
2295 3222
2295 3421
2295 3847
2295 4283
2296 2522
2296 2942
2296 3333
2296 3378
2296 3402
2296 3815
2296 4226
2296 4436
2296 4573
2296 4957
2297 2315
2297 2508
2297 2544
2297 2883
2297 3104
2297 3394
2297 3490
2297 3624
2297 3902
2297 4060
2297 4294
2297 4411
2297 4575
2297 4589
2297 4653
2297 4905
2297 4935
2298 2458
2298 2516
2298 3165
2298 3380
2298 3477
2298 3536
2298 3579
2298 3639
2298 3687
2298 3838
2298 3944
2298 4875
2299 2307
2299 2582
2299 2669
2299 2688
2299 2784
2299 2798
2299 3649
2299 4070
2299 4463
2299 4596
2299 4918
2300 2752
2300 3461
2300 3793
2300 3888
2300 3960
2300 4104
2300 4199
2300 4287
2300 4511
2301 2474
2301 2486
2301 2664
2301 2690
2301 2796
2301 2859
2301 2997
2301 3347
2301 3462
2301 3540
2301 3701
2301 3809
2301 3964
2301 4154
2301 4286
2301 4389
2301 4472
2301 4476
2301 4547
2301 4715
2301 4801
2302 2381
2302 2428
2302 2795
2302 2824
2302 2953
2302 3000
2302 3013
2302 3174
2302 3197
2302 3264
2302 3269
2302 3894
2302 3968
2302 3985
2302 4130
2302 4141
2302 4280
2302 4560
2302 4606
2302 4825
2303 2338
2303 2523
2303 4281
2303 4409
2303 4681
2304 2313
2304 2345
2304 2352
2304 2360
2304 2627
2304 2705
2304 2809
2304 3040
2304 3365
2304 3511
2304 3598
2304 3698
2304 4135
2304 4177
2304 4353
2304 4366
2304 4431
2304 4456
2304 4540
2304 4668
2304 4684
2305 2444
2305 2586
2305 2685
2305 2839
2305 2973
2305 3224
2305 3477
2305 4163
2305 4210
2305 4339
2305 4640
2305 4679
2306 2573
2306 2779
2306 2933
2306 3190
2306 3744
2306 3748
2306 4705
2307 2361
2307 2721
2307 2798
2307 3162
2307 3194
2307 3306
2307 3422
2307 3589
2307 3797
2307 4067
2307 4176
2307 4268
2307 4405
2307 4474
2307 4497
2307 4561
2307 4949
2308 2686
2308 2722
2308 2759
2308 3145
2308 3854
2308 4141
2308 4373
2308 4403
2308 4598
2308 4656
2308 4722
2308 4754
2308 4774
2308 4836
2308 4931
2309 2760
2309 3554
2309 4133
2309 4242
2309 4253
2309 4261
2309 4316
2309 4698
2309 4735
2309 4756
2309 4767
2310 2625
2310 2644
2310 3294
2310 3377
2310 3378
2310 3531
2310 3681
2310 3759
2310 3813
2310 3820
2310 3992
2310 4112
2310 4157
2310 4229
2310 4331
2310 4939
2311 2355
2311 2550
2311 2621
2311 2775
2311 2996
2311 3056
2311 3060
2311 3275
2311 3382
2311 4186
2312 2422
2312 2545
2312 2719
2312 2839
2312 2929
2312 3024
2312 3091
2312 3224
2312 3348
2312 3351
2312 3386
2312 3555
2312 3584
2312 3686
2312 3880
2312 3931
2312 3986
2312 4067
2312 4113
2312 4163
2312 4253
2312 4274
2312 4359
2312 4478
2312 4561
2313 2479
2313 2809
2313 2880
2313 3547
2313 3683
2313 3983
2313 4135
2313 4353
2313 4366
2313 4398
2313 4400
2313 4726
2313 4835
2314 2369
2314 2410
2314 2502
2314 2728
2314 3793
2314 3870
2314 3916
2314 4195
2314 4360
2314 4473
2315 2775
2315 2893
2315 2952
2315 3251
2315 3358
2315 3527
2315 3556
2315 4076
2315 4126
2315 4444
2315 4589
2316 2402
2316 2507
2316 2850
2316 3139
2316 3159
2316 3218
2316 3337
2316 3446
2316 3834
2316 3868
2316 4046
2316 4067
2316 4089
2316 4115
2316 4157
2316 4349
2316 4553
2316 4591
2316 4618
2316 4763
2316 4973
2317 2357
2317 2381
2317 2488
2317 3325
2317 3345
2317 3811
2317 4105
2317 4278
2317 4425
2317 4442
2317 4450
2317 4506
2317 4629
2317 4633
2317 4714
2317 4730
2317 4895
2318 2438
2318 3236
2318 3352
2318 3369
2318 3623
2318 4823
2318 4917
2319 2448
2319 2456
2319 2547
2319 2570
2319 2758
2319 2888
2319 3061
2319 3386
2319 3728
2319 3854
2319 3877
2319 4171
2319 4471
2319 4639
2319 4663
2319 4801
2320 2374
2320 2492
2320 3089
2320 3207
2320 3277
2320 3619
2320 4281
2320 4427
2321 2331
2321 2739
2321 2915
2321 2997
2321 3024
2321 3969
2321 4326
2321 4346
2321 4549
2321 4674
2321 4709
2322 2435
2322 2561
2322 2563
2322 3396
2322 3623
2322 4195
2322 4412
2323 2414
2323 2460
2323 2517
2323 2637
2323 2689
2323 2886
2323 2960
2323 3590
2323 4188
2323 4434
2323 4810
2323 4894
2324 2379
2324 2485
2324 2652
2324 2804
2324 3268
2324 3299
2324 3341
2324 3510
2324 3543
2324 4071
2324 4250
2324 4887
2324 4973
2325 2742
2325 2760
2325 3630
2325 3736
2325 3904
2325 3914
2325 4007
2325 4068
2325 4246
2325 4822
2326 2566
2326 2873
2326 2923
2326 2931
2326 3217
2326 3511
2326 3699
2326 3982
2326 4762
2326 4937
2326 4958
2327 2613
2327 2644
2327 2714
2327 4070
2327 4181
2327 4189
2327 4306
2327 4599
2328 2370
2328 2377
2328 2609
2328 2761
2328 2838
2328 2955
2328 3042
2328 3624
2328 3689
2328 3808
2328 3843
2328 3946
2328 4116
2328 4357
2328 4568
2328 4721
2328 4828
2329 2347
2329 2588
2329 2694
2329 2871
2329 3049
2329 3095
2329 3388
2329 3411
2329 3805
2329 3981
2329 4216
2329 4221
2329 4717
2329 4771
2330 2392
2330 2589
2330 2786
2330 2862
2330 2882
2330 2977
2330 3036
2330 3178
2330 3297
2330 3304
2330 3419
2330 3432
2330 3618
2330 3653
2330 4248
2330 4376
2331 2376
2331 2651
2331 2722
2331 2889
2331 2990
2331 3119
2331 3995
2331 4097
2331 4184
2331 4347
2331 4696
2331 4816
2332 2342
2332 2472
2332 2538
2332 2577
2332 2646
2332 2698
2332 2745
2332 2758
2332 2765
2332 3087
2332 3367
2332 3466
2332 3744
2332 3834
2332 3852
2332 3868
2332 3890
2332 3990
2332 4100
2332 4104
2332 4146
2332 4187
2332 4289
2332 4333
2332 4339
2332 4371
2332 4379
2332 4449
2332 4457
2332 4707
2332 4726
2332 4800
2332 4840
2332 4864
2332 4892
2332 4894
2333 2545
2333 2609
2333 3064
2333 3111
2333 3386
2333 3402
2333 3884
2333 3954
2333 4086
2333 4253
2333 4375
2333 4419
2333 4444
2333 4453
2333 4659
2334 2448
2334 2451
2334 2592
2334 2741
2334 3224
2334 3302
2334 3312
2334 3386
2334 3951
2334 4018
2334 4055
2334 4419
2334 4676
2334 4687
2334 4736
2334 4941
2335 2505
2335 2514
2335 2628
2335 2750
2335 3161
2335 3208
2335 3600
2335 3643
2335 3837
2335 4169
2335 4271
2335 4598
2336 2452
2336 2683
2336 2751
2336 3303
2336 3457
2336 3643
2336 3748
2336 4242
2336 4261
2336 4455
2336 4621
2336 4698
2336 4795
2337 2481
2337 2816
2337 3088
2337 3346
2337 3440
2337 3501
2337 3512
2337 3714
2337 3722
2337 4205
2337 4232
2337 4283
2337 4427
2337 4601
2338 2791
2338 2811
2338 2946
2338 3089
2338 3550
2338 3745
2338 4409
2338 4681
2339 2408
2339 2472
2339 2594
2339 3194
2339 3504
2339 4103
2339 4283
2339 4306
2339 4426
2339 4661
2339 4674
2340 2572
2340 2604
2340 2821
2340 3069
2340 3154
2340 3268
2340 3318
2340 3468
2340 3587
2340 3599
2340 3709
2340 3712
2340 3747
2340 4190
2340 4941
2341 2393
2341 2421
2341 2848
2341 2967
2341 3246
2341 3367
2341 3497
2341 4183
2341 4266
2341 4994
2342 2349
2342 2758
2342 2831
2342 3307
2342 3523
2342 3605
2342 3760
2342 3890
2342 4146
2342 4167
2342 4297
2342 4333
2342 4371
2342 4379
2342 4425
2342 4892
2342 4894
2343 2425
2343 2815
2343 2909
2343 2992
2343 3207
2343 3333
2343 4216
2343 4316
2343 4321
2343 4469
2343 4481
2343 4777
2343 4824
2344 2865
2344 3574
2344 3609
2344 4280
2344 4387
2344 4424
2344 4643
2344 4876
2345 2626
2345 3228
2345 3374
2345 3931
2345 3984
2345 4366
2345 4398
2345 4400
2345 4699
2345 4774
2345 4902
2346 2350
2346 2409
2346 2626
2346 2699
2346 2898
2346 3066
2346 3402
2346 3822
2346 4020
2346 4372
2346 4586
2346 4690
2346 4761
2347 2442
2347 2495
2347 2957
2347 3251
2347 3779
2347 3795
2347 3846
2347 3934
2347 4007
2347 4020
2347 4056
2347 4488
2347 4653
2347 4905
2348 2783
2348 2844
2348 3000
2348 3264
2348 3354
2348 3509
2348 4358
2348 4387
2348 4460
2348 4532
2349 2913
2349 3009
2349 3019
2349 3034
2349 3045
2349 3198
2349 3291
2349 3371
2349 3407
2349 3533
2349 3627
2349 3904
2349 4195
2349 4628
2349 4694
2349 4731
2349 4800
2349 4885
2350 2465
2350 2629
2350 2992
2350 3065
2350 3358
2350 3445
2350 3754
2350 4245
2350 4427
2350 4899
2351 2397
2351 2406
2351 2677
2351 2853
2351 3535
2351 4538
2352 3365
2352 3402
2352 3525
2352 4058
2352 4398
2352 4908
2353 2401
2353 2545
2353 2794
2353 2990
2353 3303
2353 3458
2353 3480
2353 3492
2353 3820
2353 3833
2353 3834
2353 3858
2353 3892
2353 3935
2353 4044
2353 4184
2353 4619
2353 4861
2353 4926
2353 4998
2354 2361
2354 2650
2354 3487
2354 3721
2354 3786
2354 4790
2354 4843
2355 2784
2355 2827
2355 2915
2355 2993
2355 2997
2355 3049
2355 3723
2355 3861
2355 3966
2355 4077
2355 4314
2355 4478
2355 4625
2356 2554
2356 3314
2356 3467
2356 3861
2356 3952
2356 4357
2356 4466
2356 4611
2356 4676
2356 4721
2356 4828
2357 3464
2357 3721
2357 3736
2357 4084
2357 4331
2357 4447
2357 4541
2357 4760
2357 4874
2358 2419
2358 2433
2358 2644
2358 2683
2358 3064
2358 3142
2358 3769
2358 4103
2358 4304
2358 4412
2358 4486
2358 4601
2359 3044
2359 3356
2359 3396
2359 3566
2359 3567
2359 3737
2359 4346
2359 4561
2359 4699
2359 4706
2359 4732
2359 4748
2359 4761
2359 4820
2359 4850
2360 3053
2360 3154
2360 3220
2360 3461
2360 3701
2360 4112
2360 4135
2360 4151
2360 4398
2360 4400
2360 4456
2360 4912
2361 2363
2361 2399
2361 2416
2361 2532
2361 2626
2361 2749
2361 2798
2361 3256
2361 3508
2361 3517
2361 3680
2361 4071
2361 4122
2361 4574
2361 4627
2361 4666
2361 4677
2362 2410
2362 2576
2362 2673
2362 4142
2362 4154
2362 4417
2362 4499
2362 4559
2362 4598
2362 4632
2362 4649
2362 4658
2362 4864
2362 4941
2363 2576
2363 3075
2363 3352
2363 3698
2363 4013
2363 4253
2363 4360
2363 4405
2363 4802
2363 4994
2364 2611
2364 2740
2364 2935
2364 3425
2364 3741
2364 3859
2364 3961
2364 4142
2364 4189
2364 4362
2364 4410
2364 4538
2365 3097
2365 3461
2365 3638
2365 4393
2365 4705
2365 4768
2365 4903
2365 4937
2366 2415
2366 2617
2366 2753
2366 2826
2366 3059
2366 3160
2366 3423
2366 3904
2366 4432
2366 4433
2366 4693
2367 2611
2367 2807
2367 2934
2367 3019
2367 3062
2367 3517
2367 3546
2367 3883
2367 3935
2367 4097
2367 4339
2367 4347
2367 4798
2367 4842
2368 2742
2368 2936
2368 3181
2368 3220
2368 3643
2368 3795
2368 4372
2368 4403
2368 4579
2368 4686
2368 4862
2369 2410
2369 2728
2369 2835
2369 3011
2369 3058
2369 3334
2369 3732
2369 3870
2369 3916
2369 3996
2369 4273
2369 4339
2369 4360
2369 4907
2369 4928
2369 4963
2370 2608
2370 3113
2370 3145
2370 3147
2370 3375
2370 3554
2370 3588
2370 3810
2370 4024
2370 4466
2370 4828
2371 2471
2371 2587
2371 3030
2371 3386
2371 4253
2371 4509
2371 4580
2372 2786
2372 3507
2372 3519
2372 4204
2372 4212
2372 4610
2372 4705
2372 4737
2372 4937
2372 4972
2372 4990
2373 2744
2373 2757
2373 2952
2373 2986
2373 3171
2373 3402
2373 3501
2373 3549
2373 3566
2373 3783
2373 3898
2373 4113
2373 4165
2373 4199
2373 4301
2373 4364
2373 4391
2373 4422
2373 4739
2373 4744
2373 4748
2373 4957
2374 2695
2374 2867
2374 2923
2374 2933
2374 3015
2374 3053
2374 3255
2374 3261
2374 3297
2374 3407
2374 3488
2374 3535
2374 3548
2374 3560
2374 3581
2374 3673
2374 3823
2374 4000
2374 4030
2374 4234
2374 4395
2374 4464
2374 4525
2374 4781
2374 4927
2374 4988
2375 2624
2375 2861
2375 3121
2375 3134
2375 3890
2375 4129
2375 4601
2375 4848
2376 2735
2376 2746
2376 3126
2376 3222
2376 4047
2376 4629
2377 2500
2377 2562
2377 3269
2377 3290
2377 3352
2377 3446
2377 3461
2377 3595
2377 4157
2377 4267
2378 2521
2378 2523
2378 2533
2378 2643
2378 2859
2378 2888
2378 2931
2378 3245
2378 3274
2378 3374
2378 3392
2378 3410
2378 3418
2378 3537
2378 3590
2378 3664
2378 3774
2378 3791
2378 3805
2378 3869
2378 4082
2378 4109
2378 4621
2378 4744
2379 2599
2379 2603
2379 2658
2379 2856
2379 2900
2379 3128
2379 3166
2379 3402
2379 3947
2379 3964
2379 4194
2379 4273
2379 4531
2379 4576
2379 4639
2380 3046
2380 3049
2380 3064
2380 3419
2380 3770
2380 4246
2380 4697
2380 4821
2381 2654
2381 2695
2381 2946
2381 3426
2381 3461
2381 3917
2381 4163
2381 4265
2381 4278
2381 4283
2381 4442
2381 4506
2381 4646
2381 4718
2381 4724
2381 4853
2381 4968
2381 4987
2382 2447
2382 2674
2382 2677
2382 3051
2382 3117
2382 3313
2382 3386
2382 3579
2382 3622
2382 3685
2382 3744
2382 4030
2382 4539
2382 4735
2382 4917
2382 4963
2383 2586
2383 2650
2383 2909
2383 2990
2383 3407
2383 3572
2383 3816
2383 4393
2383 4425
2383 4451
2383 4780
2383 4791
2383 4854
2383 4857
2383 4886
2383 4890
2383 4964
2384 3069
2384 3218
2384 3343
2384 3937
2384 4002
2384 4110
2384 4199
2384 4317
2384 4401
2385 2766
2385 2970
2385 3061
2385 3082
2385 3131
2385 3958
2385 4069
2385 4403
2385 4587
2385 4642
2386 2660
2386 3051
2386 3174
2386 3197
2386 3548
2386 3596
2386 3906
2386 4186
2386 4320
2386 4477
2386 4482
2386 4571
2387 2398
2387 2481
2387 2638
2387 3113
2387 3161
2387 3611
2387 3694
2387 4115
2387 4638
2388 2443
2388 2505
2388 2513
2388 2597
2388 2671
2388 2851
2388 2998
2388 3010
2388 3259
2388 3501
2388 3569
2388 3925
2388 4409
2388 4412
2388 4427
2388 4514
2388 4557
2388 4570
2388 4601
2388 4607
2388 4685
2388 4935
2389 2780
2389 3185
2389 3409
2389 3646
2389 3715
2389 3744
2389 3769
2389 4491
2389 4523
2390 2447
2390 2715
2390 2959
2390 2990
2390 3050
2390 3065
2390 4257
2390 4520
2390 4993
2391 2742
2391 3240
2391 3745
2391 4214
2391 4508
2391 4700
2391 4853
2391 4934
2392 2531
2392 2660
2392 2916
2392 3340
2392 3368
2392 3605
2392 3653
2392 3918
2392 4249
2392 4867
2393 2562
2393 3045
2393 3181
2393 3204
2393 3269
2393 3352
2393 3378
2393 3415
2393 3497
2393 3530
2393 3697
2393 3768
2393 3782
2393 3987
2393 4007
2393 4369
2393 4697
2393 4737
2393 4921
2393 4930
2394 2556
2394 2913
2394 3137
2394 3194
2394 4079
2394 4130
2394 4460
2394 4562
2394 4634
2395 2566
2395 2996
2395 3216
2395 3398
2395 4171
2395 4249
2395 4474
2395 4766
2396 2884
2396 2913
2396 3197
2396 3537
2396 3684
2396 4489
2396 4621
2396 4789
2396 4997
2397 2408
2397 2510
2397 2551
2397 2584
2397 2600
2397 2630
2397 2654
2397 2684
2397 2752
2397 3019
2397 3060
2397 3355
2397 3478
2397 3593
2397 3595
2397 3648
2397 3757
2397 3821
2397 4011
2397 4131
2397 4154
2397 4244
2397 4420
2397 4499
2397 4557
2397 4655
2397 4974
2398 2724
2398 3155
2398 3168
2398 3365
2398 3611
2398 4012
2398 4780
2398 4868
2399 2757
2399 2798
2399 3306
2399 3759
2399 3796
2399 3907
2399 3913
2399 4176
2399 4254
2399 4348
2399 4497
2399 4635
2399 4696
2400 2427
2400 2789
2400 2830
2400 3063
2400 3384
2400 3412
2400 3442
2400 3593
2400 3637
2400 3663
2400 3707
2400 3727
2400 3786
2400 4066
2400 4084
2400 4315
2400 4834
2400 4868
2401 3086
2401 3461
2401 3650
2401 3790
2401 3956
2401 4952
2402 2576
2402 2623
2402 2805
2402 3128
2402 3465
2402 3979
2402 4225
2402 4240
2402 4607
2402 4961
2403 2783
2403 2901
2403 3209
2403 3904
2403 4029
2403 4142
2403 4337
2403 4746
2403 4906
2403 4954
2404 2451
2404 2591
2404 2759
2404 2932
2404 3397
2404 3528
2404 3682
2404 3723
2404 3895
2404 4521
2404 4735
2404 4740
2405 2463
2405 2494
2405 2862
2405 3168
2405 3569
2405 3596
2405 3607
2405 4324
2405 4484
2405 4620
2405 4728
2405 4789
2405 4818
2406 2453
2406 3070
2406 3341
2406 4037
2406 4087
2406 4393
2406 4610
2406 4878
2406 4917
2406 4955
2407 2614
2407 2687
2407 2708
2407 2772
2407 3031
2407 3236
2407 3431
2407 3572
2407 4032
2407 4097
2407 4194
2407 4314
2407 4764
2407 4787
2407 4881
2408 2923
2408 3317
2408 3971
2408 4099
2408 4529
2408 4559
2408 4749
2408 4763
2409 2443
2409 3010
2409 3083
2409 3162
2409 3184
2409 3326
2409 3345
2409 3553
2409 3569
2409 4232
2409 4370
2409 4517
2409 4530
2409 4601
2409 4755
2409 4829
2409 4941
2410 2727
2410 3023
2410 3058
2410 4225
2410 4339
2410 4360
2410 4512
2410 4691
2410 4915
2410 4928
2410 4960
2410 4996
2411 2575
2411 2655
2411 2872
2411 3120
2411 4000
2411 4258
2411 4520
2411 4835
2412 2536
2412 2861
2412 3009
2412 3071
2412 3106
2412 3232
2412 3286
2412 3349
2412 3617
2412 3677
2412 4470
2412 4645
2412 4835
2413 2534
2413 3114
2413 3148
2413 3353
2413 3460
2413 3471
2413 3524
2413 3664
2413 3721
2413 3815
2413 4444
2413 4476
2413 4841
2413 4983
2414 2517
2414 2637
2414 2674
2414 2757
2414 3315
2414 3400
2414 3632
2414 4086
2414 4165
2414 4335
2414 4579
2414 4720
2414 4747
2414 4810
2414 4908
2415 2463
2415 2617
2415 2733
2415 3118
2415 3206
2415 3346
2415 3442
2415 3517
2415 3702
2415 3875
2415 3952
2415 4084
2415 4138
2415 4433
2415 4440
2415 4458
2415 4478
2415 4693
2415 4728
2415 4799
2416 2613
2416 2701
2416 2749
2416 2836
2416 3224
2416 3262
2416 3306
2416 3759
2416 3816
2416 4068
2416 4244
2416 4381
2416 4405
2416 4424
2416 4867
2416 4957
2417 2521
2417 2596
2417 2969
2417 3035
2417 3371
2417 3398
2417 3551
2417 3607
2417 3777
2417 3971
2417 4745
2417 4898
2418 2989
2418 2992
2418 3014
2418 3247
2418 3378
2418 3437
2418 3604
2418 3761
2418 4008
2418 4170
2418 4230
2418 4486
2418 4520
2418 4774
2418 4879
2418 4931
2419 2443
2419 2508
2419 3096
2419 3569
2419 3596
2419 4077
2419 4338
2419 4412
2419 4427
2419 4447
2419 4601
2419 4755
2420 2736
2420 2786
2420 2990
2420 3053
2420 3059
2420 4065
2420 4374
2420 4400
2420 4873
2421 2726
2421 2737
2421 2874
2421 2886
2421 2901
2421 2924
2421 3043
2421 3209
2421 3392
2421 3430
2421 3570
2421 3683
2421 3998
2421 4021
2421 4120
2421 4236
2421 4750
2422 2464
2422 2531
2422 2588
2422 2732
2422 2931
2422 3039
2422 3245
2422 3257
2422 3271
2422 3301
2422 3307
2422 3327
2422 3427
2422 3471
2422 3699
2422 3702
2422 3719
2422 3735
2422 3789
2422 3932
2422 3948
2422 4132
2422 4162
2422 4248
2422 4308
2422 4426
2422 4444
2422 4482
2422 4525
2422 4605
2422 4614
2422 4674
2422 4694
2422 4783
2422 4816
2422 4826
2422 4859
2422 4884
2422 4886
2422 4958
2422 4996
2423 2593
2423 2611
2423 2626
2423 2668
2423 3038
2423 3222
2423 3606
2423 3635
2423 3946
2423 4049
2423 4224
2423 4247
2423 4316
2423 4318
2423 4331
2423 4436
2423 4577
2423 4971
2424 2468
2424 2473
2424 2513
2424 2816
2424 2849
2424 3074
2424 3391
2424 3707
2424 3725
2424 4111
2424 4148
2424 4172
2424 4223
2424 4275
2424 4302
2424 4306
2424 4370
2424 4524
2424 4607
2424 4610
2424 4780
2424 4899
2424 4901
2425 2455
2425 2490
2425 3285
2425 3405
2425 3432
2425 3728
2425 3763
2425 3846
2425 3918
2425 3929
2425 4202
2425 4238
2425 4256
2425 4263
2425 4300
2425 4302
2425 4321
2425 4382
2425 4469
2425 4497
2425 4615
2425 4867
2426 2618
2426 2784
2426 3170
2426 3368
2426 3406
2426 3624
2426 3825
2426 3869
2426 4020
2426 4060
2426 4142
2427 2459
2427 2594
2427 2734
2427 2783
2427 2789
2427 2993
2427 3322
2427 3364
2427 3594
2427 3597
2427 3637
2427 3676
2427 3822
2427 3827
2427 3968
2427 4445
2427 4880
2428 2844
2428 3642
2428 3811
2428 3816
2428 4061
2428 4130
2428 4181
2428 4307
2428 4448
2428 4532
2428 4554
2428 4594
2429 2474
2429 2493
2429 2664
2429 2811
2429 2859
2429 3107
2429 3177
2429 3228
2429 3701
2429 3728
2429 3787
2429 4073
2429 4102
2429 4429
2429 4459
2429 4862
2430 2798
2430 3054
2430 4155
2430 4199
2430 4243
2430 4681
2430 4802
2431 2561
2431 2705
2431 3097
2431 3341
2431 3702
2431 4164
2431 4212
2431 4610
2431 4937
2432 2790
2432 2809
2432 3032
2432 3775
2432 4106
2432 4366
2432 4400
2432 4787
2433 2443
2433 2508
2433 2591
2433 3049
2433 3206
2433 3501
2433 4107
2433 4111
2433 4135
2433 4181
2433 4292
2433 4306
2433 4670
2433 4780
2434 2473
2434 2654
2434 3358
2434 3425
2434 3889
2434 4278
2434 4629
2434 4730
2435 2549
2435 2698
2435 3090
2435 3247
2435 3327
2435 4574
2435 4596
2436 3091
2436 3170
2436 3292
2436 3939
2436 4060
2436 4147
2436 4285
2436 4298
2436 4653
2436 4755
2437 2629
2437 2893
2437 3134
2437 3892
2437 4136
2437 4792
2437 4903
2437 4940
2438 2486
2438 2578
2438 3178
2438 3377
2438 3781
2438 3865
2438 4132
2438 4167
2438 4380
2438 4649
2438 4796
2438 4988
2439 2706
2439 3943
2439 4261
2439 4440
2439 4622
2439 4698
2439 4757
2439 4997
2440 2692
2440 4479
2440 4530
2440 4756
2441 2495
2441 2561
2441 2808
2441 2954
2441 3113
2441 3276
2441 3295
2441 3528
2441 3536
2441 3791
2441 4482
2441 4492
2441 4594
2441 4622
2441 4680
2442 2501
2442 2654
2442 2731
2442 2742
2442 2957
2442 3048
2442 3093
2442 3353
2442 3390
2442 3496
2442 3545
2442 3730
2442 3837
2442 3990
2442 4589
2442 4608
2442 4856
2443 2468
2443 2488
2443 2577
2443 2659
2443 2665
2443 2700
2443 2731
2443 2803
2443 2816
2443 2830
2443 2998
2443 3073
2443 3553
2443 3569
2443 3763
2443 4042
2443 4052
2443 4090
2443 4101
2443 4103
2443 4149
2443 4167
2443 4172
2443 4173
2443 4205
2443 4245
2443 4306
2443 4338
2443 4370
2443 4412
2443 4601
2443 4637
2443 4712
2443 4884
2444 3114
2444 4197
2444 4708
2444 4754
2444 4841
2445 3138
2445 3266
2445 3748
2445 3843
2445 4180
2445 4182
2445 4558
2445 4897
2446 3097
2446 3744
2446 4212
2446 4393
2446 4431
2446 4610
2446 4937
2447 2491
2447 2519
2447 2597
2447 2717
2447 2783
2447 2997
2447 3585
2447 4147
2447 4356
2447 4437
2447 4548
2447 4761
2448 2598
2448 2612
2448 2861
2448 3024
2448 3735
2448 3806
2448 3946
2448 4113
2448 4127
2448 4155
2448 4349
2448 4471
2448 4656
2448 4744
2449 2552
2449 2707
2449 2823
2449 2888
2449 3365
2449 4140
2449 4275
2449 4759
2449 4780
2449 4950
2450 2674
2450 3003
2450 3260
2450 3569
2450 4001
2450 4111
2450 4148
2450 4149
2450 4338
2450 4417
2450 4780
2451 3148
2451 3189
2451 3257
2451 3570
2451 3871
2451 3946
2451 3963
2451 3965
2451 4312
2452 2455
2452 2954
2452 3271
2452 3308
2452 4398
2452 4479
2452 4670
2452 4690
2452 4756
2453 2643
2453 2765
2453 2888
2453 2889
2453 3102
2453 3274
2453 3418
2453 3662
2453 3875
2453 4089
2453 4099
2453 4766
2453 4790
2453 4816
2454 2574
2454 2642
2454 3287
2454 3637
2454 3645
2454 4487
2454 4900
2455 2660
2455 2857
2455 2944
2455 2956
2455 2989
2455 3033
2455 3293
2455 3432
2455 3557
2455 3597
2455 3602
2455 3638
2455 3653
2455 3893
2455 3909
2455 3970
2455 4109
2455 4204
2455 4238
2455 4316
2455 4321
2455 4469
2455 4474
2455 4500
2455 4505
2455 4507
2455 4657
2455 4703
2455 4867
2455 4947
2455 4970
2456 2592
2456 2817
2456 2881
2456 2997
2456 3147
2456 3224
2456 3320
2456 3386
2456 3440
2456 3485
2456 3606
2456 3650
2456 4053
2456 4113
2456 4164
2456 4274
2456 4329
2456 4641
2457 2463
2457 2464
2457 2956
2457 3307
2457 3444
2457 3453
2457 3718
2457 3830
2457 4067
2457 4099
2457 4529
2457 4701
2457 4794
2457 4842
2457 4903
2457 4938
2458 2952
2458 2959
2458 2978
2458 3272
2458 3916
2458 4339
2458 4360
2458 4438
2458 4724
2458 4915
2459 3127
2459 3259
2459 3632
2459 4267
2459 4393
2459 4589
2459 4610
2459 4705
2459 4937
2460 2690
2460 3116
2460 3983
2460 4177
2460 4258
2460 4366
2460 4398
2460 4400
2460 4684
2460 4771
2461 2574
2461 2957
2461 2960
2461 3382
2461 3615
2461 4064
2461 4281
2461 4383
2461 4774
2462 2743
2462 3041
2462 3069
2462 3226
2462 3388
2462 3647
2462 3957
2462 3980
2462 4550
2462 4771
2462 4812
2462 4831
2462 4848
2462 4863
2463 2661
2463 3065
2463 3155
2463 3197
2463 3307
2463 3595
2463 3897
2463 3948
2463 4444
2463 4751
2463 4898
2463 4996
2464 2661
2464 3136
2464 3307
2464 4092
2464 4496
2464 4662
2464 4813
2465 3235
2465 3377
2465 3727
2465 4171
2465 4415
2465 4732
2465 4862
2466 2607
2466 2757
2466 2857
2466 3409
2466 3566
2466 3728
2466 3749
2466 3834
2466 3964
2466 4502
2466 4531
2466 4732
2467 2775
2467 3427
2467 3458
2467 3854
2467 4126
2467 4260
2467 4905
2468 2530
2468 3311
2468 3487
2468 4052
2468 4232
2468 4304
2468 4412
2468 4489
2468 4744
2468 4780
2469 2484
2469 2653
2469 2730
2469 2749
2469 2848
2469 2883
2469 3178
2469 3439
2469 3688
2469 3721
2469 3891
2469 3910
2469 4279
2469 4323
2469 4413
2469 4427
2469 4598
2469 4803
2469 4819
2469 4906
2470 2497
2470 2565
2470 2725
2470 2962
2470 3112
2470 3126
2470 3139
2470 3729
2470 3763
2470 4022
2470 4112
2470 4243
2470 4422
2470 4428
2470 4504
2470 4581
2470 4911
2470 4955
2471 2946
2471 3148
2471 3241
2471 3277
2471 3318
2471 4140
2471 4388
2471 4492
2471 4669
2472 2628
2472 2641
2472 2719
2472 2818
2472 2858
2472 2875
2472 2947
2472 2994
2472 3001
2472 3115
2472 3188
2472 3216
2472 3342
2472 3421
2472 3505
2472 3522
2472 3585
2472 3640
2472 3643
2472 3650
2472 3652
2472 3734
2472 3746
2472 3780
2472 3784
2472 3930
2472 4257
2472 4470
2472 4579
2472 4812
2472 4934
2472 4948
2472 4969
2473 2594
2473 3527
2473 3553
2473 3569
2473 4135
2473 4154
2473 4189
2473 4283
2473 4468
2473 4526
2474 2493
2474 2664
2474 2690
2474 2811
2474 2832
2474 2859
2474 3179
2474 3228
2474 3370
2474 3462
2474 3680
2474 3787
2474 3809
2474 3861
2474 4218
2474 4246
2474 4299
2474 4389
2474 4704
2474 4711
2474 4885
2474 4999
2475 2585
2475 3086
2475 3259
2475 3479
2475 3539
2475 3544
2475 3779
2475 3940
2475 3951
2475 4243
2475 4351
2475 4640
2475 4806
2476 2509
2476 2961
2476 3125
2476 3528
2476 3723
2476 3865
2476 4447
2476 4769
2476 4933
2476 4941
2477 2702
2477 2706
2477 3372
2477 4147
2477 4203
2477 4424
2477 4479
2477 4756
2478 2576
2478 2956
2478 3017
2478 3137
2478 3222
2478 3411
2478 3808
2478 4060
2478 4344
2478 4367
2478 4521
2478 4559
2478 4822
2478 4827
2478 4935
2479 2559
2479 2622
2479 2943
2479 3098
2479 3342
2479 3455
2479 3599
2479 3695
2479 4123
2479 4183
2479 4422
2479 4616
2479 4671
2479 4950
2480 2819
2480 3061
2480 3112
2480 3185
2480 3235
2480 3545
2480 3692
2480 3933
2480 4150
2480 4170
2480 4243
2480 4285
2480 4304
2480 4391
2480 4411
2480 4445
2480 4709
2480 4719
2481 2649
2481 2744
2481 2805
2481 3038
2481 3713
2481 4277
2481 4789
2482 2572
2482 2627
2482 2817
2482 2823
2482 3440
2482 3461
2482 3665
2482 4521
2482 4624
2482 4725
2482 4941
2483 2499
2483 2748
2483 2794
2483 2830
2483 3103
2483 3171
2483 3327
2483 3360
2483 3472
2483 3636
2483 3862
2483 4200
2483 4253
2483 4328
2483 4527
2483 4647
2483 4834
2483 4904
2483 4935
2483 4999
2484 2497
2484 2967
2484 3025
2484 3121
2484 3370
2484 3475
2484 3766
2484 3814
2484 4007
2484 4012
2484 4059
2484 4281
2485 3060
2485 3898
2485 4610
2485 4697
2485 4972
2486 2578
2486 3415
2486 3535
2486 3865
2486 3928
2486 4120
2486 4251
2486 4380
2486 4679
2486 4782
2487 2553
2487 3113
2487 3353
2487 3379
2487 3404
2487 3596
2487 3709
2487 4263
2487 4426
2487 4540
2487 4651
2487 4847
2487 4903
2488 3020
2488 3096
2488 3425
2488 3569
2488 3835
2488 4483
2488 4607
2488 4780
2488 4939
2489 2501
2489 2763
2489 2931
2489 3099
2489 3435
2489 4727
2489 4997
2490 2674
2490 3375
2490 4138
2490 4302
2490 4421
2490 4581
2490 4634
2491 2575
2491 2630
2491 3003
2491 3183
2491 4133
2491 4437
2492 2547
2492 2599
2492 2652
2492 2777
2492 2856
2492 3277
2492 3543
2492 3922
2492 3975
2492 4048
2492 4114
2492 4531
2492 4576
2492 4642
2492 4771
2493 2664
2493 2690
2493 3235
2493 3462
2493 3573
2493 4218
2493 4370
2494 2511
2494 2626
2494 2636
2494 2704
2494 2931
2494 3014
2494 3023
2494 3354
2494 3421
2494 3566
2494 3803
2494 4047
2494 4377
2494 4422
2494 4556
2494 4573
2494 4721
2495 2561
2495 3203
2495 3735
2495 4199
2495 4410
2495 4605
2495 4629
2495 4841
2496 2657
2496 2813
2496 3282
2496 3834
2496 4326
2496 4366
2496 4371
2496 4556
2496 4678
2497 2869
2497 3441
2497 3575
2497 3988
2497 4255
2497 4317
2497 4518
2497 4970
2498 2659
2498 2661
2498 2931
2498 3113
2498 3217
2498 3903
2498 3904
2498 4533
2498 4594
2498 4638
2498 4958
2499 2615
2499 2777
2499 2790
2499 2844
2499 2937
2499 3103
2499 3214
2499 3443
2499 3526
2499 3684
2499 3815
2499 3922
2499 3981
2499 4084
2499 4891
2499 4986
2499 4997
2500 2656
2500 2733
2500 2966
2500 3002
2500 3129
2500 3160
2500 3177
2500 3204
2500 3253
2500 3290
2500 3352
2500 3572
2500 3703
2500 3705
2500 3713
2500 3768
2500 3789
2500 3897
2500 3933
2500 3984
2500 4088
2500 4147
2501 3009
2501 3205
2501 3460
2501 4016
2501 4461
2501 4473
2501 4660
2502 2728
2502 3011
2502 3024
2502 3916
2502 4186
2502 4360
2502 4394
2503 2592
2503 2651
2503 2657
2503 2859
2503 2953
2503 2997
2503 3401
2503 3485
2503 3912
2503 3947
2503 4171
2503 4326
2503 4631
2503 4726
2503 4770
2503 4791
2504 2543
2504 2779
2504 3543
2504 4012
2504 4194
2504 4531
2504 4671
2504 4887
2505 2948
2505 3020
2505 3089
2505 3346
2505 3358
2505 3569
2505 3604
2505 3704
2505 3819
2505 4038
2505 4153
2505 4156
2505 4199
2505 4223
2505 4337
2505 4356
2505 4417
2505 4468
2505 4704
2505 4780
2505 4924
2506 3533
2506 3708
2506 3930
2506 4014
2506 4058
2506 4139
2506 4441
2506 4444
2506 4738
2507 2576
2507 2859
2507 2942
2507 3629
2507 3692
2507 3935
2507 3966
2508 2659
2508 2700
2508 2783
2508 2790
2508 2837
2508 2884
2508 3074
2508 3083
2508 3084
2508 3118
2508 3216
2508 3346
2508 3501
2508 3569
2508 3755
2508 3760
2508 3907
2508 4064
2508 4077
2508 4103
2508 4111
2508 4138
2508 4141
2508 4148
2508 4156
2508 4172
2508 4181
2508 4232
2508 4287
2508 4334
2508 4378
2508 4399
2508 4412
2508 4427
2508 4601
2508 4607
2508 4630
2508 4812
2508 4870
2509 3401
2509 3634
2509 4258
2509 4970
2510 2579
2510 2990
2510 3017
2510 3054
2510 4043
2510 4809
2510 4827
2511 2632
2511 2655
2511 2739
2511 2895
2511 2971
2511 3114
2511 3434
2511 3654
2511 3672
2511 3970
2511 4141
2511 4520
2511 4693
2511 4710
2512 2633
2512 2757
2512 2907
2512 3863
2512 4023
2512 4700
2513 3010
2513 3020
2513 3306
2513 3893
2514 2537
2514 2539
2514 2650
2514 2651
2514 2837
2514 2906
2514 2966
2514 3079
2514 3100
2514 3329
2514 3452
2514 3533
2514 3587
2514 3605
2514 3620
2514 3773
2514 3817
2514 3873
2514 3918
2514 3936
2514 4058
2514 4191
2514 4292
2514 4373
2514 4543
2514 4582
2514 4738
2514 4935
2514 4936
2514 4947
2515 2689
2515 2817
2515 2842
2515 3847
2515 4178
2515 4250
2515 4419
2515 4460
2515 4482
2515 4532
2516 2680
2516 3043
2516 3380
2516 3548
2516 3687
2516 3838
2516 3998
2516 4152
2516 4355
2516 4383
2516 4684
2517 2776
2517 2886
2517 2965
2517 3315
2517 3344
2517 3460
2517 3995
2517 4164
2517 4434
2517 4579
2517 4701
2517 4714
2517 4830
2518 2582
2518 2812
2518 3173
2518 3397
2518 3441
2518 3760
2518 4525
2518 4528
2518 4692
2519 2593
2519 2655
2519 2722
2519 2909
2519 3017
2519 3148
2519 3550
2519 3622
2519 3711
2519 3786
2519 4040
2519 4155
2519 4459
2519 4471
2519 4641
2519 4754
2519 4985
2520 2662
2520 3029
2520 3091
2520 3120
2520 3851
2520 4483
2520 4560
2520 4596
2520 4846
2520 4974
2521 2659
2521 3113
2521 3169
2521 3711
2521 3833
2521 3996
2521 4073
2521 4492
2521 4614
2521 4813
2521 4983
2521 4996
2522 2528
2522 2587
2522 2792
2522 2956
2522 2983
2522 3044
2522 3726
2522 4152
2522 4187
2522 4198
2522 4682
2522 4777
2522 4896
2522 4932
2523 2561
2523 2792
2523 2939
2523 3035
2523 3115
2523 3357
2523 3596
2523 3669
2523 3721
2523 3833
2523 3857
2523 4191
2523 4482
2523 4529
2523 4566
2523 4648
2523 4841
2523 4900
2524 2579
2524 2627
2524 3325
2524 4624
2524 4668
2524 4725
2524 4822
2524 4827
2524 4978
2525 2545
2525 2817
2525 2929
2525 3205
2525 3500
2525 3576
2525 3614
2525 4113
2525 4253
2525 4256
2525 4408
2525 4671
2525 4687
2525 4733
2526 3408
2526 3599
2526 3912
2526 4159
2526 4454
2526 4535
2526 4725
2526 4838
2527 3240
2527 3829
2527 3873
2527 3906
2527 4019
2527 4028
2527 4060
2527 4595
2527 4660
2527 4831
2527 4905
2528 2579
2528 2738
2528 2804
2528 2956
2528 3212
2528 3232
2528 3393
2528 3517
2528 3709
2528 4368
2528 4610
2528 4624
2528 4682
2528 4725
2528 4788
2528 4827
2528 4838
2528 4978
2529 2820
2529 2914
2529 3538
2529 3550
2529 3608
2529 4057
2529 4409
2530 2945
2530 3806
2530 4063
2531 2705
2531 4700
2531 4762
2532 2798
2532 3126
2532 3317
2532 3720
2532 3911
2532 4176
2532 4627
2532 4795
2532 4930
2533 2641
2533 2661
2533 2746
2533 3382
2533 3427
2533 3433
2533 3596
2533 4230
2533 4727
2533 4757
2533 4841
2533 4914
2534 2638
2534 3199
2534 3471
2534 3607
2534 3841
2534 3926
2534 4011
2534 4136
2534 4160
2534 4475
2534 4492
2534 4529
2534 4783
2534 4858
2534 4903
2534 4914
2535 2681
2535 2745
2535 3014
2535 3787
2535 3977
2535 4100
2535 4135
2535 4339
2535 4360
2535 4438
2535 4556
2535 4579
2535 4858
2535 4862
2535 4907
2535 4928
2536 2626
2536 2729
2536 2817
2536 2839
2536 2905
2536 2916
2536 2986
2536 3109
2536 3137
2536 3214
2536 3234
2536 3621
2536 3754
2536 3779
2536 4011
2536 4016
2536 4070
2536 4115
2536 4133
2536 4165
2536 4253
2536 4326
2536 4453
2536 4535
2536 4608
2536 4709
2537 2857
2537 2916
2537 3533
2537 3643
2537 4292
2537 4294
2537 4348
2537 4416
2537 4650
2537 4974
2538 2657
2538 2831
2538 3466
2538 3523
2538 3868
2538 4237
2538 4707
2538 4894
2539 2566
2539 2879
2539 3212
2539 3346
2539 3533
2539 3826
2539 4110
2539 4151
2539 4555
2539 4582
2539 4650
2540 2796
2540 2819
2540 3079
2540 4000
2540 4573
2540 4936
2541 2757
2541 3050
2541 3528
2541 4316
2541 4611
2541 4851
2542 2578
2542 3419
2542 3676
2542 3744
2542 3865
2542 4378
2542 4384
2542 4727
2542 4730
2542 4796
2543 2548
2543 2968
2543 2989
2543 3016
2543 3139
2543 4119
2543 4245
2543 4862
2544 3060
2544 3204
2544 3449
2544 3667
2544 3686
2544 3929
2544 3968
2544 4020
2544 4231
2544 4361
2544 4488
2544 4589
2544 4670
2544 4783
2545 2592
2545 2682
2545 2824
2545 3010
2545 3024
2545 3096
2545 3351
2545 3374
2545 3387
2545 3836
2545 4046
2545 4201
2545 4226
2545 4445
2545 4523
2545 4577
2545 4769
2546 2578
2546 2654
2546 2695
2546 3305
2546 4278
2546 4442
2546 4629
2546 4865
2546 4892
2547 2599
2547 2777
2547 2804
2547 3515
2547 3790
2547 3991
2547 4194
2547 4639
2547 4644
2547 4700
2547 4940
2548 2744
2548 3427
2548 4062
2548 4271
2548 4545
2549 2822
2549 2968
2549 3619
2549 3750
2549 3787
2549 4485
2550 2755
2550 2891
2550 3220
2550 3295
2550 3306
2550 3369
2550 4266
2550 4278
2550 4427
2550 4526
2550 4756
2551 2696
2551 2704
2551 2712
2551 2847
2551 2854
2551 3991
2551 4043
2551 4511
2552 2879
2552 3405
2552 3733
2552 3959
2552 4047
2552 4123
2552 4154
2552 4181
2552 4541
2552 4592
2552 4780
2552 4950
2553 2864
2553 2990
2553 3039
2553 3165
2553 3174
2553 3585
2553 3594
2553 3626
2553 4423
2553 4727
2553 4816
2553 4829
2554 2608
2554 2900
2554 3889
2554 3914
2554 3952
2554 4016
2554 4242
2554 4394
2554 4432
2554 4447
2554 4466
2554 4667
2554 4828
2555 2562
2555 2611
2555 2866
2555 3025
2555 3121
2555 3246
2555 3347
2555 3372
2555 3416
2555 3503
2555 3570
2555 3703
2555 3705
2555 3818
2555 4158
2555 4325
2555 4807
2555 4935
2555 4939
2556 2838
2556 3265
2556 3615
2556 4066
2556 4446
2556 4624
2556 4893
2557 2766
2557 2927
2557 3411
2557 3550
2557 4304
2557 4474
2557 4681
2557 4843
2557 4873
2558 3102
2558 3587
2558 3589
2558 4122
2558 4292
2558 4598
2559 2762
2559 2904
2559 3307
2559 3612
2559 3619
2559 3792
2559 3944
2559 4042
2559 4121
2559 4510
2559 4578
2559 4759
2559 4910
2559 4950
2560 2590
2560 2655
2560 2839
2560 2878
2560 3080
2560 3455
2560 3474
2560 3537
2560 3757
2560 3814
2560 3955
2560 4147
2560 4330
2561 2566
2561 2863
2561 3169
2561 3321
2561 3644
2561 3949
2562 2590
2562 2678
2562 2853
2562 2973
2562 3017
2562 3272
2562 3352
2562 3362
2562 3641
2562 3955
2562 4076
2562 4536
2562 4737
2562 4837
2563 2582
2563 2839
2563 4827
2564 2627
2564 2956
2564 3338
2564 3432
2564 4646
2564 4720
2564 4822
2565 2758
2565 2831
2565 3615
2565 4003
2565 4100
2565 4104
2565 4333
2565 4864
2565 4925
2566 2572
2566 2606
2566 2615
2566 2625
2566 2661
2566 2692
2566 2708
2566 2716
2566 2799
2566 2884
2566 3035
2566 3304
2566 3382
2566 3450
2566 3722
2566 3885
2566 3920
2566 4381
2566 4529
2566 4611
2566 4727
2566 4829
2566 4841
2566 4877
2566 4903
2566 4996
2567 2570
2567 2654
2567 2695
2567 3827
2567 3917
2567 4117
2567 4278
2567 4419
2567 4629
2567 4714
2567 4968
2567 4989
2568 2993
2568 3358
2568 3608
2568 3934
2568 3968
2568 3970
2568 4204
2568 4358
2568 4434
2568 4688
2568 4723
2569 2864
2569 2987
2569 3112
2569 3297
2569 3314
2569 3370
2569 3372
2569 3387
2569 3553
2569 3641
2569 3703
2569 3714
2569 3805
2569 3826
2569 3956
2569 4070
2569 4251
2569 4436
2569 4947
2570 2592
2570 2645
2570 2786
2570 2976
2570 3086
2570 3096
2570 3175
2570 3189
2570 3312
2570 3523
2570 3613
2570 3620
2570 3728
2570 3894
2570 4056
2570 4183
2570 4318
2570 4346
2570 4465
2570 4676
2570 4732
2570 4824
2570 4863
2570 4866
2571 2587
2571 2727
2571 3075
2571 3706
2571 3754
2571 3819
2571 4360
2571 4364
2571 4472
2571 4746
2571 4928
2572 2908
2572 3542
2572 3556
2572 3599
2572 4198
2572 4281
2572 4440
2572 4445
2572 4624
2572 4788
2573 2903
2573 3102
2573 3680
2573 4267
2574 2615
2574 2664
2574 2864
2574 2925
2574 3806
2574 3822
2574 4229
2574 4797
2575 2580
2575 2632
2575 2655
2575 2831
2575 2850
2575 2860
2575 3114
2575 3137
2575 3646
2575 3711
2575 4265
2575 4356
2575 4520
2575 4563
2575 4754
2575 4794
2575 4829
2575 4892
2576 2609
2576 2672
2576 2881
2576 3069
2576 3114
2576 3136
2576 3225
2576 3408
2576 3465
2576 3507
2576 3575
2576 3639
2576 3713
2576 3771
2576 3785
2576 3937
2576 4034
2576 4095
2576 4115
2576 4140
2576 4446
2576 4559
2576 4572
2576 4651
2576 4970
2577 2798
2577 3759
2577 3946
2577 4081
2577 4268
2577 4279
2577 4405
2577 4424
2577 4998
2578 2600
2578 3865
2578 4037
2578 4360
2578 4378
2578 4380
2579 2627
2579 2734
2579 2738
2579 2956
2579 3013
2579 3326
2579 3627
2579 3665
2579 4159
2579 4198
2579 4480
2579 4562
2579 4590
2579 4646
2579 4893
2580 2655
2580 2971
2580 3434
2580 4141
2580 4754
2581 2853
2581 3675
2581 3689
2581 3727
2581 3845
2581 3889
2581 4297
2581 4601
2581 4828
2581 4867
2582 2585
2582 2839
2582 3077
2582 3335
2582 3485
2582 3845
2582 4244
2582 4342
2582 4408
2582 4418
2582 4577
2582 4656
2582 4663
2582 4736
2582 4748
2582 4761
2582 4806
2583 2687
2583 3316
2583 3735
2583 3834
2583 4208
2583 4211
2583 4375
2583 4452
2583 4509
2583 4637
2583 4743
2583 4777
2583 4787
2583 4881
2583 4976
2584 2696
2584 3050
2584 3184
2584 3555
2584 3601
2584 3648
2584 3757
2584 4368
2584 4632
2584 4640
2584 4647
2584 4895
2584 4974
2585 2592
2585 2626
2585 2671
2585 2839
2585 3020
2585 3024
2585 3272
2585 3399
2585 3695
2585 3845
2585 4313
2585 4348
2585 4884
2585 4934
2586 2817
2586 2874
2586 3231
2586 3517
2586 3918
2586 3946
2586 4133
2586 4419
2586 4869
2586 4921
2587 3823
2587 4112
2587 4426
2587 4494
2587 4529
2588 2785
2588 3113
2588 3735
2588 3964
2588 4118
2588 4468
2588 4727
2588 4789
2589 2617
2589 2816
2589 2945
2589 3180
2589 3252
2589 3462
2589 3493
2589 3694
2589 3754
2589 3943
2589 4248
2589 4429
2589 4594
2589 4914
2590 3078
2590 3149
2590 3226
2590 3272
2590 3497
2590 3512
2590 3613
2590 3705
2590 3776
2590 3987
2590 3997
2590 4007
2590 4109
2590 4265
2590 4463
2591 2596
2591 2638
2591 2682
2591 3410
2591 3590
2591 3764
2591 3902
2591 4529
2591 4628
2591 4783
2591 4859
2592 2609
2592 2655
2592 2716
2592 2825
2592 2827
2592 2839
2592 2915
2592 2929
2592 2997
2592 3029
2592 3068
2592 3606
2592 3670
2592 3912
2592 3994
2592 4005
2592 4018
2592 4164
2592 4171
2592 4226
2592 4253
2592 4286
2592 4346
2592 4478
2592 4577
2592 4640
2592 4641
2592 4906
2592 4916
2593 2916
2593 2994
2593 3402
2593 3540
2593 3606
2593 4016
2593 4171
2593 4351
2593 4558
2593 4577
2594 2959
2594 3194
2594 3346
2594 3802
2594 3881
2594 4103
2594 4149
2594 4172
2594 4173
2594 4205
2594 4232
2594 4306
2594 4309
2594 4417
2594 4430
2594 4607
2594 4780
2595 2865
2595 3383
2595 3395
2595 3424
2595 3479
2595 3518
2595 3585
2595 3594
2595 3597
2595 3615
2595 3717
2595 3739
2595 3975
2595 4084
2595 4527
2595 4537
2595 4625
2595 4677
2595 4716
2595 4817
2595 4999
2596 2686
2596 2728
2596 2881
2596 2936
2596 4075
2596 4426
2596 4833
2597 2933
2597 2989
2597 3061
2597 3082
2597 4073
2597 4481
2597 4593
2598 2629
2598 3014
2598 4052
2598 4126
2598 4396
2598 4532
2598 4993
2599 2652
2599 2779
2599 3166
2599 3224
2599 3391
2599 3417
2599 3543
2599 3608
2599 3735
2599 3947
2599 4048
2599 4114
2599 4190
2599 4662
2599 4771
2600 2997
2600 3065
2600 3160
2600 4632
2600 4665
2600 4825
2601 2806
2601 2914
2601 3550
2601 3788
2601 3838
2601 4074
2601 4626
2601 4681
2601 4892
2602 2680
2602 2763
2602 3533
2602 3778
2602 4058
2602 4122
2602 4348
2602 4710
2602 4925
2603 2762
2603 2900
2603 2953
2603 3492
2603 3702
2603 3864
2603 3901
2603 4531
2603 4576
2603 4755
2603 4771
2604 2950
2604 3446
2604 4252
2604 4354
2604 4494
2604 4629
2604 4666
2604 4794
2604 4827
2604 4978
2605 2989
2605 3131
2605 3291
2605 3778
2605 3930
2605 4394
2605 4913
2606 2686
2606 2888
2606 3519
2606 3606
2606 3721
2606 3852
2606 4046
2606 4117
2606 4594
2606 4652
2606 4954
2607 2616
2607 2787
2607 2962
2607 3021
2607 3309
2607 3432
2607 3727
2607 3918
2607 4032
2607 4181
2607 4242
2607 4661
2608 2971
2608 3348
2608 3689
2608 4499
2608 4828
2608 4982
2609 2941
2609 3057
2609 3159
2609 3240
2609 3285
2609 3289
2609 3388
2609 3403
2609 3517
2609 3563
2609 3666
2609 3783
2609 3826
2609 3849
2609 3908
2609 3937
2609 3963
2609 3989
2609 4031
2609 4076
2609 4202
2609 4203
2609 4284
2609 4318
2609 4326
2609 4349
2609 4421
2609 4422
2609 4446
2609 4520
2609 4542
2609 4553
2609 4559
2609 4613
2609 4683
2609 4961
2609 4970
2610 2741
2610 2981
2610 3223
2610 3242
2610 3350
2610 3491
2610 3548
2610 3584
2610 3710
2610 3729
2610 3769
2610 3986
2610 4221
2610 4290
2610 4477
2610 4605
2610 4669
2611 3386
2611 3566
2611 3652
2611 4016
2611 4227
2611 4331
2611 4723
2612 2855
2612 2988
2612 2993
2612 3144
2612 3354
2612 3402
2612 3635
2612 3663
2612 3728
2612 3900
2612 4365
2612 4736
2612 4950
2612 4960
2613 2712
2613 2838
2613 2956
2613 4646
2613 4666
2613 4827
2613 4850
2614 2810
2614 2885
2614 3499
2614 3531
2614 3805
2614 3858
2614 3888
2614 4029
2614 4184
2614 4794
2615 2655
2615 2993
2615 3154
2615 3484
2615 3571
2615 3591
2615 4043
2615 4136
2615 4225
2615 4271
2615 4473
2615 4621
2615 4816
2615 4904
2616 3178
2616 3316
2616 3426
2616 3441
2616 3550
2616 3638
2616 3728
2616 3918
2616 4413
2616 4490
2616 4500
2616 4507
2617 2635
2617 2815
2617 2860
2617 3068
2617 3118
2617 3423
2617 3595
2617 3978
2617 4465
2617 4521
2617 4628
2617 4689
2617 4693
2617 4799
2617 4818
2618 2897
2618 2960
2618 3060
2618 3119
2618 3171
2618 3260
2618 3358
2618 3399
2618 3505
2618 3707
2618 3711
2618 3751
2618 3771
2618 3834
2618 4081
2618 4126
2618 4285
2618 4361
2618 4865
2619 3070
2619 3218
2619 3523
2619 3937
2619 4180
2620 2705
2620 2813
2620 3178
2620 3270
2620 3557
2620 3735
2620 4085
2620 4703
2621 2757
2621 2806
2621 3038
2621 3869
2621 4097
2621 4347
2621 4566
2621 4842
2621 4926
2621 4957
2621 4993
2622 2904
2622 3612
2622 3672
2622 4510
2622 4592
2622 4693
2623 2665
2623 3060
2623 3337
2623 3381
2623 3449
2623 3491
2623 3494
2623 3575
2623 3630
2623 3789
2623 3934
2623 4026
2623 4270
2623 4412
2623 4595
2623 4682
2623 4849
2624 2650
2624 2800
2624 2847
2624 2959
2624 3024
2624 3068
2624 3235
2624 3270
2624 4561
2624 4626
2625 2695
2625 3226
2625 3315
2625 3474
2625 3475
2625 3499
2625 3646
2625 3814
2625 3883
2625 3976
2625 4143
2625 4406
2625 4448
2625 4995
2626 2696
2626 2841
2626 2854
2626 2915
2626 2916
2626 3021
2626 3091
2626 3111
2626 3257
2626 3268
2626 3289
2626 3511
2626 3515
2626 3539
2626 3715
2626 3725
2626 3748
2626 3772
2626 3774
2626 3912
2626 4056
2626 4144
2626 4199
2626 4252
2626 4253
2626 4342
2626 4404
2626 4409
2626 4453
2626 4485
2626 4587
2626 4641
2626 4697
2626 4761
2627 2677
2627 2734
2627 2956
2627 3013
2627 3504
2627 3599
2627 3798
2627 3891
2627 4084
2627 4152
2627 4198
2627 4267
2627 4378
2627 4521
2627 4624
2627 4646
2627 4665
2627 4682
2627 4838
2627 4864
2627 4932
2627 4973
2628 2762
2628 2970
2628 3037
2628 3239
2628 3617
2628 3652
2628 3891
2628 3951
2628 4133
2629 3016
2629 3146
2629 3164
2629 3230
2629 3270
2629 3327
2629 3392
2629 3760
2629 3879
2629 3886
2629 4119
2629 4341
2629 4417
2629 4481
2629 4497
2629 4508
2629 4510
2629 4694
2630 3123
2630 3707
2630 3924
2630 4687
2630 4688
2630 4727
2630 4736
2630 4827
2630 4898
2630 4914
2631 2855
2631 2905
2631 3432
2631 3773
2631 4165
2631 4346
2631 4408
2631 4549
2631 4631
2632 2655
2632 2791
2632 2870
2632 2993
2632 3463
2632 3551
2632 3782
2632 4141
2632 4182
2632 4356
2632 4372
2632 4501
2632 4760
2632 4844
2633 2634
2633 2719
2633 2878
2633 3186
2633 3318
2633 3753
2633 4328
2633 4936
2634 2896
2634 3084
2634 3151
2634 3200
2634 3241
2634 3608
2634 3753
2634 4311
2634 4896
2634 4953
2635 2826
2635 3456
2635 3674
2635 3923
2635 3978
2635 4097
2635 4117
2635 4161
2635 4433
2635 4458
2635 4583
2635 4693
2636 2812
2636 2989
2636 3125
2636 3229
2636 3376
2636 3399
2636 3568
2636 3682
2636 4053
2636 4275
2636 4386
2636 4526
2636 4652
2636 4751
2637 2689
2637 2781
2637 3315
2637 3995
2637 4188
2637 4277
2637 4434
2637 4810
2638 2672
2638 3068
2638 3133
2638 3722
2638 3971
2638 4605
2638 4621
2638 4967
2639 3225
2639 3417
2639 3872
2639 4393
2639 4610
2639 4659
2639 4878
2639 4937
2639 4990
2640 2692
2640 2739
2640 2765
2640 2802
2640 2829
2640 2867
2640 2903
2640 3041
2640 3173
2640 3344
2640 3711
2640 3738
2640 3890
2640 4253
2640 4272
2640 4961
2641 2817
2641 3298
2641 3431
2641 4065
2641 4153
2641 4444
2641 4529
2641 4609
2642 2740
2642 2759
2642 2778
2642 2790
2642 3071
2642 3593
2642 3665
2642 4315
2642 4503
2642 4817
2642 4935
2642 4953
2642 4999
2643 3032
2643 3156
2643 3227
2643 3862
2643 3943
2643 3948
2643 4338
2643 4621
2643 4816
2644 2855
2644 3073
2644 3081
2644 3396
2644 3475
2644 3742
2644 4052
2644 4060
2644 4103
2644 4156
2644 4304
2644 4334
2644 4399
2645 2825
2645 2916
2645 3108
2645 3152
2645 3224
2645 3568
2645 3655
2645 3946
2645 3966
2645 4212
2645 4314
2645 4332
2645 4858
2646 3368
2646 3614
2646 3784
2646 3791
2646 4055
2646 4163
2646 4253
2646 4418
2646 4422
2646 4443
2646 4466
2646 4796
2646 4985
2647 2763
2647 3077
2647 3108
2647 3268
2647 3511
2647 4017
2647 4101
2647 4227
2647 4474
2647 4479
2647 4693
2647 4775
2648 3086
2648 3738
2648 4004
2648 4141
2648 4385
2648 4754
2648 4836
2648 4848
2649 2744
2649 2866
2649 2901
2649 2975
2649 3147
2649 3414
2649 3451
2649 3488
2649 3569
2649 3611
2649 3713
2649 3753
2649 3824
2649 4174
2649 4227
2649 4250
2649 4364
2649 4473
2649 4551
2649 4713
2649 4809
2650 2670
2650 3161
2650 3587
2650 3600
2650 3643
2650 4336
2650 4610
2650 4647
2650 4710
2651 2849
2651 2989
2651 3132
2651 3139
2651 3174
2651 3451
2651 3537
2651 3605
2651 3917
2651 4008
2651 4070
2651 4388
2651 4391
2651 4397
2651 4593
2651 4677
2651 4732
2651 4879
2652 2856
2652 2900
2652 3581
2652 3818
2652 3859
2652 3947
2652 4388
2652 4531
2652 4590
2652 4887
2653 2730
2653 2855
2653 3610
2653 4279
2653 4569
2653 4807
2653 4908
2654 2695
2654 2898
2654 2971
2654 3425
2654 3426
2654 3484
2654 3681
2654 3683
2654 4028
2654 4059
2654 4117
2654 4278
2654 4288
2654 4312
2654 4506
2654 4629
2654 4714
2654 4718
2654 4730
2654 4753
2654 4853
2654 4968
2655 2717
2655 2722
2655 2760
2655 2971
2655 3144
2655 3601
2655 3652
2655 3687
2655 3814
2655 4295
2655 4310
2655 4437
2655 4460
2655 4548
2655 4561
2655 4589
2655 4642
2655 4683
2655 4744
2655 4860
2655 4955
2656 2901
2656 3124
2656 3181
2656 3347
2656 3446
2656 3838
2656 3987
2656 4064
2656 4176
2657 2839
2657 3137
2657 3549
2657 4024
2657 4053
2657 4081
2657 4164
2657 4171
2658 2708
2658 2777
2658 2802
2658 2804
2658 3015
2658 3166
2658 4114
2658 4308
2658 4312
2659 2813
2659 2990
2659 3162
2659 3241
2659 4232
2659 4306
2659 4325
2659 4458
2659 4486
2659 4780
2660 3030
2660 3557
2660 3638
2660 3653
2660 3690
2660 3835
2660 3884
2660 4212
2660 4316
2660 4414
2660 4421
2660 4581
2660 4626
2660 4634
2660 4723
2660 4835
2661 3301
2661 3787
2661 4426
2661 4512
2661 4621
2661 4877
2661 4914
2662 3029
2662 3542
2662 3831
2662 3851
2662 4206
2662 4308
2662 4439
2662 4483
2662 4612
2662 4742
2662 4846
2662 4849
2663 2680
2663 3335
2663 3987
2663 4241
2663 4316
2664 2690
2664 2718
2664 2768
2664 2779
2664 2796
2664 2811
2664 2991
2664 3243
2664 3540
2664 3544
2664 3701
2664 3734
2664 3761
2664 3809
2664 4102
2664 4246
2664 4286
2664 4299
2664 4352
2664 4389
2664 4472
2664 4547
2664 4571
2664 4857
2664 4885
2665 2667
2665 2687
2665 2708
2665 3223
2665 3431
2665 3631
2665 4043
2665 4326
2665 4375
2665 4787
2666 3509
2666 3601
2666 3606
2666 3703
2666 3859
2666 4314
2666 4381
2666 4434
2666 4646
2666 4928
2667 2687
2667 2708
2667 2772
2667 3529
2667 4163
2667 4211
2667 4268
2667 4881
2668 2916
2668 2986
2668 3454
2668 3515
2668 4227
2668 4253
2668 4267
2668 4646
2668 4726
2669 2704
2669 3041
2669 3613
2669 3765
2669 3823
2669 4103
2669 4384
2669 4400
2669 4468
2669 4899
2670 2694
2670 2902
2670 2982
2670 3044
2670 3329
2670 3388
2670 3411
2670 4102
2670 4216
2670 4495
2670 4569
2670 4840
2671 2866
2671 2913
2671 3684
2671 3790
2671 3920
2671 4343
2671 4651
2671 4911
2672 2799
2672 3124
2672 3174
2672 3192
2672 3254
2672 4608
2672 4672
2672 4762
2672 4781
2673 2733
2673 2859
2673 3643
2673 3701
2673 4110
2673 4151
2673 4169
2673 4229
2673 4452
2674 2921
2674 3016
2674 3343
2674 3482
2674 3823
2674 4125
2674 4245
2674 4481
2674 4487
2674 4912
2675 3348
2675 3588
2675 3689
2675 3869
2675 4200
2675 4474
2676 2688
2676 2789
2676 3897
2676 4478
2676 4635
2676 4934
2677 2691
2677 2964
2677 3389
2677 3490
2677 3491
2677 3495
2677 3534
2677 3548
2677 3603
2677 3633
2677 3693
2678 2839
2678 2994
2678 3108
2678 3643
2678 3831
2678 3982
2678 4204
2678 4277
2678 4313
2678 4346
2678 4806
2678 4882
2678 4883
2679 3262
2679 3345
2679 3434
2679 4214
2679 4355
2679 4528
2679 4685
2680 3008
2680 3380
2680 3838
2680 4185
2680 4383
2680 4485
2681 2706
2681 2954
2681 3338
2681 3457
2681 3554
2681 4621
2681 4665
2681 4756
2681 4903
2682 2696
2682 3030
2682 3047
2682 3290
2682 3371
2682 3555
2682 3946
2682 4318
2682 4419
2683 3243
2683 3583
2683 4007
2683 4476
2683 4538
2683 4756
2683 4791
2684 3100
2684 3603
2684 3622
2684 3821
2684 4080
2684 4493
2684 4549
2684 4751
2684 4846
2684 4994
2685 3029
2685 3649
2685 4175
2685 4209
2685 4452
2685 4523
2685 4798
2686 2792
2686 3265
2686 3379
2686 3418
2686 3644
2686 4079
2686 4241
2686 4529
2687 2708
2687 2953
2687 3203
2687 3431
2687 3519
2687 4222
2687 4268
2687 4881
2688 3088
2688 3093
2688 3304
2688 4596
2688 4895
2688 4913
2689 2773
2689 2886
2689 2911
2689 3344
2689 3618
2689 3729
2689 3995
2689 4135
2689 4345
2689 4528
2689 4810
2689 4965
2690 2717
2690 2768
2690 2796
2690 2811
2690 2859
2690 2991
2690 3228
2690 3406
2690 3462
2690 3584
2690 3701
2690 3787
2690 3809
2690 3853
2690 3964
2690 4058
2690 4187
2690 4218
2690 4246
2690 4299
2690 4472
2690 4506
2690 4693
2690 4711
2690 4748
2690 4885
2690 4994
2691 2892
2691 2939
2691 3302
2691 3867
2691 3901
2691 4084
2691 4329
2691 4436
2691 4692
2691 4700
2692 2739
2692 2933
2692 2973
2692 3948
2692 4012
2692 4197
2692 4214
2692 4594
2692 4739
2693 2708
2693 3431
2693 3569
2693 3789
2693 4210
2693 4545
2693 4881
2694 3338
2694 3388
2694 3411
2694 4216
2694 4229
2694 4323
2694 4495
2694 4717
2694 4914
2695 2737
2695 2777
2695 3006
2695 3390
2695 3425
2695 3426
2695 4278
2695 4312
2695 4439
2695 4442
2695 4506
2695 4629
2695 4718
2695 4724
2695 4734
2695 4803
2695 4853
2695 4968
2696 2730
2696 2796
2696 2817
2696 2839
2696 3396
2696 3788
2696 3861
2696 3940
2696 4121
2696 4342
2696 4346
2696 4677
2696 4781
2696 4785
2697 2712
2697 2737
2697 2742
2697 2845
2697 2955
2697 3717
2697 3840
2697 3920
2697 4142
2697 4943
2698 2724
2698 2810
2698 2935
2698 3392
2698 3504
2698 4337
2698 4410
2698 4456
2698 4491
2698 4852
2699 3108
2699 3541
2699 3606
2699 4227
2699 4738
2699 4774
2699 4916
2700 3096
2700 3569
2700 4070
2700 4103
2700 4153
2701 2798
2701 2921
2701 3211
2701 3306
2701 3319
2701 3775
2701 4068
2701 4137
2701 4405
2701 4424
2701 4635
2701 4679
2701 4837
2702 3271
2702 3338
2702 3346
2702 3926
2702 4590
2702 4621
2702 4698
2702 4758
2702 4767
2703 2743
2703 2750
2703 2815
2703 2969
2703 3053
2703 3209
2703 3407
2703 3767
2703 3814
2703 3904
2703 4168
2703 4328
2703 4410
2703 4484
2703 4962
2704 2854
2704 2916
2704 2989
2704 2997
2704 3113
2704 3320
2704 3493
2704 3606
2704 3638
2704 3668
2704 4087
2704 4128
2704 4342
2704 4362
2704 4547
2704 4685
2704 4720
2704 4774
2704 4952
2705 2882
2705 3154
2705 3178
2705 3293
2705 3335
2705 3749
2705 3835
2705 3845
2705 3918
2705 4023
2705 4172
2705 4238
2705 4299
2705 4421
2705 4490
2705 4527
2705 4723
2706 2966
2706 3217
2706 3268
2706 3500
2706 3705
2706 4184
2706 4242
2706 4302
2706 4698
2706 4756
2707 2904
2707 3799
2707 4013
2707 4105
2707 4123
2707 4135
2707 4350
2707 4541
2707 4592
2707 4616
2707 4759
2707 4804
2707 4950
2708 2713
2708 2772
2708 2788
2708 2865
2708 2953
2708 3031
2708 3189
2708 3228
2708 3326
2708 3431
2708 4207
2708 4208
2708 4211
2708 4254
2708 4330
2708 4337
2708 4340
2708 4375
2708 4452
2708 4509
2708 4517
2708 4637
2708 4715
2708 4743
2708 4881
2709 2818
2709 3179
2709 3204
2709 3217
2709 3846
2709 4443
2709 4586
2709 4605
2709 4621
2709 4996
2710 2931
2710 3011
2710 3563
2710 3654
2710 4891
2710 4958
2711 2821
2711 2932
2711 3566
2711 4055
2711 4061
2711 4250
2711 4297
2711 4727
2712 2886
2712 3705
2712 3953
2712 4142
2712 4276
2712 4302
2712 4332
2712 4410
2712 4666
2713 2721
2713 2758
2713 2772
2713 3208
2713 3329
2713 3431
2713 3432
2713 3820
2713 4014
2713 4112
2713 4340
2713 4452
2713 4715
2713 4743
2713 4787
2714 2933
2714 3081
2714 3234
2714 3266
2714 3323
2714 3519
2714 3609
2714 3996
2714 4128
2714 4332
2714 4607
2714 4714
2715 2755
2715 3645
2715 4164
2715 4253
2715 4434
2715 4451
2715 4561
2715 4736
2715 4775
2715 4869
2716 3133
2716 3245
2716 3274
2716 3517
2716 3615
2716 3662
2716 3987
2716 4337
2716 4383
2716 4429
2716 4492
2716 4586
2716 4594
2716 4745
2716 4816
2716 4938
2716 4992
2717 2754
2717 2838
2717 2923
2717 3016
2717 3156
2717 3204
2717 4141
2717 4904
2718 2812
2718 3518
2718 3531
2718 3887
2718 4528
2718 4720
2719 2852
2719 2870
2719 3037
2719 3304
2719 3349
2719 3477
2719 3569
2719 3702
2719 3780
2719 4675
2719 4769
2720 3431
2720 3937
2720 4363
2720 4452
2720 4490
2720 4532
2720 4881
2721 2749
2721 2798
2721 2808
2721 3231
2721 3635
2721 3640
2721 3911
2721 4071
2721 4268
2721 4381
2721 4627
2721 4635
2721 4991
2722 3085
2722 3133
2722 3299
2722 3379
2722 3817
2722 4002
2722 4760
2723 2946
2723 3120
2723 3241
2723 3702
2723 3911
2723 3919
2723 4176
2723 4264
2723 4268
2723 4432
2723 4627
2723 4949
2724 2742
2724 2795
2724 2887
2724 2948
2724 2978
2724 3198
2724 3407
2724 3739
2724 3904
2724 3928
2724 4975
2724 4987
2725 2947
2725 2973
2725 3056
2725 3122
2725 3129
2725 3181
2725 3202
2725 3226
2725 3246
2725 3294
2725 3323
2725 3475
2725 3499
2725 3703
2725 3705
2725 3824
2725 3897
2725 4112
2725 4145
2725 4158
2725 4536
2725 4581
2725 4928
2725 4947
2726 2742
2726 2879
2726 3991
2726 4449
2726 4548
2726 4943
2727 2835
2727 3058
2727 3289
2727 3702
2727 3819
2727 4339
2727 4360
2727 4512
2727 4858
2728 2837
2728 3012
2728 3058
2728 3141
2728 3154
2728 3732
2728 3819
2728 3916
2728 4360
2728 4765
2728 4960
2729 2801
2729 2802
2729 2858
2729 3041
2729 3062
2729 3308
2729 3404
2729 3421
2729 3780
2729 3945
2729 3982
2729 4087
2729 4136
2729 4222
2729 4698
2729 4726
2729 4848
2730 2735
2730 3406
2730 3439
2730 3443
2730 3688
2730 4797
2730 4807
2730 4906
2730 4908
2731 2759
2731 2802
2731 3259
2731 3551
2731 3585
2731 3849
2731 4084
2731 4697
2731 4757
2731 4816
2732 3087
2732 3721
2732 4044
2732 4145
2732 4284
2732 4438
2732 4444
2732 4474
2732 4750
2732 4763
2733 3349
2733 3449
2733 3452
2733 3587
2733 3600
2733 3643
2733 3708
2733 4707
2734 2781
2734 2823
2734 2956
2734 3017
2734 3212
2734 3709
2734 4191
2734 4548
2734 4646
2734 4800
2735 2883
2735 3534
2735 3644
2735 3910
2735 3924
2735 4076
2735 4212
2735 4279
2735 4684
2735 4797
2735 4803
2735 4807
2735 4819
2735 4906
2735 4908
2735 4980
2736 3496
2736 3685
2736 3741
2736 4021
2736 4105
2736 4108
2736 4123
2736 4272
2736 4616
2736 4759
2736 4910
2736 4950
2737 2901
2737 3000
2737 3029
2737 3141
2737 3156
2737 3189
2737 3562
2737 3631
2737 3725
2737 3842
2737 3890
2737 4237
2737 4375
2737 4793
2737 4943
2738 3802
2738 4038
2738 4349
2738 4368
2738 4529
2738 4584
2738 4827
2738 4948
2739 2867
2739 2880
2739 2971
2739 2977
2739 3173
2739 3302
2739 3379
2739 3760
2739 3867
2739 4128
2739 4258
2739 4293
2739 4374
2739 4433
2739 4528
2739 4739
2739 4799
2740 2781
2740 3059
2740 3139
2740 3281
2740 3296
2740 3325
2740 3329
2740 3340
2740 3370
2740 3582
2740 3594
2740 3742
2740 3806
2740 3922
2740 3923
2740 4175
2740 4354
2740 4429
2740 4527
2740 4634
2740 4804
2740 4861
2740 4905
2740 4940
2741 2854
2741 3257
2741 3386
2741 3575
2741 3593
2741 3651
2741 3812
2741 4193
2741 4395
2741 4679
2741 4941
2742 2815
2742 2893
2742 2962
2742 3076
2742 3098
2742 3447
2742 3758
2742 3958
2742 3991
2742 4168
2742 4224
2742 4233
2742 4844
2743 2778
2743 2793
2743 2852
2743 2970
2743 2980
2743 3001
2743 3244
2743 3287
2743 3361
2743 3369
2743 3394
2743 3421
2743 3533
2743 3652
2743 3694
2743 3806
2743 3891
2743 3945
2743 3955
2743 4049
2743 4131
2743 4257
2743 4332
2743 4407
2743 4663
2743 4664
2743 4803
2743 4839
2744 2755
2744 2835
2744 3120
2744 3147
2744 3327
2744 3381
2744 3414
2744 3488
2744 3713
2744 3749
2744 4150
2744 4682
2744 4809
2744 4876
2745 2835
2745 3011
2745 3622
2745 4141
2745 4254
2745 4269
2745 4360
2745 4438
2745 4472
2745 4742
2746 2876
2746 3550
2746 3702
2746 3919
2746 4699
2746 4818
2746 4843
2746 4892
2746 4899
2746 4931
2747 2814
2747 2950
2747 2970
2747 2994
2747 3037
2747 3121
2747 3193
2747 3465
2747 3516
2747 3726
2747 3735
2747 3911
2747 4778
2747 4940
2747 4969
2748 2786
2748 2827
2748 2939
2748 3163
2748 3224
2748 3250
2748 3386
2748 3402
2748 3503
2748 3885
2748 4053
2748 4127
2748 4193
2748 4220
2748 4226
2748 4393
2748 4671
2748 4677
2748 4678
2748 4998
2749 3524
2749 3919
2749 4024
2749 4288
2749 4306
2749 4381
2749 4518
2749 4739
2749 4805
2749 4949
2750 2773
2750 2936
2750 3028
2750 3142
2750 3205
2750 3332
2750 3782
2750 3853
2750 3866
2750 3904
2750 3994
2750 4142
2750 4337
2750 4551
2750 4666
2750 4746
2750 4750
2750 4751
2751 3607
2751 3946
2751 3975
2751 4226
2751 4698
2751 4756
2751 4986
2752 2755
2752 2890
2752 3636
2752 3836
2752 3992
2752 4023
2752 4097
2752 4518
2752 4923
2753 2778
2753 2894
2753 3009
2753 3361
2753 3441
2753 3469
2753 3483
2753 3652
2753 4182
2753 4814
2753 4863
2754 2906
2754 2932
2754 3064
2754 3081
2754 4118
2754 4336
2754 4555
2754 4881
2755 2757
2755 2920
2755 3046
2755 3735
2755 3925
2755 4065
2755 4199
2755 4410
2755 4514
2755 4666
2755 4718
2756 2850
2756 2897
2756 3196
2756 3729
2756 3957
2756 4222
2757 2776
2757 2806
2757 2872
2757 2890
2757 2920
2757 3026
2757 3039
2757 3050
2757 3085
2757 3237
2757 3315
2757 3367
2757 3614
2757 3807
2757 3828
2757 3869
2757 3892
2757 4004
2757 4074
2757 4097
2757 4166
2757 4183
2757 4184
2757 4186
2757 4231
2757 4287
2757 4890
2757 4923
2758 2831
2758 2868
2758 2880
2758 2905
2758 2999
2758 3376
2758 3456
2758 3466
2758 3586
2758 3637
2758 3782
2758 3890
2758 4100
2758 4104
2758 4146
2758 4289
2758 4333
2758 4707
2758 4840
2758 4864
2758 4874
2758 4894
2758 4925
2759 2842
2759 2854
2759 2897
2759 3250
2759 3480
2759 3522
2759 4331
2759 4785
2759 4989
2760 3472
2760 3859
2760 3882
2760 3904
2760 4401
2760 4440
2760 4746
2760 4883
2760 4901
2761 3067
2761 3116
2761 3506
2761 3672
2761 3737
2761 3792
2761 3859
2761 3958
2761 3976
2761 4576
2761 4943
2762 2997
2762 3064
2762 3165
2762 3332
2762 3942
2762 4190
2762 4273
2762 4662
2763 3090
2763 3161
2763 3279
2763 3533
2763 3585
2763 3739
2763 4058
2763 4122
2763 4292
2763 4589
2763 4619
2764 2935
2764 3198
2764 3346
2764 3810
2764 3882
2764 3953
2764 4251
2764 4386
2764 4625
2764 4804
2764 4853
2765 3308
2765 3745
2765 3892
2765 4214
2765 4692
2765 4739
2765 4940
2766 3057
2766 3277
2766 3541
2766 3550
2766 3814
2766 3961
2766 4409
2766 4668
2766 4699
2767 2808
2767 3306
2767 3328
2767 3509
2767 3585
2767 3598
2767 3720
2767 3759
2767 3919
2767 3925
2767 4074
2767 4529
2767 4532
2768 2859
2768 3228
2768 4008
2768 4218
2768 4389
2769 2804
2769 2820
2769 3258
2769 3864
2769 3940
2769 4087
2769 4475
2769 4601
2769 4677
2770 2798
2770 3031
2770 3557
2770 4200
2770 4577
2770 4657
2770 4723
2771 2934
2771 2947
2771 3085
2771 3190
2771 3349
2771 3522
2771 3691
2771 3726
2771 3886
2771 3971
2771 4298
2771 4458
2772 2971
2772 3020
2772 3326
2772 3402
2772 3431
2772 3554
2772 3656
2772 3719
2772 3897
2772 3915
2772 4208
2772 4211
2772 4254
2772 4375
2772 4451
2772 4881
2773 2886
2773 3313
2773 3315
2773 3400
2773 3928
2773 3995
2773 4434
2773 4579
2773 4747
2773 4835
2774 2901
2774 2958
2774 3001
2774 3804
2774 3810
2774 3958
2774 4796
2774 4807
2774 4869
2774 4871
2775 2959
2775 3018
2775 3076
2775 3105
2775 3332
2775 3869
2775 3939
2775 4097
2775 4199
2775 4347
2775 4525
2775 4857
2776 2989
2776 3329
2776 3820
2776 4287
2776 4383
2776 4801
2776 4823
2776 4865
2776 4871
2776 4892
2776 4941
2776 4984
2777 2856
2777 3191
2777 3201
2777 3596
2777 4531
2778 2858
2778 2875
2778 2994
2778 3052
2778 3197
2778 3239
2778 3508
2778 3933
2778 4080
2778 4639
2778 4937
2779 2792
2779 3036
2779 3946
2779 4203
2779 4406
2779 4413
2779 4492
2779 4543
2779 4578
2779 4642
2779 4771
2779 4900
2780 2999
2780 3243
2780 3740
2780 3752
2780 3832
2780 4204
2780 4491
2781 2833
2781 2993
2781 3020
2781 3324
2781 3443
2781 3510
2781 3534
2781 3684
2781 3978
2781 4001
2781 4175
2781 4358
2781 4900
2782 2870
2782 3642
2782 4270
2783 2935
2783 2974
2783 3208
2783 3504
2783 3528
2783 3681
2783 3852
2783 3961
2783 3998
2783 4120
2783 4359
2783 4962
2784 2808
2784 3219
2784 3721
2784 3864
2784 4463
2784 4596
2784 4633
2785 2829
2785 2946
2785 3025
2785 3027
2785 3054
2785 3110
2785 3130
2785 3585
2785 3856
2785 4084
2785 4268
2785 4376
2785 4643
2785 4904
2786 2839
2786 3033
2786 3064
2786 3284
2786 3399
2786 3419
2786 3648
2786 3946
2786 3966
2786 4101
2786 4193
2786 4274
2786 4429
2786 4677
2786 4868
2786 4941
2787 3309
2787 4131
2787 4723
2787 4910
2788 2953
2788 3387
2788 4235
2788 4375
2788 4538
2788 4637
2788 4881
2789 2790
2789 3043
2789 3154
2789 3167
2789 3214
2789 3445
2789 3472
2789 3645
2789 3696
2789 3986
2789 4001
2789 4064
2789 4610
2789 4935
2790 2855
2790 2937
2790 3101
2790 3130
2790 3276
2790 3322
2790 3359
2790 3395
2790 3449
2790 3484
2790 3571
2790 3601
2790 3629
2790 3707
2790 3738
2790 3862
2790 3899
2790 4002
2790 4141
2790 4214
2790 4464
2790 4478
2790 4492
2790 4721
2790 4775
2790 4786
2790 4798
2790 4834
2790 4986
2790 4999
2791 2850
2791 2948
2791 3398
2791 3451
2791 3464
2791 3904
2791 3949
2791 4222
2791 4470
2791 4550
2792 2864
2792 3307
2792 3426
2792 4263
2792 4353
2792 4474
2792 4927
2793 3244
2793 4117
2793 4537
2793 4542
2793 4675
2794 2959
2794 3083
2794 3237
2794 3869
2794 3874
2794 4346
2794 4555
2794 4636
2795 3124
2795 4108
2795 4439
2795 4834
2795 4875
2796 2832
2796 3161
2796 3228
2796 3462
2796 3948
2796 3964
2796 4265
2796 4347
2796 4704
2797 2815
2797 2874
2797 2916
2797 2935
2797 2951
2797 3294
2797 3674
2797 3853
2797 3946
2797 4120
2797 4229
2797 4588
2797 4795
2798 2921
2798 3077
2798 3321
2798 3350
2798 3703
2798 3730
2798 3736
2798 4176
2798 4288
2798 4381
2798 4404
2798 4405
2798 4627
2798 4635
2798 4673
2798 4802
2798 4837
2798 4991
2799 2884
2799 3127
2799 4606
2799 4651
2799 4679
2800 3135
2800 3247
2800 3309
2800 3725
2800 3853
2800 3954
2800 4060
2800 4704
2800 4776
2800 4943
2801 2815
2801 2913
2801 3156
2801 3392
2801 3904
2801 3994
2801 4257
2802 2861
2802 3071
2802 3175
2802 3357
2802 3455
2802 3517
2802 3652
2802 3691
2802 3933
2802 4062
2802 4096
2802 4282
2802 4408
2802 4428
2803 2852
2803 3022
2803 3543
2803 3771
2803 3844
2803 4781
2803 4845
2804 2858
2804 3703
2804 3940
2804 4642
2805 3193
2805 3334
2805 3547
2805 4360
2805 4808
2805 4963
2806 3061
2806 3474
2806 3760
2806 3869
2806 3960
2806 4186
2806 4579
2806 4864
2807 2863
2807 3365
2807 3703
2807 3793
2807 3828
2807 3869
2807 3892
2807 3960
2807 4050
2807 4061
2807 4190
2807 4199
2807 4347
2807 4773
2807 4890
2808 2954
2808 3050
2808 3109
2808 3321
2808 3759
2808 3969
2808 4071
2808 4359
2808 4399
2808 4480
2808 4673
2809 3983
2809 4278
2809 4306
2809 4366
2809 4398
2809 4400
2809 4584
2809 4684
2809 4842
2810 3034
2810 3038
2810 3048
2810 3407
2810 3920
2810 4337
2810 4410
2810 4412
2810 4698
2811 2859
2811 3942
2811 4102
2811 4472
2811 4486
2811 4547
2812 2993
2812 3258
2812 3645
2812 3694
2812 3706
2812 3789
2812 3992
2812 4139
2812 4161
2812 4886
2813 3299
2813 3581
2813 3985
2813 4200
2813 4202
2813 4526
2813 4627
2813 4949
2814 3009
2814 3182
2814 3784
2814 3968
2814 4664
2814 4736
2814 4769
2815 2874
2815 2943
2815 3026
2815 3064
2815 3533
2815 3840
2815 3988
2815 4092
2815 4402
2815 4590
2815 4954
2816 3822
2816 3878
2816 4077
2816 4330
2816 4412
2816 4655
2817 2825
2817 2891
2817 3030
2817 3127
2817 3399
2817 3401
2817 3474
2817 3485
2817 4018
2817 4101
2817 4163
2817 4277
2817 4331
2817 4332
2817 4346
2817 4355
2817 4468
2817 4884
2817 4902
2818 2970
2818 3009
2818 3193
2818 3421
2818 3440
2818 3633
2818 3644
2818 3777
2818 4136
2818 4294
2818 4301
2818 4347
2818 4599
2818 4629
2818 4685
2818 4694
2818 4792
2818 4845
2818 4948
2819 2989
2819 2992
2819 3373
2819 3475
2819 3637
2819 4008
2819 4769
2820 3118
2820 3933
2820 4061
2820 4481
2821 2922
2821 3397
2821 3438
2821 3734
2821 3803
2821 3943
2821 4038
2821 4447
2821 4457
2821 4780
2821 4876
2822 3337
2822 3420
2822 3590
2822 3744
2822 3805
2822 3909
2822 4187
2822 4198
2822 4199
2822 4390
2822 4541
2822 4923
2822 4972
2823 2956
2823 3212
2823 3468
2823 3599
2823 4347
2823 4822
2824 4047
2824 4177
2824 4351
2824 4416
2824 4422
2824 4460
2824 4623
2825 3387
2825 3632
2825 4168
2825 4234
2825 4509
2825 4677
2825 4736
2825 4758
2826 2860
2826 3061
2826 3091
2826 3875
2826 3923
2826 4304
2826 4689
2826 4742
2827 3030
2827 3328
2827 3386
2827 3399
2827 3788
2827 3823
2827 3831
2827 3946
2827 3966
2827 4057
2827 4162
2827 4193
2828 2964
2828 3052
2828 3180
2828 3239
2828 3247
2828 3441
2828 3451
2828 3618
2828 3650
2828 3783
2828 3957
2828 4687
2828 4848
2828 4948
2829 3039
2829 3206
2829 3760
2830 2990
2830 3186
2830 3210
2830 3542
2830 3706
2830 4202
2830 4242
2830 4856
2831 2886
2831 3777
2831 4104
2831 4146
2831 4166
2831 4683
2831 4864
2831 4892
2832 2914
2832 3550
2832 3724
2832 4296
2832 4390
2832 4786
2833 2944
2833 3116
2833 3124
2833 3747
2833 4460
2833 4539
2833 4624
2833 4647
2833 4786
2833 4798
2833 4979
2834 2854
2834 3101
2834 3210
2834 3325
2834 3327
2834 3364
2834 3384
2834 3582
2834 3772
2834 3862
2834 4139
2834 4736
2834 4883
2834 4922
2835 3633
2835 3732
2835 3819
2835 4346
2835 4360
2835 4438
2835 4808
2835 4851
2835 4869
2835 4960
2836 3096
2836 3168
2836 3772
2836 3816
2836 3946
2836 4123
2836 4493
2836 4892
2837 2886
2837 2899
2837 3387
2837 3521
2837 4139
2837 4253
2837 4336
2837 4358
2837 4820
2837 4831
2838 4159
2838 4199
2838 4624
2838 4666
2838 4988
2839 2879
2839 2932
2839 3086
2839 3328
2839 3336
2839 3351
2839 3396
2839 3402
2839 3511
2839 3561
2839 3624
2839 3695
2839 3781
2839 3788
2839 3863
2839 4007
2839 4018
2839 4100
2839 4108
2839 4164
2839 4171
2839 4208
2839 4226
2839 4253
2839 4326
2839 4369
2839 4453
2839 4504
2839 4535
2839 4556
2839 4569
2839 4640
2839 4641
2839 4649
2839 4832
2839 4906
2839 4916
2840 3260
2840 3685
2840 4507
2840 4692
2841 3220
2841 3341
2841 3402
2841 3807
2841 4165
2841 4558
2841 4640
2842 3170
2842 4611
2842 4678
2842 4816
2842 4976
2843 2864
2843 3241
2843 3382
2843 3948
2843 4174
2843 4475
2843 4745
2843 4794
2843 4957
2844 3735
2844 3874
2844 4402
2844 4460
2845 2962
2845 2995
2845 3371
2845 3695
2845 3790
2845 3904
2845 4142
2845 4260
2845 4505
2845 4635
2845 4897
2845 4979
2846 2908
2846 3145
2846 3219
2846 3573
2846 3701
2846 4116
2846 4357
2846 4828
2847 3220
2847 3827
2847 3869
2847 3914
2847 4029
2847 4199
2847 4350
2847 4857
2848 3089
2848 3161
2848 3568
2848 3762
2848 4281
2848 4357
2848 4360
2848 4681
2848 4753
2848 4931
2849 2896
2849 4123
2849 4350
2849 4616
2849 4950
2850 2857
2850 2868
2850 3001
2850 3254
2850 3432
2850 3441
2850 3657
2850 3730
2850 3746
2850 4016
2850 4129
2850 4222
2850 4236
2850 4308
2850 4542
2850 4757
2850 4769
2850 4940
2851 3081
2851 3569
2851 4151
2851 4153
2851 4275
2851 4306
2851 4401
2851 4468
2851 4780
2852 3011
2852 3298
2852 3350
2852 3366
2852 3480
2852 3623
2852 4068
2852 4083
2852 4236
2852 4278
2852 4546
2852 4550
2852 4735
2852 4778
2852 4945
2852 4989
2853 3277
2853 3947
2853 4204
2853 4212
2853 4610
2853 4878
2853 4937
2854 3006
2854 3550
2854 3763
2854 3827
2854 3847
2854 3898
2854 3946
2854 4131
2854 4183
2854 4289
2854 4313
2854 4327
2854 4342
2854 4677
2854 4698
2855 3054
2855 3055
2855 3227
2855 3309
2855 3571
2855 3641
2855 3822
2855 4175
2855 4765
2855 4930
2856 3166
2856 3231
2856 3955
2856 4048
2856 4190
2856 4194
2856 4642
2856 4975
2857 2884
2857 2967
2857 3293
2857 3478
2857 3665
2857 3728
2857 3884
2857 3962
2857 4238
2857 4500
2857 4657
2857 4720
2857 4723
2858 2872
2858 2909
2858 3421
2858 3516
2858 4407
2858 4470
2858 4952
2859 2991
2859 3017
2859 3183
2859 3228
2859 3324
2859 3472
2859 3540
2859 3787
2859 3809
2859 3964
2859 4102
2859 4108
2859 4169
2859 4223
2859 4246
2859 4272
2859 4389
2859 4472
2859 4511
2859 4547
2859 4642
2859 4711
2859 4885
2859 4999
2860 2958
2860 2983
2860 3118
2860 3423
2860 3923
2860 3978
2860 4367
2860 4433
2860 4458
2860 4956
2861 2942
2861 3232
2861 3440
2861 3522
2861 3530
2861 3617
2861 3671
2861 3807
2861 3891
2861 3963
2861 3982
2861 4057
2861 4798
2861 4974
2861 4996
2862 3856
2862 3974
2862 4025
2862 4082
2862 4648
2862 4783
2863 3263
2863 3833
2863 4199
2864 3039
2864 3719
2864 4088
2864 4247
2864 4500
2864 4622
2864 4680
2864 4859
2864 4965
2864 4997
2865 3230
2865 3296
2865 3433
2865 3443
2865 3724
2865 3894
2865 3901
2865 4084
2865 4344
2865 4891
2866 2879
2866 3251
2866 3516
2866 3804
2866 3980
2866 4084
2866 4279
2866 4491
2866 4788
2867 3198
2867 3318
2867 3360
2867 3760
2867 3969
2867 4528
2867 4557
2867 4685
2868 3324
2868 3726
2868 4003
2868 4136
2868 4247
2868 4663
2868 4677
2868 4977
2869 2922
2869 3043
2869 3152
2869 3218
2869 3310
2869 3865
2869 3937
2869 3946
2869 4317
2869 4712
2869 4943
2870 2872
2870 2929
2870 3322
2870 3811
2870 3874
2870 4402
2870 4460
2870 4606
2870 4691
2871 2902
2871 3388
2871 3411
2871 3575
2871 3852
2871 3864
2871 4323
2871 4348
2871 4495
2871 4569
2871 4916
2872 2934
2872 2974
2872 3009
2872 3021
2872 3720
2872 3823
2872 4282
2872 4952
2872 4959
2872 4998
2873 3219
2873 3292
2873 3493
2873 3709
2873 3864
2873 3968
2873 4255
2873 4372
2873 4589
2873 4688
2873 4690
2873 4893
2873 4905
2874 2901
2874 2985
2874 3047
2874 3076
2874 3290
2874 3392
2874 3904
2874 4147
2874 4873
2874 4883
2875 3041
2875 3084
2875 3182
2875 3961
2875 4298
2875 4364
2875 4564
2875 4602
2875 4700
2876 3454
2876 3556
2876 3629
2876 3832
2876 3981
2876 4327
2876 4351
2876 4515
2876 4621
2877 3077
2877 3115
2877 3120
2877 3159
2877 3181
2877 4308
2877 4385
2877 4981
2878 2922
2878 2954
2878 3042
2878 3283
2878 3798
2878 3970
2878 4115
2878 4182
2878 4317
2878 4559
2878 4584
2879 3103
2879 3209
2879 3767
2879 3853
2879 4083
2879 4140
2879 4365
2879 4588
2879 4746
2879 4879
2879 4987
2880 3170
2880 3421
2880 3745
2880 3927
2880 4029
2880 4068
2880 4391
2880 4503
2881 2922
2881 2924
2881 3018
2881 3043
2881 3285
2881 3412
2881 3613
2882 4124
2882 4263
2882 4540
2883 3439
2883 3550
2883 4140
2883 4230
2883 4797
2883 4803
2883 4807
2883 4906
2883 4908
2884 2936
2884 3032
2884 3471
2884 3596
2884 4482
2884 4581
2884 4648
2884 4727
2885 3438
2885 3791
2885 3834
2885 4199
2885 4290
2885 4361
2886 2911
2886 3315
2886 3344
2886 3359
2886 3400
2886 3484
2886 3596
2886 3914
2886 3995
2886 4188
2886 4203
2886 4335
2886 4434
2886 4612
2886 4701
2886 4747
2886 4986
2887 3097
2887 3190
2887 3904
2887 3920
2887 4052
2887 4216
2887 4387
2888 2938
2888 3169
2888 3304
2888 3441
2888 3502
2888 3644
2888 3735
2888 3830
2888 3870
2888 4783
2888 4859
2888 4908
2889 2964
2889 3132
2889 3543
2889 3596
2889 3719
2889 4020
2889 4373
2889 4652
2889 4679
2889 4729
2889 4884
2890 2921
2890 2959
2890 3220
2890 4134
2890 4357
2890 4648
2891 2962
2891 3071
2891 3236
2891 3244
2891 3451
2891 3657
2891 3658
2891 4289
2891 4387
2891 4560
2891 4664
2891 4690
2891 4732
2891 4772
2892 3399
2892 3705
2892 4244
2892 4330
2892 4632
2892 4655
2892 4658
2893 3071
2893 3369
2893 3585
2893 3627
2893 3635
2893 3661
2893 4057
2893 4060
2893 4187
2893 4228
2893 4422
2893 4551
2893 4675
2893 4784
2893 4969
2894 3595
2894 3775
2894 3919
2894 4405
2894 4996
2895 3094
2895 3201
2895 3250
2895 3373
2895 3386
2895 3900
2895 4478
2895 4538
2895 4631
2895 4719
2895 4744
2896 2930
2896 2995
2896 3484
2896 3707
2896 3824
2896 3878
2896 4260
2896 4498
2896 4614
2896 4625
2897 3001
2897 3431
2897 3486
2897 3691
2897 3802
2897 3945
2897 3980
2897 4286
2897 4739
2897 4781
2897 4835
2897 4844
2897 4848
2898 3723
2898 3943
2898 4278
2898 4342
2898 4506
2898 4629
2898 4947
2899 2965
2899 2969
2899 2997
2899 3339
2899 3578
2899 3784
2899 4053
2899 4101
2899 4640
2899 4744
2900 3036
2900 3166
2900 4116
2900 4190
2900 4453
2900 4585
2900 4662
2900 4771
2900 4887
2900 4997
2901 2913
2901 3198
2901 3649
2901 3767
2901 3974
2901 4043
2901 4158
2901 4386
2901 4431
2901 4439
2901 4539
2901 4635
2901 4746
2901 4793
2901 4818
2901 4902
2902 3416
2902 3558
2902 3723
2902 3799
2902 3966
2902 4323
2902 4594
2902 4717
2902 4934
2902 4949
2903 2997
2903 3760
2903 4178
2903 4713
2904 3344
2904 3612
2904 3944
2904 4105
2904 4541
2904 4578
2904 4592
2904 4950
2905 3108
2905 3385
2905 3675
2905 3705
2905 4076
2905 4110
2905 4342
2905 4720
2905 4869
2905 4975
2906 3343
2906 3584
2906 3972
2906 4047
2906 4118
2906 4912
2906 4936
2907 3263
2907 3738
2907 3977
2907 4065
2907 4353
2908 3208
2908 3227
2908 3424
2908 3579
2908 3799
2908 3964
2908 4686
2909 3248
2909 3836
2909 3897
2909 4997
2910 2943
2910 3086
2910 3156
2910 3348
2910 3741
2910 3991
2910 3993
2910 4195
2910 4240
2910 4625
2910 4725
2910 4744
2911 3064
2911 3224
2911 3315
2911 3609
2911 4179
2911 4747
2912 2939
2912 3155
2912 3356
2912 3525
2912 3560
2912 3785
2912 4096
2912 4169
2912 4320
2912 4415
2913 2958
2913 2961
2913 2962
2913 3051
2913 3758
2913 3853
2913 4260
2913 4276
2913 4337
2913 4502
2913 4706
2913 4871
2914 2980
2914 3277
2914 3343
2914 4091
2914 4283
2914 4296
2914 4406
2914 4409
2914 4606
2914 4652
2914 4668
2915 4101
2915 4128
2915 4164
2915 4253
2915 4364
2916 3189
2916 3213
2916 3373
2916 3379
2916 3481
2916 3566
2916 3582
2916 3632
2916 3880
2916 4053
2916 4113
2916 4252
2916 4313
2916 4346
2916 4365
2916 4548
2916 4561
2916 4806
2917 3088
2917 3643
2917 4619
2917 4816
2918 3049
2918 3349
2918 3364
2918 3578
2918 3816
2918 3935
2918 4332
2918 4500
2918 4740
2919 2997
2919 3008
2919 3127
2919 3213
2919 3224
2919 3664
2919 3935
2919 4226
2919 4330
2919 4342
2919 4561
2919 4631
2920 2990
2920 3263
2920 3389
2920 3654
2920 3847
2920 4061
2920 4297
2920 4911
2921 3239
2921 3306
2921 3365
2921 3659
2921 4071
2921 4101
2921 4195
2921 4264
2921 4381
2921 4405
2922 2926
2922 2944
2922 3465
2922 3575
2922 3666
2922 3671
2922 3702
2922 3908
2922 4014
2922 4038
2922 4045
2922 4095
2922 4115
2922 4247
2922 4308
2922 4317
2922 4683
2922 4728
2922 4778
2922 4944
2922 4951
2922 4995
2923 3247
2923 3296
2923 3721
2923 3852
2923 4284
2923 4492
2923 4653
2923 4946
2923 4996
2924 3029
2924 3950
2924 4332
2924 4439
2924 4742
2925 2988
2925 3131
2925 3287
2925 3522
2925 3534
2925 3596
2925 3719
2925 3735
2925 4125
2925 4586
2925 4658
2925 4841
2925 4946
2926 3112
2926 3460
2926 3666
2926 3683
2926 3908
2926 4536
2926 4608
2926 4618
2926 4683
2926 4945
2927 2997
2927 3086
2927 3399
2927 3488
2927 4210
2927 4704
2927 4934
2928 3096
2928 3167
2928 3194
2928 3421
2928 3910
2928 4049
2928 4153
2928 4232
2928 4780
2929 2997
2929 3112
2929 3397
2929 3461
2929 3822
2929 3831
2929 3861
2929 4171
2929 4252
2929 4313
2930 2995
2930 3318
2930 3477
2930 3727
2930 3742
2930 3743
2930 3806
2930 3965
2930 4139
2930 4200
2931 3054
2931 3059
2931 3155
2931 3277
2931 3429
2931 3514
2931 3577
2931 3634
2931 3736
2931 3758
2931 3928
2931 3943
2931 3971
2931 4382
2931 4763
2931 4785
2931 4859
2932 3125
2932 3615
2932 3682
2932 4301
2932 4398
2932 4447
2932 4521
2932 4996
2933 3124
2933 3551
2933 3578
2933 3700
2933 3814
2933 4009
2933 4339
2933 4406
2933 4442
2933 4462
2933 4625
2933 4627
2934 3106
2934 3522
2934 3658
2934 4693
2934 4856
2934 4959
2935 3067
2935 4050
2935 4233
2935 4588
2935 4629
2935 4704
2936 3174
2936 3217
2936 3263
2936 3825
2936 3849
2936 3943
2936 3972
2936 3983
2936 4144
2936 4198
2936 4337
2936 4433
2936 4443
2936 4474
2936 4594
2936 4938
2937 3032
2937 3376
2937 3727
2937 4344
2937 4817
2938 3032
2938 3155
2938 3228
2938 3301
2938 3470
2938 3735
2938 4495
2938 4613
2938 4621
2938 4741
2938 4762
2938 4976
2939 3156
2939 3960
2939 4428
2939 4444
2939 4482
2939 4692
2940 3083
2940 3168
2940 3402
2940 4680
2940 4724
2940 4839
2941 3638
2941 3812
2941 4089
2941 4115
2941 4182
2941 4466
2941 4822
2942 2970
2942 3132
2942 3190
2942 3197
2942 3239
2942 3282
2942 3472
2942 3657
2942 4855
2943 2964
2943 3001
2943 3156
2943 3209
2943 3224
2943 3735
2943 3882
2943 4168
2943 4195
2943 4872
2944 3081
2944 3925
2944 4401
2944 4833
2945 2993
2945 3108
2945 3165
2945 3167
2945 3230
2945 3247
2945 3269
2945 3450
2945 3610
2945 3635
2945 3798
2945 3870
2945 4140
2945 4586
2945 4671
2945 4745
2945 4996
2946 2949
2946 2993
2946 3055
2946 3107
2946 3129
2946 3167
2946 3332
2946 4052
2946 4066
2946 4481
2946 4979
2947 3012
2947 3193
2947 4781
2947 4812
2947 4974
2948 3392
2948 3565
2948 3767
2948 3840
2948 4326
2948 4328
2948 4343
2948 4871
2949 3329
2949 3408
2949 3513
2949 3613
2949 3684
2949 3799
2949 4153
2949 4185
2949 4405
2949 4571
2949 4904
2950 3243
2950 3247
2950 3348
2950 3544
2950 3735
2950 3791
2950 3839
2951 3631
2951 4691
2952 3100
2952 3163
2952 3966
2952 3983
2952 4144
2952 4185
2952 4412
2952 4653
2953 4156
2953 4375
2953 4509
2953 4787
2953 4881
2954 3069
2954 3121
2954 3235
2954 3283
2954 3796
2954 3937
2954 4203
2954 4336
2955 3369
2955 4089
2955 4249
2955 4308
2955 4349
2955 4618
2955 4970
2956 2970
2956 2982
2956 3049
2956 3504
2956 3940
2956 3952
2956 4152
2956 4193
2956 4368
2956 4534
2956 4624
2956 4646
2956 4666
2956 4682
2956 4788
2956 4827
2956 4852
2956 4893
2957 3163
2957 3178
2957 3251
2957 4077
2957 4456
2957 4589
2957 4789
2957 4864
2958 3625
2958 4518
2958 4556
2958 4565
2958 4781
2959 2982
2959 3019
2959 3056
2959 3314
2959 3443
2959 3771
2959 3793
2959 3833
2959 3869
2959 3909
2959 4004
2959 4050
2959 4097
2959 4134
2959 4511
2959 4768
2959 4830
2959 4852
2959 4984
2960 3033
2960 3246
2960 3359
2960 3403
2960 3456
2960 3503
2960 3527
2960 3630
2960 3677
2960 3766
2960 3818
2960 3906
2960 4125
2960 4404
2961 3156
2961 3189
2961 3457
2961 3906
2961 4120
2961 4478
2961 4883
2962 3156
2962 3356
2962 3407
2962 3452
2962 3904
2962 3975
2962 4168
2962 4195
2962 4199
2962 4343
2962 4793
2962 4875
2963 3014
2963 3043
2963 3232
2963 3404
2963 3440
2963 3638
2963 3691
2963 4083
2963 4222
2963 4358
2963 4422
2963 4789
2963 4839
2963 4848
2963 4940
2963 4952
2963 4998
2964 3022
2964 3718
2964 3719
2964 3798
2964 4461
2964 4548
2964 4581
2964 4608
2964 4789
2965 3242
2965 3820
2965 4269
2965 4384
2965 4454
2965 4493
2965 4547
2965 4571
2965 4688
2966 3271
2966 3690
2966 3833
2966 4621
2966 4639
2966 4655
2966 4698
2966 4706
2966 4756
2967 2973
2967 3005
2967 3042
2967 3078
2967 3204
2967 3221
2967 3233
2967 3323
2967 3621
2967 3824
2967 4076
2967 4612
2968 3474
2968 4602
2969 3484
2969 3504
2969 3566
2969 3606
2969 3617
2969 3963
2969 4048
2969 4529
2969 4607
2969 4736
2970 3141
2970 3238
2970 3550
2970 4329
2970 4592
2970 4673
2971 3419
2971 3489
2971 3960
2971 4141
2971 4501
2971 4810
2972 3283
2972 3945
2972 4044
2972 4097
2972 4635
2973 3121
2973 3149
2973 3291
2973 3530
2973 3804
2973 3814
2973 3976
2973 4413
2973 4737
2973 4904
2974 2990
2974 3091
2974 3402
2974 4115
2974 4116
2974 4358
2974 4611
2974 4774
2975 3152
2975 3163
2975 3716
2975 3747
2975 4125
2975 4595
2975 4664
2975 4870
2976 2989
2976 3074
2976 3194
2976 3331
2976 3402
2976 3555
2976 3660
2976 3683
2976 3871
2976 4524
2976 4574
2976 4687
2976 4957
2977 3084
2977 3360
2977 3508
2977 3949
2977 4400
2977 4721
2978 2987
2978 3006
2978 3358
2978 3436
2978 3751
2978 3777
2978 3854
2978 3975
2978 3993
2978 4006
2978 4035
2978 4036
2978 4060
2978 4072
2978 4710
2979 3192
2979 3292
2979 3604
2979 4683
2979 4817
2980 3277
2980 4262
2980 4409
2980 4679
2980 4701
2981 2993
2981 3560
2981 3821
2981 3826
2981 3836
2981 4235
2981 4269
2981 4381
2981 4618
2981 4815
2982 3026
2982 4134
2982 4303
2982 4408
2982 4596
2982 4964
2983 3007
2983 3292
2983 3333
2983 3372
2983 3406
2983 3469
2983 3829
2983 3882
2983 4060
2983 4990
2984 3226
2984 4337
2984 4365
2984 4475
2984 4679
2984 4766
2984 4793
2985 3376
2985 3608
2985 3896
2985 4073
2985 4239
2985 4659
2985 4727
2986 4012
2986 4408
2986 4498
2986 4556
2987 3022
2987 3156
2987 3356
2987 3530
2987 3812
2987 3987
2987 4076
2987 4147
2987 4254
2987 4300
2987 4358
2987 4441
2987 4630
2987 4947
2988 3861
2988 3946
2988 4113
2988 4164
2988 4203
2988 4251
2988 4253
2988 4622
2989 3070
2989 3126
2989 3131
2989 3227
2989 3270
2989 3312
2989 3529
2989 3548
2989 3637
2989 3758
2989 3822
2989 4022
2989 4119
2989 4150
2989 4160
2989 4185
2989 4188
2989 4191
2989 4235
2989 4245
2989 4403
2989 4540
2989 4593
2989 4600
2989 4698
2989 4732
2989 4833
2990 3242
2990 3258
2990 3424
2990 3807
2990 3856
2990 3925
2990 3936
2990 3960
2990 4444
2990 4450
2990 4831
2990 4890
2991 3402
2991 3462
2991 3701
2991 4218
2991 4472
2991 4547
2991 4885
2992 3239
2992 3462
2992 3595
2992 4286
2992 4347
2992 4677
2993 3048
2993 3105
2993 3120
2993 3258
2993 3263
2993 3340
2993 3472
2993 3594
2993 3604
2993 3636
2993 3637
2993 3707
2993 3717
2993 3738
2993 3747
2993 3799
2993 3833
2993 3862
2993 3901
2993 3922
2993 3939
2993 3970
2993 4017
2993 4043
2993 4084
2993 4617
2993 4692
2993 4779
2993 4810
2993 4834
2993 4946
2993 4986
2993 4999
2994 3022
2994 3075
2994 3486
2994 4664
2994 4847
2994 4863
2995 3063
2995 3214
2995 3986
2995 4043
2995 4291
2995 4332
2996 3035
2996 3105
2996 3154
2996 3174
2996 3495
2996 3572
2996 3664
2996 4429
2996 4443
2996 4745
2996 4816
2996 4997
2997 3155
2997 3203
2997 3350
2997 3396
2997 3424
2997 3485
2997 3511
2997 3664
2997 3736
2997 3757
2997 3774
2997 3845
2997 3900
2997 3907
2997 3946
2997 3951
2997 3979
2997 4101
2997 4108
2997 4171
2997 4194
2997 4276
2997 4372
2997 4418
2997 4445
2997 4556
2997 4577
2997 4599
2997 4656
2997 4678
2997 4704
2997 4709
2997 4775
2997 4976
2997 4985
2998 3088
2998 3569
2998 3638
2998 4153
2998 4171
2998 4232
2998 4275
2998 4412
2998 4601
2998 4755
2998 4985
2999 3009
2999 3607
2999 4171
2999 4278
2999 4612
2999 4678
3000 3078
3000 3159
3000 3551
3000 3579
3000 3912
3000 4460
3000 4606
3000 4911
3001 3239
3001 3482
3001 3505
3001 3522
3001 3691
3001 3702
3001 3780
3001 3950
3001 4129
3001 4239
3001 4512
3001 4542
3001 4603
3001 4675
3001 4732
3001 4770
3001 4778
3002 3329
3002 3452
3002 3533
3002 3708
3002 3727
3002 3795
3002 4110
3002 4122
3002 4129
3002 4490
3002 4751
3002 4841
3003 3092
3003 3335
3003 3942
3003 4181
3003 4306
3004 3006
3004 3608
3004 3791
3004 4103
3004 4760
3004 4791
3005 3022
3005 3253
3005 3290
3005 3867
3005 3987
3005 4039
3005 4330
3005 4564
3005 4831
3006 3184
3006 3250
3006 3310
3006 3570
3006 3630
3006 3698
3006 3814
3006 3855
3006 3864
3006 3948
3006 3969
3006 4014
3006 4072
3006 4173
3006 4192
3006 4254
3006 4309
3006 4391
3006 4773
3006 4888
3007 3119
3007 4905
3007 4980
3008 3053
3008 3309
3008 3810
3008 4361
3008 4447
3009 3041
3009 3086
3009 3118
3009 3182
3009 3196
3009 3211
3009 3377
3009 3385
3009 3402
3009 3451
3009 3522
3009 3647
3009 3743
3009 3927
3009 4098
3009 4137
3009 4172
3009 4215
3009 4364
3009 4432
3009 4675
3009 4757
3009 4779
3009 4895
3009 4917
3009 4949
3010 3073
3010 3088
3010 3330
3010 3468
3010 3529
3010 3553
3010 3693
3010 3812
3010 3881
3010 3965
3010 4052
3010 4111
3010 4181
3010 4412
3010 4517
3010 4870
3010 4951
3011 3269
3011 3637
3011 3982
3011 4097
3011 4360
3011 4438
3011 4808
3011 4893
3011 4989
3012 3124
3012 3131
3012 3658
3012 4087
3012 4723
3012 4814
3012 4839
3013 4267
3013 4384
3013 4646
3013 4893
3014 3112
3014 3146
3014 3164
3014 3259
3014 3445
3014 3457
3014 3521
3014 3860
3014 3917
3014 4364
3014 4481
3014 4564
3014 4600
3014 4774
3014 4848
3014 4911
3014 4913
3015 3255
3015 3266
3015 3283
3015 3362
3015 3442
3015 3470
3015 3495
3015 3548
3015 3556
3015 3622
3015 3684
3015 3743
3015 4162
3015 4234
3015 4290
3015 4320
3015 4362
3016 3116
3016 3164
3016 3306
3016 3935
3016 4168
3016 4520
3016 4896
3016 4941
3017 4013
3017 4198
3017 4470
3017 4624
3017 4646
3017 4666
3017 4751
3018 3660
3018 3864
3018 3973
3018 3992
3018 4076
3018 4399
3018 4562
3018 4758
3019 3925
3019 4023
3019 4364
3019 4780
3019 4923
3020 3083
3020 3220
3020 3528
3020 3553
3020 4052
3020 4181
3020 4189
3020 4191
3020 4359
3020 4370
3020 4403
3020 4601
3020 4763
3020 4780
3020 4870
3021 3345
3021 3522
3021 3657
3021 4202
3021 4344
3021 4427
3021 4546
3022 3221
3022 3246
3022 3504
3022 3540
3022 4143
3022 4330
3022 4406
3022 4413
3022 4912
3023 3057
3023 3097
3023 3139
3023 4504
3023 4562
3023 4862
3023 4921
3024 3991
3024 4253
3024 4436
3024 4439
3024 4678
3024 4777
3024 4915
3025 3202
3025 3406
3025 3408
3025 3426
3025 3813
3026 3065
3026 3309
3026 3407
3026 3904
3026 4340
3026 4792
3026 4964
3027 3300
3027 3591
3027 3676
3027 3717
3027 3780
3027 3822
3027 3843
3027 4251
3027 4930
3028 3156
3028 3309
3028 3392
3028 3712
3028 3865
3028 4277
3028 4394
3028 4787
3028 4844
3028 4998
3029 3751
3029 3851
3029 4439
3029 4580
3029 4705
3029 4846
3030 3094
3030 3268
3030 3946
3030 4108
3030 4498
3031 3352
3031 3515
3031 3727
3031 3901
3031 4375
3031 4669
3031 4787
3031 4881
3031 4944
3032 3165
3032 3174
3032 3340
3032 3432
3032 3453
3032 3701
3032 3754
3032 3839
3032 3852
3032 3924
3032 3992
3032 4426
3032 4429
3032 4444
3032 4586
3032 4660
3032 4779
3032 4805
3032 4929
3033 3573
3033 3675
3033 3771
3033 3831
3034 3386
3034 3413
3034 3526
3034 3946
3034 4163
3034 4800
3034 4923
3035 3179
3035 3524
3035 3596
3035 3754
3035 4032
3035 4099
3035 4155
3035 4245
3035 4669
3036 3385
3036 3470
3036 3593
3036 4049
3036 4089
3037 3189
3037 3423
3037 4017
3037 4345
3037 4500
3037 4521
3037 4816
3037 4936
3038 4061
3038 4097
3038 4127
3038 4423
3038 4511
3038 4923
3039 3201
3039 3624
3039 4529
3039 4594
3039 4621
3039 4718
3039 4881
3039 4996
3040 3139
3040 3205
3040 3493
3040 3903
3040 3996
3040 4008
3040 4621
3040 4862
3040 4891
3041 4922
3041 4952
3042 3204
3042 3769
3042 3913
3042 4147
3042 4301
3042 4921
3043 3264
3043 3594
3043 3732
3043 3898
3043 3947
3043 3973
3043 3989
3043 4010
3043 4322
3043 4446
3043 4601
3043 4816
3044 3411
3044 3720
3044 3803
3044 4216
3044 4396
3044 4495
3044 4717
3044 4914
3045 3347
3045 3352
3045 3435
3045 3475
3045 3705
3045 3778
3045 4157
3045 4158
3045 4328
3045 4359
3045 4823
3045 4899
3046 3108
3046 3171
3046 3187
3046 3807
3046 3909
3046 4004
3046 4097
3046 4187
3046 4511
3047 3763
3047 4337
3047 4914
3048 3316
3048 3567
3048 3569
3048 4175
3048 4206
3048 4236
3048 4905
3049 3239
3049 3432
3049 3569
3049 4164
3049 4304
3049 4306
3049 4360
3049 4780
3049 4870
3050 3056
3050 3220
3050 3595
3050 3793
3050 3909
3050 3935
3050 4199
3050 4360
3050 4635
3050 4694
3050 4862
3051 3066
3051 3195
3051 3242
3051 3266
3051 3287
3051 3361
3051 3413
3051 3519
3051 3525
3051 3548
3051 3731
3051 3752
3051 3819
3051 3850
3051 4063
3051 4294
3051 4320
3051 4590
3051 4708
3051 4813
3051 4899
3052 3157
3052 3617
3052 3637
3052 3972
3052 4298
3052 4321
3052 4542
3052 4664
3052 4812
3053 3331
3053 3646
3053 3936
3053 4013
3053 4168
3053 4410
3053 4826
3053 4943
3054 3101
3054 3210
3054 3325
3054 3402
3054 3454
3054 3495
3054 3629
3054 3645
3054 3770
3054 3867
3054 4001
3054 4002
3054 4043
3054 4139
3054 4315
3054 4566
3054 4625
3054 4659
3054 4902
3054 4979
3055 3186
3055 3509
3055 3615
3055 3645
3055 3799
3055 4033
3055 4828
3055 4918
3056 3603
3056 3721
3056 3979
3056 4347
3056 4573
3056 4852
3056 4983
3057 3928
3057 3944
3057 3963
3057 3976
3057 4683
3057 4838
3057 4970
3058 4275
3058 4332
3058 4339
3058 4360
3059 3382
3059 3391
3059 3596
3059 3924
3059 4622
3060 3219
3060 3266
3060 3485
3060 3667
3060 3675
3060 3738
3060 3834
3060 3896
3060 3953
3060 4239
3060 4575
3060 4591
3060 4715
3060 4762
3061 3132
3061 3139
3061 3260
3061 3435
3061 3860
3061 4008
3061 4040
3061 4057
3061 4235
3061 4593
3061 4667
3061 4867
3061 4879
3061 4931
3062 3367
3062 3925
3062 4061
3062 4199
3062 4566
3062 4720
3062 4822
3062 4854
3063 3105
3063 3288
3063 3290
3063 3554
3063 3629
3063 3684
3063 3717
3063 3724
3063 4332
3063 4625
3063 4958
3064 3108
3064 3410
3064 3475
3064 3668
3064 4159
3064 4183
3064 4199
3064 4210
3064 4445
3064 4629
3064 4677
3065 3113
3065 3115
3065 3136
3065 3155
3065 3345
3065 3427
3065 3476
3065 3706
3065 3857
3065 3932
3065 3948
3065 4474
3065 4492
3065 4594
3065 4611
3065 4743
3065 4801
3066 3315
3066 3768
3066 4095
3066 4227
3066 4234
3067 3785
3067 3804
3067 3859
3067 4167
3067 4343
3067 4394
3067 4725
3067 4943
3068 3354
3068 3557
3068 3606
3068 3991
3068 4057
3068 4367
3068 4904
3069 4551
3069 4683
3070 3715
3070 4188
3070 4393
3070 4610
3070 4812
3070 4896
3070 4937
3071 3124
3071 3298
3071 3337
3071 3441
3071 3480
3071 3508
3071 3536
3071 3659
3071 3717
3071 3871
3071 3914
3071 4781
3071 4873
3072 3278
3072 3280
3072 3420
3072 3969
3072 4219
3072 4254
3072 4285
3072 4705
3072 4893
3073 3088
3073 3194
3073 3239
3073 3499
3073 4049
3073 4077
3073 4103
3073 4153
3073 4191
3073 4205
3073 4306
3073 4366
3073 4399
3073 4561
3074 3346
3074 3501
3074 3569
3074 3571
3074 3689
3074 3831
3074 4103
3074 4283
3074 4489
3074 4601
3074 4755
3075 3548
3075 4176
3075 4381
3075 4523
3075 4787
3076 3401
3076 3451
3076 3808
3076 4410
3076 4631
3076 4800
3076 4844
3076 4943
3077 3312
3077 3603
3077 4016
3077 4164
3077 4641
3077 4736
3077 4784
3077 4934
3077 4940
3078 3475
3078 3641
3078 3659
3078 3768
3078 3976
3078 3992
3078 4301
3078 4330
3078 4358
3078 4395
3078 4737
3078 4971
3079 3533
3079 3600
3079 3679
3079 3733
3079 3761
3079 4151
3079 4619
3079 4645
3080 3104
3080 3189
3080 3246
3080 3511
3080 3531
3080 3814
3080 3876
3080 4059
3080 4076
3080 4476
3081 3287
3081 3527
3081 3548
3081 3603
3081 3798
3081 4020
3081 4146
3081 4570
3081 4669
3081 4862
3082 3205
3082 3733
3082 3744
3082 3850
3082 4170
3082 4347
3082 4428
3083 3108
3083 3200
3083 3305
3083 3387
3083 3392
3083 3569
3083 3632
3083 4111
3083 4149
3083 4153
3083 4223
3083 4306
3083 4430
3083 4779
3083 4960
3084 3506
3084 3937
3084 4345
3084 4452
3084 4653
3084 4679
3084 4769
3084 4781
3085 3437
3085 3833
3085 4097
3085 4199
3085 4257
3085 4881
3086 3123
3086 3542
3086 3893
3086 4164
3086 4165
3086 4326
3086 4329
3086 4367
3086 4409
3086 4471
3086 4485
3086 4517
3086 4671
3086 4678
3086 4690
3086 4744
3087 3105
3087 3171
3087 3239
3087 3327
3087 3378
3087 4691
3088 3204
3088 3504
3088 3757
3088 3881
3088 4111
3088 4152
3088 4156
3088 4181
3088 4232
3088 4275
3088 4334
3088 4412
3088 4427
3088 4486
3088 4491
3088 4537
3088 4780
3088 4802
3089 3225
3089 3277
3089 3599
3089 4281
3089 4392
3089 4409
3089 4448
3090 3122
3090 3242
3090 3287
3090 3506
3090 3769
3090 3795
3090 4106
3090 4220
3090 4249
3090 4497
3090 4767
3090 4994
3091 3399
3091 3549
3091 3656
3091 4417
3092 3194
3092 3218
3092 3499
3092 3701
3092 3898
3092 3928
3092 4308
3092 4398
3092 4594
3092 4961
3092 4970
3093 3358
3093 3701
3093 3827
3093 3968
3093 4000
3093 4360
3093 4545
3093 4766
3093 4785
3093 4944
3094 3250
3094 3280
3094 3645
3094 3668
3094 3748
3094 3807
3094 3950
3094 4142
3094 4372
3094 4471
3094 4539
3094 4663
3094 4981
3095 3213
3095 3525
3095 3660
3095 3673
3095 3803
3095 4462
3095 4625
3096 3271
3096 3345
3096 3379
3096 3664
3096 4077
3096 4173
3096 4275
3096 4304
3096 4327
3096 4468
3096 4601
3096 4780
3096 4789
3096 4841
3096 4884
3096 4943
3097 3317
3097 3339
3097 3461
3097 4431
3097 4937
3097 4972
3098 3163
3098 3191
3098 3273
3098 3279
3098 3403
3098 3968
3098 4012
3098 4026
3098 4034
3098 4589
3098 4595
3098 4905
3099 3693
3099 3735
3099 3848
3099 4456
3099 4621
3099 4772
3099 4789
3099 4997
3100 3167
3100 3379
3100 3454
3100 3503
3100 3570
3100 3716
3100 3854
3100 3969
3100 4168
3100 4285
3100 4290
3101 3110
3101 3225
3101 3276
3101 3405
3101 3526
3101 3584
3101 3705
3101 3816
3101 3822
3101 4001
3101 4043
3101 4571
3101 4798
3101 4864
3102 3381
3102 3408
3102 3608
3102 3698
3102 3854
3102 4239
3102 4285
3102 4449
3102 4610
3103 3738
3103 3793
3103 3986
3103 4332
3103 4900
3104 3148
3104 3335
3104 3557
3104 3560
3104 4060
3104 4361
3104 4905
3105 3240
3105 3267
3105 3594
3105 3920
3105 4001
3105 4935
3105 4998
3106 4812
3107 3267
3107 3472
3107 3548
3107 4253
3107 4452
3107 4902
3107 4917
3108 3111
3108 3247
3108 3253
3108 3566
3108 3651
3108 3679
3108 3880
3108 4121
3108 4133
3108 4163
3108 4226
3108 4266
3108 4296
3108 4314
3108 4326
3108 4346
3108 4467
3108 4567
3108 4586
3108 4641
3108 4677
3108 4748
3108 4801
3108 4803
3108 4806
3108 4865
3108 4898
3108 4966
3109 3335
3109 3399
3109 4362
3109 4479
3110 3195
3110 3250
3110 3258
3110 3422
3110 3593
3110 3594
3110 3738
3110 3806
3110 3922
3110 4354
3110 4856
3110 4880
3110 4904
3110 4999
3111 3148
3111 3381
3111 3402
3111 3484
3111 3744
3111 3788
3111 3904
3111 4108
3111 4163
3111 4527
3111 4793
3111 4916
3112 4283
3112 4593
3112 4732
3112 4769
3113 3149
3113 3252
3113 3304
3113 3318
3113 3370
3113 3444
3113 3453
3113 3513
3113 3607
3113 3924
3113 4025
3113 4082
3113 4088
3113 4150
3113 4248
3113 4429
3113 4488
3113 4496
3113 4522
3113 4583
3113 4586
3113 4627
3113 4634
3113 4702
3113 4728
3113 4729
3113 4763
3113 4768
3113 4772
3113 4790
3113 4829
3113 4874
3113 4883
3113 4901
3113 4952
3113 4958
3113 4964
3114 3550
3114 3977
3114 4153
3114 4207
3114 4447
3114 4630
3114 4654
3114 4810
3115 3262
3115 3576
3115 4113
3115 4165
3115 4318
3115 4372
3115 4476
3115 4697
3115 4720
3116 3364
3116 3510
3116 3577
3116 3717
3116 3805
3116 3965
3116 4503
3116 4804
3116 4834
3117 3267
3117 3548
3117 3603
3117 3927
3117 4247
3117 4253
3117 4525
3117 4735
3118 3423
3118 4433
3118 4458
3118 4693
3118 4860
3119 3213
3119 3288
3119 3324
3119 3358
3119 3513
3119 3972
3119 4905
3120 3613
3120 4226
3120 4310
3120 4630
3120 4686
3121 3323
3121 3392
3121 3496
3121 3497
3121 4124
3121 4330
3121 4347
3121 4737
3121 4755
3121 4856
3122 3185
3122 3579
3122 4324
3122 4571
3122 4720
3122 4816
3123 3993
3123 4164
3123 4172
3123 4220
3123 4558
3123 4637
3123 4755
3124 3176
3124 3296
3124 3515
3124 3559
3124 3794
3124 4043
3124 4568
3124 4999
3125 3528
3125 3603
3125 3682
3125 3723
3126 3139
3126 3273
3126 3445
3126 3498
3126 3652
3126 4022
3126 4425
3126 4600
3126 4732
3127 3405
3127 4215
3128 3331
3128 3555
3128 4039
3128 4054
3128 4167
3128 4193
3128 4326
3128 4331
3128 4722
3128 4827
3129 3319
3129 3394
3129 3475
3129 3530
3129 3595
3129 3644
3129 3976
3129 4229
3129 4358
3129 4435
3129 4779
3130 3154
3130 3340
3130 3676
3130 3880
3130 4043
3130 4139
3130 4179
3130 4740
3130 4804
3130 4900
3131 3135
3131 3139
3131 3146
3131 3164
3131 3437
3131 3605
3131 4150
3131 4388
3131 4604
3131 4732
3131 4854
3131 4862
3131 4913
3132 3247
3132 3317
3132 3638
3132 3938
3132 4609
3132 4622
3132 4820
3132 4934
3133 3157
3133 3382
3133 3694
3133 4197
3133 4622
3133 4914
3134 3369
3134 3651
3134 4040
3134 4675
3134 4940
3135 3437
3135 3574
3135 3605
3135 3879
3135 4060
3135 4102
3135 4243
3135 4278
3135 4364
3135 4487
3135 4732
3136 3249
3136 3286
3136 3345
3136 3372
3136 3443
3136 3554
3136 3822
3136 3828
3136 4326
3136 4444
3136 4472
3136 4476
3136 4566
3136 4679
3136 4745
3136 4762
3136 4914
3136 4919
3136 4996
3137 3185
3137 3609
3137 4971
3138 3232
3138 3299
3138 3311
3138 3566
3138 3657
3138 3702
3138 3845
3138 3891
3138 4021
3138 4257
3138 4832
3139 3205
3139 3230
3139 3445
3139 3526
3139 3595
3139 3604
3139 3709
3139 3843
3139 4008
3139 4069
3139 4137
3139 4185
3139 4206
3139 4217
3139 4235
3139 4301
3139 4314
3139 4341
3139 4397
3139 4686
3139 4719
3139 4989
3140 3323
3140 3692
3140 4020
3140 4060
3140 4691
3140 4821
3140 4905
3141 3196
3141 3239
3141 3679
3141 3726
3141 4015
3141 4085
3141 4331
3141 4769
3141 4848
3141 4895
3141 4952
3142 3247
3142 3965
3142 4475
3142 4583
3142 4594
3142 4773
3142 4955
3143 3717
3143 3742
3143 3786
3143 3878
3143 4707
3143 4986
3143 4999
3144 3310
3144 3776
3144 3803
3144 4443
3144 4754
3144 4995
3145 3240
3145 3952
3145 4116
3145 4357
3145 4466
3145 4721
3145 4828
3145 4865
3145 4919
3145 4982
3146 3421
3146 3724
3146 3967
3146 4217
3146 4307
3146 4428
3146 4716
3147 3160
3147 3488
3147 3611
3147 3694
3147 3900
3147 4189
3147 4473
3147 4551
3147 4697
3148 3152
3148 3403
3148 3698
3148 3772
3148 4482
3148 4589
3149 3181
3149 3226
3149 3496
3149 3705
3149 3758
3149 3904
3149 4121
3149 4358
3149 4373
3149 4633
3149 4920
3150 3255
3150 3525
3150 3581
3150 4108
3150 4187
3150 4234
3150 4250
3150 4808
3150 4965
3151 3262
3151 3335
3151 3609
3151 3749
3151 3827
3151 4154
3152 3406
3152 3586
3152 3616
3152 3675
3152 3678
3152 3716
3152 3766
3152 3873
3152 3896
3152 3941
3152 4361
3152 4591
3152 4905
3152 4935
3153 3827
3153 3921
3153 4341
3153 4372
3153 4420
3153 4748
3153 4774
3154 3225
3154 3922
3154 4891
3155 3274
3155 3354
3155 3386
3155 3571
3155 3852
3155 4608
3155 4648
3155 4926
3155 4996
3156 3920
3156 3991
3156 4087
3156 4142
3156 4195
3156 4746
3156 4750
3156 4776
3156 4793
3156 4875
3156 4927
3157 3175
3157 3311
3157 3451
3157 3538
3157 3647
3157 3731
3157 4049
3157 4152
3157 4664
3157 4792
3157 4969
3158 3226
3158 3414
3158 3531
3158 3641
3158 3824
3158 3897
3158 3913
3158 4076
3158 4358
3158 4441
3158 4578
3159 3398
3159 3669
3159 3739
3159 3898
3159 3907
3159 4140
3159 4161
3159 4308
3159 4322
3159 4584
3159 4613
3159 4845
3160 3814
3160 4007
3160 4362
3160 4413
3160 4902
3160 4970
3161 3533
3161 3708
3161 4050
3161 4118
3161 4529
3161 4650
3161 4738
3162 3931
3162 4070
3162 4111
3162 4173
3162 4223
3162 4256
3162 4575
3162 4756
3163 3570
3163 3630
3163 3649
3163 3698
3163 3787
3163 4039
3163 4081
3164 3338
3164 4508
3164 4672
3165 3179
3165 3822
3165 3852
3165 4181
3165 4300
3165 4426
3165 4679
3165 4727
3165 4997
3166 3317
3166 4316
3166 4578
3166 4605
3166 4747
3167 3428
3167 3442
3167 3477
3167 4335
3167 4672
3167 4766
3167 4885
3167 4987
3168 3200
3168 3305
3168 3315
3168 3544
3168 3827
3168 4164
3168 4311
3168 4418
3168 4729
3168 4953
3169 3176
3169 3798
3169 3926
3169 4236
3169 4379
3169 4522
3169 4884
3169 4974
3169 4993
3170 3217
3170 3337
3170 3358
3170 3381
3170 3829
3170 4073
3170 4186
3170 4309
3170 4348
3170 4589
3171 3258
3171 3273
3171 3416
3171 3594
3171 3862
3171 3884
3171 4147
3171 4927
3172 3215
3172 3255
3172 3266
3172 3292
3172 3332
3173 4209
3173 4230
3173 4293
3173 4374
3173 4752
3173 4790
3174 3241
3174 3291
3174 3296
3174 3364
3174 3444
3174 3735
3174 3791
3174 3910
3174 4262
3174 4476
3174 4586
3174 4614
3174 4702
3174 4731
3174 4816
3174 4833
3174 4847
3175 3996
3175 4110
3175 4518
3175 4550
3175 4675
3175 4977
3176 3241
3176 3346
3176 3615
3176 3664
3176 4594
3176 4639
3176 4648
3176 4652
3176 4749
3176 4762
3176 4805
3177 3496
3177 3551
3177 3659
3177 3812
3177 3817
3177 4112
3177 4229
3177 4834
3178 3209
3178 3375
3178 3642
3178 3653
3178 3670
3178 4200
3178 4500
3178 4581
3178 4634
3178 4723
3178 4867
3179 3493
3179 3608
3179 3662
3179 3721
3179 3737
3179 3762
3179 3929
3179 4772
3179 4779
3179 4859
3179 4874
3179 4904
3179 4997
3180 3197
3180 3330
3180 3667
3180 3849
3180 4025
3180 4032
3180 4053
3180 4246
3180 4594
3180 4621
3181 3253
3181 3474
3181 3599
3181 3613
3181 3814
3181 4076
3181 4112
3181 4143
3181 4516
3181 4633
3181 4885
3182 3193
3182 3342
3182 3349
3182 3369
3182 3448
3182 4052
3182 4250
3182 4624
3182 4778
3182 4855
3183 3698
3183 3840
3183 3983
3183 4530
3183 4597
3183 4625
3183 4635
3184 3409
3184 3419
3184 3574
3184 3964
3184 4121
3184 4164
3184 4253
3184 4267
3184 4280
3184 4480
3184 4542
3184 4656
3184 4687
3184 4690
3184 4744
3184 4760
3184 4869
3184 4916
3184 4934
3185 3265
3185 3316
3185 3525
3185 3685
3185 3818
3185 3821
3185 3893
3185 4051
3185 4067
3185 4250
3185 4318
3185 4523
3186 3214
3186 3329
3186 3494
3186 3584
3186 3593
3186 3738
3186 3742
3186 3898
3186 4084
3186 4139
3186 4671
3187 3226
3187 3362
3187 3416
3187 3913
3187 3992
3187 4112
3187 4262
3187 4363
3187 4376
3187 4642
3188 3844
3188 4129
3188 4546
3188 4756
3188 4792
3188 4977
3189 3389
3189 3399
3189 3628
3189 4075
3189 4419
3189 4442
3189 4677
3189 4802
3189 4908
3190 3538
3190 3746
3190 4087
3190 4331
3190 4940
3191 3223
3191 3403
3191 3490
3191 3771
3191 3837
3191 3873
3191 3902
3191 4106
3191 4196
3191 4313
3191 4913
3192 3274
3192 3391
3192 3460
3192 3533
3192 4228
3192 4300
3192 4513
3192 4676
3192 4680
3193 3481
3193 3695
3193 3894
3193 4047
3193 4286
3193 4769
3193 4855
3193 4935
3194 3450
3194 4038
3194 4103
3194 4173
3194 4223
3194 4283
3194 4298
3194 4304
3194 4468
3194 4470
3194 4501
3194 4520
3194 4755
3194 4780
3195 3411
3195 3495
3195 3534
3195 4200
3195 4619
3195 4636
3196 3239
3196 3408
3196 4339
3196 4344
3196 4685
3197 3570
3197 3738
3197 3971
3197 3976
3197 4178
3197 4299
3197 4522
3197 4611
3197 4679
3197 4745
3197 4805
3197 4917
3198 3866
3198 4070
3198 4954
3199 3241
3199 3442
3199 3852
3199 4140
3199 4429
3199 4529
3199 4779
3200 3753
3200 3827
3200 4311
3201 3555
3201 4334
3201 4476
3201 4706
3202 3399
3202 3613
3202 3976
3202 4112
3202 4164
3202 4187
3203 3220
3203 3239
3203 3290
3203 3657
3203 4269
3203 4360
3203 4781
3204 3226
3204 3243
3204 3291
3204 3352
3204 3372
3204 3433
3204 3475
3204 3525
3204 3621
3204 3997
3204 4093
3204 4145
3204 4147
3204 4441
3204 4692
3204 4855
3204 4921
3205 3301
3205 3353
3205 4022
3205 4069
3205 4122
3205 4243
3205 4399
3205 4508
3205 4532
3205 4795
3206 3400
3206 3472
3206 3518
3206 3696
3206 3744
3206 3786
3206 3826
3206 4344
3206 4400
3206 4774
3206 4780
3206 4805
3206 4902
3206 4904
3207 3335
3207 3914
3207 3962
3207 4202
3207 4238
3207 4263
3207 4421
3207 4456
3207 4458
3207 4581
3207 4657
3207 4827
3207 4867
3208 3552
3208 4363
3208 4385
3208 4402
3208 4663
3209 3314
3209 3625
3209 3866
3209 4137
3209 4651
3209 4871
3209 4875
3209 4936
3210 3319
3210 3378
3210 3442
3210 3582
3210 3770
3210 3862
3210 4033
3210 4064
3210 4160
3210 4168
3210 4599
3210 4791
3210 4902
3211 3239
3211 3666
3211 3711
3211 3900
3211 4016
3211 4435
3211 4814
3211 4891
3212 3394
3212 3516
3212 3665
3212 4494
3212 4893
3212 4921
3212 4978
3213 3287
3213 3525
3213 3544
3213 3755
3213 3764
3213 3966
3213 4000
3213 4213
3213 4259
3213 4570
3214 3383
3214 3727
3214 4776
3214 4817
3214 4935
3215 3399
3215 3534
3215 3715
3215 3762
3215 4013
3215 4929
3216 4385
3216 4566
3216 4827
3217 3304
3217 3317
3217 3321
3217 3352
3217 3433
3217 3444
3217 3445
3217 3471
3217 3596
3217 3763
3217 3924
3217 3984
3217 4001
3217 4041
3217 4117
3217 4141
3217 4433
3217 4496
3217 4534
3217 4542
3217 4594
3217 4674
3217 4745
3217 4766
3217 4779
3217 4816
3217 4818
3217 4833
3217 4903
3218 3284
3218 3300
3218 3426
3218 3465
3218 3568
3218 3657
3218 3851
3218 3886
3218 3907
3218 3912
3218 4230
3218 4584
3218 4659
3219 3265
3219 3280
3219 3358
3219 3406
3219 3490
3219 3492
3219 3540
3219 3584
3219 3598
3219 3686
3219 3701
3219 3864
3219 4144
3219 4237
3219 4361
3219 4375
3219 4455
3219 4760
3219 4986
3220 3303
3220 3936
3220 3964
3220 4043
3220 4050
3220 4199
3220 4246
3220 4335
3220 4483
3220 4511
3220 4923
3220 4964
3221 3294
3221 3351
3221 3531
3221 3716
3221 3898
3221 3968
3221 4076
3221 4145
3221 4362
3221 4444
3221 4480
3222 3344
3222 3403
3222 3405
3222 3454
3222 3531
3222 3603
3223 3287
3223 3785
3223 4570
3224 3562
3224 3748
3224 3750
3224 3995
3224 4052
3224 4164
3224 4165
3224 4178
3224 4213
3224 4342
3224 4412
3224 4436
3224 4467
3224 4687
3224 4752
3224 4775
3224 4932
3225 3249
3225 3593
3225 3706
3225 3918
3225 4046
3225 4804
3225 4900
3226 3394
3226 3595
3226 3763
3226 4158
3226 4319
3226 4373
3226 4676
3227 3312
3227 3446
3227 3482
3227 3592
3227 3597
3227 3680
3227 3698
3227 3733
3227 3801
3227 4144
3227 4656
3227 4770
3227 4781
3228 3832
3228 4099
3228 4102
3228 4364
3228 4571
3229 3397
3229 3533
3229 4081
3229 4114
3229 4447
3229 4780
3230 3749
3230 3839
3231 3423
3231 3477
3231 3555
3231 3946
3231 3966
3231 4024
3231 4597
3231 4720
3231 4898
3231 4916
3231 4940
3232 4086
3232 4769
3232 4789
3232 4848
3232 4863
3233 3731
3233 3744
3233 3856
3233 4290
3233 4357
3233 4368
3233 4497
3234 3287
3234 3769
3234 3904
3234 4453
3234 4750
3235 3602
3235 4204
3235 4207
3235 4409
3235 4565
3235 4862
3236 3454
3236 3750
3236 3758
3236 3822
3236 4173
3236 4229
3236 4597
3237 3769
3237 3803
3237 4395
3237 4830
3237 4841
3237 4997
3238 3277
3238 3352
3238 3475
3238 3705
3238 3812
3238 3814
3238 4084
3238 4109
3238 4330
3238 4784
3239 3244
3239 3311
3239 3337
3239 3369
3239 3459
3239 3640
3239 3750
3239 3756
3239 3823
3239 3891
3239 3908
3239 3945
3239 3948
3239 3957
3239 4076
3239 4152
3239 4194
3239 4343
3239 4703
3239 4726
3239 4727
3239 4750
3239 4792
3239 4835
3239 4938
3239 4940
3239 4959
3239 4969
3239 4977
3240 3445
3240 4269
3240 4284
3240 4446
3240 4945
3240 4951
3241 3307
3241 3510
3241 3852
3241 3943
3241 4482
3241 4628
3241 4648
3241 4745
3241 4779
3241 4905
3241 4919
3242 3491
3242 3731
3242 3954
3242 4485
3242 4889
3243 3909
3243 3955
3243 3967
3243 4143
3243 4304
3243 4536
3243 4653
3243 4658
3243 4992
3244 3520
3244 3522
3244 3647
3244 3799
3244 3945
3244 4084
3244 4085
3244 4187
3244 4326
3244 4979
3245 3247
3245 3524
3245 3639
3245 4316
3245 4485
3245 4611
3245 4666
3245 4672
3245 4679
3245 4680
3245 4918
3245 4938
3246 3290
3246 3824
3246 3894
3247 3491
3247 3513
3247 3524
3247 3644
3247 3678
3247 3762
3247 3990
3247 4147
3247 4443
3247 4475
3247 4621
3247 4638
3247 4658
3247 4674
3247 4701
3247 4727
3247 4728
3247 4729
3247 4785
3247 4789
3247 4794
3247 4805
3247 4874
3247 4996
3248 3261
3248 3449
3248 3498
3248 3570
3248 3616
3248 4221
3248 4529
3248 4658
3249 3406
3249 3436
3249 3777
3249 3837
3249 3884
3249 3968
3249 4012
3249 4239
3249 4468
3249 4589
3249 4622
3250 3276
3250 3386
3250 3946
3250 4210
3250 4274
3250 4419
3250 4925
3251 3374
3251 3403
3251 3406
3251 3428
3251 3456
3251 3457
3251 3655
3251 3716
3251 3873
3251 3896
3251 4012
3251 4043
3251 4193
3251 4212
3251 4219
3251 4234
3251 4237
3251 4367
3252 3390
3252 3658
3252 3798
3252 4300
3252 4542
3252 4611
3252 4832
3252 4855
3253 3686
3253 3705
3253 3894
3253 4109
3253 4644
3254 3691
3254 4015
3254 4084
3254 4305
3254 4337
3254 4675
3254 4781
3254 4831
3255 3548
3255 4394
3255 4475
3256 3538
3256 3891
3256 4546
3256 4664
3256 4781
3256 4863
3257 3385
3257 3731
3257 3894
3257 4108
3257 4141
3257 4170
3257 4212
3257 4286
3257 4351
3257 4377
3257 4510
3257 4656
3257 4736
3257 4774
3257 4930
3258 3327
3258 3822
3258 3986
3258 3989
3258 4002
3258 4133
3258 4175
3259 3532
3259 3564
3259 3911
3259 4153
3259 4170
3259 4235
3259 4466
3259 4508
3260 3415
3260 3437
3260 3707
3260 4454
3260 4828
3260 4852
3260 4996
3261 3292
3261 3620
3261 3646
3261 3761
3261 3918
3261 4020
3261 4192
3261 4310
3261 4391
3261 4414
3261 4691
3261 4808
3261 4905
3262 3360
3262 3816
3262 4534
3262 4713
3263 3367
3263 3793
3263 3836
3263 3858
3263 3905
3263 3934
3263 3935
3263 3960
3263 4004
3263 4057
3263 4187
3263 4451
3263 4593
3263 4854
3263 4860
3263 4890
3264 3811
3264 3979
3264 3985
3264 4560
3264 4784
3264 4825
3264 4876
3265 3313
3265 3965
3265 4256
3265 4622
3266 3495
3266 3633
3266 4678
3266 4954
3267 3922
3267 3944
3267 3973
3267 4060
3267 4306
3268 3890
3268 4030
3268 4039
3268 4059
3268 4357
3268 4561
3268 4832
3269 3465
3269 3531
3269 3626
3269 3784
3269 3911
3269 4363
3269 4369
3269 4480
3269 4748
3270 4150
3270 4732
3270 4911
3270 4999
3271 3338
3271 3542
3271 3919
3271 4576
3271 4698
3271 4756
3272 3294
3272 3576
3272 3657
3272 3659
3272 3698
3272 3814
3272 3976
3272 4354
3273 3300
3273 3379
3273 3442
3273 3738
3273 3794
3273 4242
3273 4346
3273 4352
3273 4372
3274 3548
3274 3709
3274 4529
3274 4531
3274 4651
3275 3428
3275 3474
3275 3705
3275 3729
3275 3813
3275 3841
3275 4270
3275 4387
3275 4441
3275 4758
3276 3378
3276 3640
3276 3653
3276 3915
3276 4488
3276 4859
3276 4906
3277 3428
3277 3550
3277 3619
3277 3747
3277 3763
3277 3921
3277 4241
3277 4265
3277 4281
3277 4296
3277 4303
3277 4392
3277 4396
3277 4409
3277 4448
3277 4449
3277 4515
3277 4544
3277 4552
3277 4626
3277 4668
3277 4681
3277 4770
3277 4843
3277 4913
3277 4931
3278 3779
3278 3970
3278 3993
3278 4167
3278 4282
3278 4488
3278 4693
3279 3343
3279 3406
3279 3490
3279 3568
3279 3570
3279 3675
3279 3863
3279 3898
3279 3972
3279 3993
3279 4078
3279 4081
3279 4196
3279 4375
3279 4714
3280 3347
3280 3771
3280 3896
3280 3968
3280 4126
3280 4268
3280 4516
3280 4653
3281 3296
3281 3717
3281 4043
3281 4270
3281 4500
3281 4654
3281 4817
3282 3639
3282 3944
3282 4510
3282 4541
3282 4592
3282 4616
3282 4693
3282 4759
3282 4886
3283 4049
3283 4113
3283 4552
3283 4559
3283 4613
3283 4961
3283 4970
3284 3295
3284 3303
3284 3705
3284 3808
3284 3814
3284 4059
3284 4147
3284 4382
3285 3342
3285 3465
3285 4089
3285 4168
3285 4246
3285 4349
3285 4401
3285 4414
3285 4434
3285 4435
3285 4446
3285 4560
3286 3451
3286 4334
3286 4769
3286 4779
3286 4831
3287 3470
3287 3548
3287 3603
3287 3609
3287 3767
3287 3959
3287 3965
3287 4238
3287 4278
3287 4324
3287 4621
3287 4921
3287 4964
3288 3381
3288 3580
3288 3751
3288 4039
3288 4423
3288 4445
3288 4567
3288 4595
3289 3364
3289 3451
3289 4522
3289 4593
3289 4757
3289 4850
3290 3313
3290 3325
3290 3659
3290 3682
3290 3758
3290 3812
3290 4062
3290 4188
3290 4792
3290 4905
3291 3404
3291 3474
3291 3498
3291 3705
3291 4055
3291 4413
3291 4438
3291 4816
3292 3449
3292 3503
3292 3667
3292 3678
3292 4733
3292 4789
3293 4316
3293 4581
3293 4723
3293 4734
3293 4786
3293 4867
3294 3372
3294 3474
3294 3659
3294 3841
3294 3897
3294 3933
3294 3967
3294 3987
3294 4076
3294 4143
3294 4157
3294 4380
3294 4510
3294 4606
3294 4779
3295 3441
3295 3512
3295 3622
3295 4052
3295 4147
3296 3318
3296 3329
3296 3352
3296 3518
3296 3582
3296 3676
3296 3696
3296 3826
3296 4043
3296 4360
3296 4527
3297 3489
3297 3525
3297 3655
3297 4676
3297 4977
3298 3728
3298 4098
3298 4863
3298 4952
3299 3375
3299 3538
3299 3638
3299 3947
3299 4007
3299 4200
3299 4263
3299 4316
3299 4321
3299 4500
3299 4505
3299 4581
3299 4594
3299 4657
3299 4703
3299 4848
3300 3324
3300 3770
3300 3883
3300 3893
3300 3961
3300 3986
3301 3773
3301 4411
3301 4443
3301 4496
3301 4657
3302 3473
3302 4266
3302 4293
3302 4739
3303 3692
3303 3728
3303 3820
3303 4087
3303 4380
3304 3430
3304 3475
3304 3699
3304 3862
3304 3974
3304 4130
3304 4482
3304 4609
3304 4749
3304 4996
3305 3753
3305 3830
3305 4624
3305 4976
3306 3321
3306 3411
3306 3919
3306 4016
3306 4071
3306 4288
3306 4412
3306 4624
3306 4627
3306 4648
3307 3315
3307 3429
3307 3896
3307 3924
3307 4082
3307 4306
3307 4914
3307 4962
3308 3457
3308 3823
3308 3833
3308 4628
3308 4659
3308 4756
3309 3792
3309 3938
3309 3991
3309 4142
3309 4343
3309 4550
3309 4588
3310 3352
3310 3598
3310 4020
3310 4170
3310 4219
3310 4901
3310 4903
3311 3360
3311 4282
3311 4332
3311 4677
3311 4887
3312 3736
3312 3920
3312 3926
3312 4070
3312 4101
3312 4193
3312 4395
3312 4531
3312 4597
3312 4677
3312 4701
3312 4736
3312 4795
3312 4858
3312 4877
3312 4957
3313 3535
3313 3842
3313 4000
3313 4096
3313 4126
3313 4359
3313 4425
3313 4698
3314 3477
3314 4024
3314 4466
3314 4667
3315 3344
3315 4086
3315 4179
3315 4188
3315 4579
3315 4701
3315 4726
3315 4747
3315 4810
3316 3435
3316 3525
3316 3609
3316 3729
3316 3796
3316 3999
3316 4539
3317 3493
3317 3754
3317 4246
3317 4300
3318 3329
3318 4821
3318 4891
3319 3474
3319 3814
3319 3921
3319 3956
3319 4122
3319 4132
3320 3399
3320 3769
3320 3795
3320 3966
3320 4211
3321 3593
3321 3759
3321 4753
3322 3340
3322 3612
3322 4673
3322 4904
3322 4935
3323 3347
3323 3419
3323 3496
3323 3550
3323 3705
3323 3824
3323 4705
3323 4754
3323 4832
3323 4947
3324 3707
3324 3838
3324 4166
3324 4188
3324 4935
3325 3410
3325 3443
3325 3593
3325 3806
3325 3932
3325 4902
3325 4904
3325 4940
3326 3431
3326 4247
3326 4449
3326 4452
3326 4509
3326 4881
3326 4891
3327 3425
3327 3593
3327 3597
3327 3727
3327 3794
3327 3822
3327 4104
3327 4315
3327 4352
3327 4527
3327 4693
3327 4889
3328 3498
3328 3695
3328 4184
3328 4704
3329 3518
3329 3591
3329 4139
3329 4823
3329 4935
3330 3836
3330 4112
3330 4258
3330 4310
3330 4522
3330 4528
3330 4713
3331 3399
3331 3485
3331 4078
3331 4210
3331 4313
3331 4467
3331 4561
3331 4659
3332 3391
3332 3400
3332 3526
3332 3724
3332 3887
3332 3922
3332 4419
3332 4891
3333 3674
3333 3896
3333 4028
3334 3769
3334 3870
3334 4313
3334 4360
3334 4512
3334 4765
3334 4960
3335 3515
3335 3783
3335 3914
3335 3962
3335 4212
3335 4255
3335 4302
3335 4316
3335 4469
3335 4502
3335 4721
3335 4796
3336 3706
3336 4087
3336 4210
3336 4351
3337 3809
3337 4085
3337 4089
3337 4508
3337 4863
3337 4885
3338 3386
3338 3550
3338 3599
3338 4331
3338 4706
3338 4756
3338 4795
3339 3868
3339 3940
3339 4028
3339 4164
3339 4290
3339 4389
3339 4639
3339 4677
3339 4787
3340 3561
3340 4260
3340 4354
3340 4514
3340 4784
3341 3418
3341 4269
3341 4610
3341 4705
3341 4888
3341 4937
3342 3486
3342 3658
3342 4237
3342 4998
3343 3594
3343 3600
3343 3643
3343 3976
3343 4067
3343 4191
3343 4547
3343 4650
3344 4086
3344 4335
3344 4434
3344 4701
3344 4747
3345 3451
3345 3829
3345 4018
3345 4146
3345 4148
3345 4181
3345 4412
3345 4427
3345 4780
3346 3478
3346 4052
3346 4200
3346 4275
3346 4755
3346 4780
3347 3352
3347 3499
3347 3576
3347 3869
3347 3908
3347 3913
3347 3976
3347 3987
3347 3992
3347 4563
3348 3689
3348 3818
3348 4828
3348 4862
3348 4882
3349 3480
3349 3523
3349 3580
3349 3657
3349 3861
3349 4891
3349 4952
3350 3548
3350 3570
3350 3657
3350 3821
3350 4383
3350 4560
3351 3606
3351 3946
3351 4066
3351 4453
3351 4498
3351 4555
3351 4810
3352 3452
3352 3541
3352 3631
3352 3641
3352 3824
3352 3987
3352 3992
3352 4017
3352 4291
3352 4444
3352 4550
3352 4589
3352 4864
3353 3596
3353 3735
3353 4443
3353 4605
3353 4679
3353 4816
3353 4914
3353 4951
3354 3511
3354 3946
3354 3951
3354 4054
3354 4105
3354 4109
3354 4733
3355 3440
3355 3478
3355 3648
3355 4129
3355 4198
3355 4632
3355 4647
3355 4919
3355 4974
3356 3754
3356 4303
3356 4443
3356 4621
3356 4914
3356 4992
3357 3748
3357 3814
3357 4032
3357 4398
3357 4480
3358 3381
3358 3849
3358 3912
3358 3934
3358 3968
3358 4035
3358 4047
3358 4150
3358 4301
3358 4400
3358 4466
3358 4841
3359 3570
3359 4129
3359 4698
3360 3502
3360 3558
3360 3843
3360 4149
3360 4289
3360 4293
3360 4471
3360 4481
3360 4692
3360 4761
3361 3539
3361 3625
3361 4215
3361 4731
3361 4893
3361 4895
3362 3493
3362 3603
3362 3814
3362 3918
3362 4336
3362 4570
3363 3988
3363 4785
3363 4793
3364 3414
3364 3860
3364 4850
3364 4861
3365 3382
3365 3611
3365 3795
3365 3983
3365 4135
3365 4353
3365 4400
3365 4456
3365 4695
3366 3451
3366 4170
3366 4215
3366 4461
3366 4961
3367 3535
3367 4287
3367 4511
3367 4639
3367 4707
3368 3374
3368 3549
3368 3624
3368 3675
3368 3703
3368 4488
3368 4589
3368 4688
3369 3406
3369 3889
3369 4062
3369 4215
3369 4370
3369 4430
3369 4546
3370 3416
3370 3474
3370 3604
3370 3655
3370 3814
3370 3957
3370 4076
3370 4301
3370 4345
3370 4363
3370 4512
3370 4770
3370 4815
3371 3521
3371 3767
3371 3904
3371 3953
3371 3961
3371 3995
3371 4262
3371 4901
3371 4994
3372 3455
3372 3499
3372 3517
3372 3705
3372 3846
3372 3992
3372 4093
3372 4112
3372 4633
3372 4924
3373 3695
3373 3775
3373 3870
3373 3882
3373 4016
3373 4163
3373 4164
3373 4171
3373 4311
3373 4318
3373 4474
3374 3406
3374 3436
3374 3565
3374 3580
3374 3608
3374 3686
3374 3767
3374 3771
3374 3818
3374 3851
3374 4012
3374 4039
3374 4072
3374 4381
3374 4401
3374 4523
3374 4696
3374 4773
3375 3962
3375 3967
3375 4238
3375 4426
3375 4506
3375 4671
3376 3466
3376 4146
3376 4244
3376 4371
3376 4387
3376 4467
3376 4880
3376 4892
3377 3507
3377 3657
3377 3734
3377 4948
3378 3469
3378 3636
3378 3696
3378 3742
3378 3746
3378 3986
3378 4352
3378 4661
3378 4999
3379 3696
3379 4209
3379 4258
3379 4528
3379 4685
3380 3447
3380 3687
3380 3733
3380 3838
3380 4207
3380 4905
3380 4969
3381 3456
3381 3608
3381 3675
3381 3710
3381 3846
3381 4019
3381 4024
3381 4035
3381 4236
3381 4905
3382 3450
3382 3460
3382 3467
3382 3657
3382 3801
3382 3912
3382 3948
3382 3949
3382 3965
3382 4082
3382 4789
3383 3696
3383 3706
3383 3781
3383 3918
3383 4111
3383 4798
3383 4821
3383 4891
3383 4986
3384 3387
3384 3528
3384 3631
3384 3735
3384 4032
3384 4562
3385 3518
3385 4690
3385 4723
3386 3418
3386 3475
3386 3511
3386 3861
3386 3940
3386 4096
3386 4128
3386 4726
3386 4732
3386 4869
3387 3399
3387 3492
3387 3550
3387 3561
3387 3822
3387 4053
3387 4274
3387 4318
3387 4418
3387 4736
3387 4916
3388 3411
3388 3525
3388 4230
3388 4250
3388 4312
3388 4884
3389 3491
3389 3603
3389 4370
3389 4535
3390 3746
3390 3769
3390 4002
3390 4444
3390 4492
3390 4621
3390 4651
3390 4766
3390 4842
3391 3441
3391 3735
3391 4087
3391 4652
3391 4851
3391 4884
3392 3823
3392 3901
3392 4224
3392 4393
3392 4800
3392 4815
3392 4883
3392 4959
3393 3491
3393 3531
3393 3687
3393 3728
3393 3821
3393 3877
3393 4073
3393 4234
3393 4324
3393 4507
3394 3446
3394 3558
3394 3705
3394 4099
3394 4158
3394 4772
3394 4960
3395 3759
3395 3826
3395 4625
3396 3402
3396 3566
3396 3657
3396 4253
3396 4342
3396 4936
3397 3469
3397 3992
3397 4103
3397 4105
3397 4186
3397 4447
3397 4526
3397 4549
3397 4554
3397 4751
3397 4816
3398 3513
3398 3596
3398 4475
3398 4605
3398 4611
3398 4745
3398 4761
3398 4973
3399 3710
3399 3748
3399 3788
3399 3951
3399 4154
3399 4377
3399 4569
3399 4761
3400 4086
3400 4579
3400 4628
3400 4705
3400 4747
3400 4784
3400 4810
3401 3611
3401 3738
3401 3946
3401 4118
3401 4163
3401 4498
3401 4535
3402 3497
3402 3563
3402 3564
3402 3628
3402 4113
3402 4284
3402 4345
3402 4362
3402 4372
3402 4408
3402 4436
3402 4535
3402 4663
3402 4753
3402 4761
3402 4833
3402 4934
3402 4941
3403 3449
3403 3517
3403 3677
3403 3785
3403 3800
3403 4516
3404 4129
3404 4550
3404 4589
3404 4811
3404 4940
3405 3557
3405 3638
3405 4181
3405 4200
3405 4447
3406 3667
3406 3686
3406 3788
3406 3818
3406 3828
3406 3972
3406 4060
3406 4096
3406 4142
3406 4285
3406 4520
3406 4668
3407 4410
3407 4687
3408 3547
3408 3645
3408 3706
3408 3748
3408 3822
3408 4186
3408 4513
3409 4227
3409 4543
3409 4556
3409 4672
3409 4823
3410 3845
3410 3896
3410 4117
3410 4529
3410 4566
3410 4586
3411 3968
3411 4323
3411 4431
3411 4495
3411 4569
3411 4717
3411 4811
3412 3582
3412 4549
3412 4891
3412 4999
3413 3455
3413 3937
3413 3954
3413 4106
3413 4290
3414 3471
3414 3611
3414 3694
3414 3946
3414 4174
3414 4473
3414 4612
3414 4719
3414 4860
3415 3504
3415 3736
3415 4137
3415 4364
3415 4472
3415 4597
3415 4600
3415 4645
3415 4862
3415 4904
3416 3526
3416 3603
3416 3748
3416 3817
3416 3880
3416 3913
3416 4112
3416 4143
3416 4633
3417 3604
3417 3774
3417 4525
3417 4554
3417 4700
3418 3644
3418 3943
3418 4397
3418 4444
3418 4594
3418 4651
3418 4776
3419 3946
3419 4201
3419 4690
3419 4748
3419 4815
3420 3659
3420 3842
3420 4001
3420 4112
3420 4229
3421 3746
3421 3848
3421 4066
3421 4298
3421 4632
3422 3538
3422 3659
3422 4024
3423 3445
3423 3833
3423 3978
3423 4165
3423 4433
3423 4435
3423 4440
3423 4505
3423 4693
3423 4828
3423 4900
3423 4937
3423 4996
3424 3588
3424 3666
3424 3896
3424 4020
3424 4186
3424 4252
3424 4418
3424 4939
3425 3473
3425 3504
3425 3917
3425 4197
3425 4442
3425 4506
3425 4629
3425 4718
3425 4968
3426 4195
3426 4278
3426 4506
3426 4679
3426 4714
3426 4718
3426 4853
3426 4928
3427 3596
3427 3721
3427 3948
3427 4076
3427 4622
3427 4714
3427 4762
3427 4779
3427 4794
3427 4805
3427 4944
3428 3629
3428 3663
3428 3699
3428 3853
3428 3915
3428 4226
3428 4332
3428 4543
3429 3879
3429 4679
3429 4727
3429 4816
3429 4988
3430 3435
3430 3922
3430 4275
3430 4611
3430 4622
3430 4789
3431 3833
3431 3958
3431 4340
3431 4342
3431 4375
3431 4444
3431 4452
3431 4509
3431 4637
3431 4701
3431 4743
3431 4777
3431 4881
3432 3481
3432 3728
3432 3949
3432 3971
3432 4192
3432 4200
3432 4321
3432 4324
3432 4502
3432 4520
3432 4824
3432 4934
3433 3435
3433 4591
3433 4874
3433 4966
3433 4977
3433 4997
3434 3493
3434 4141
3434 4340
3434 4355
3434 4654
3434 4708
3435 3662
3435 3735
3435 4083
3435 4586
3435 4594
3435 4621
3436 3524
3436 3642
3436 3892
3436 3934
3436 4020
3436 4060
3436 4077
3436 4229
3436 4488
3437 3972
3437 4400
3437 4775
3438 4413
3438 4666
3438 4723
3439 3473
3439 3601
3439 3910
3439 4641
3439 4803
3439 4908
3440 3522
3440 3559
3440 3657
3440 4407
3440 4756
3441 3483
3441 3744
3441 3891
3441 4021
3441 4136
3441 4297
3441 4298
3441 4542
3441 4546
3441 4582
3441 4675
3441 4814
3441 4855
3441 4863
3442 3505
3442 3610
3442 3633
3442 3861
3442 3986
3442 4315
3443 3616
3443 3705
3443 4084
3443 4315
3443 4344
3443 4568
3443 4804
3443 4822
3443 4861
3444 3453
3444 3771
3444 4113
3445 3980
3445 4137
3445 4150
3446 3646
3446 3705
3446 3897
3446 4190
3446 4406
3446 4407
3446 4757
3446 4888
3446 4994
3447 3639
3447 3687
3447 4236
3447 4578
3448 4021
3448 4345
3448 4792
3449 3707
3449 3766
3449 3771
3449 3789
3449 3993
3449 4060
3449 4144
3449 4192
3449 4236
3449 4284
3449 4309
3449 4323
3449 4876
3449 4905
3450 3759
3450 4103
3450 4192
3450 4222
3450 4338
3450 4427
3450 4541
3451 3486
3451 3505
3451 3601
3451 3647
3451 3652
3451 3664
3451 3915
3451 4194
3451 4282
3451 4831
3451 4917
3452 3782
3452 4064
3452 4315
3452 4543
3453 3467
3453 3705
3453 3883
3453 3897
3453 4423
3453 4672
3453 4906
3454 4182
3454 4317
3454 4401
3454 4553
3454 4621
3454 4766
3454 4840
3455 3833
3455 4358
3456 3546
3456 3556
3456 3990
3456 4617
3456 4742
3456 4820
3457 3963
3457 4455
3457 4640
3457 4756
3457 4767
3458 3730
3458 3771
3458 3788
3458 3906
3458 3927
3458 3939
3458 3941
3458 4019
3458 4126
3458 4305
3458 4332
3458 4361
3458 4587
3458 4905
3458 4946
3459 3918
3459 3992
3459 4060
3459 4361
3459 4398
3460 4763
3460 4997
3461 3505
3461 3507
3461 3563
3461 4537
3461 4610
3461 4659
3461 4937
3461 4961
3462 3599
3462 3809
3462 3964
3462 3976
3462 4218
3462 4571
3462 4729
3462 4885
3463 3475
3463 3548
3463 3560
3463 3603
3463 3633
3463 4141
3463 4640
3463 4686
3464 3551
3464 4290
3464 4728
3465 3601
3465 3666
3465 3973
3465 4089
3465 4095
3465 4203
3465 4349
3465 4559
3465 4613
3465 4620
3465 4636
3465 4820
3465 4894
3465 4933
3465 4970
3465 4981
3466 4011
3466 4146
3466 4379
3466 4667
3466 4874
3467 3644
3467 3899
3467 4075
3467 4444
3467 4609
3467 4746
3467 4767
3467 4983
3468 4183
3468 4267
3468 4306
3468 4328
3468 4447
3468 4624
3468 4827
3468 4978
3469 3505
3469 3762
3469 4332
3469 4437
3469 4606
3470 4225
3470 4295
3470 4661
3470 4686
3470 4963
3471 3941
3471 4433
3471 4444
3471 4622
3471 4631
3471 4805
3471 4841
3471 4851
3471 4976
3472 3494
3472 3510
3472 3526
3472 3571
3472 3754
3472 3864
3472 4084
3472 4324
3472 4410
3472 4561
3472 4604
3472 4871
3472 4880
3472 4889
3472 4902
3472 4904
3472 4906
3472 4935
3472 4986
3473 4729
3473 4752
3473 4947
3474 3475
3474 3496
3474 3527
3474 3705
3474 3862
3474 3883
3474 4059
3474 4075
3474 4147
3474 4157
3474 4309
3474 4363
3474 4413
3474 4432
3474 4522
3474 4569
3474 4737
3474 4921
3475 3497
3475 3530
3475 3568
3475 3595
3475 3613
3475 3681
3475 3769
3475 3812
3475 3967
3475 3981
3475 3997
3475 4157
3475 4289
3475 4349
3475 4363
3475 4381
3475 4382
3475 4394
3475 4441
3475 4474
3475 4536
3475 4575
3475 4621
3475 4654
3475 4947
3476 3642
3476 3805
3476 3860
3476 3884
3476 3995
3476 4369
3476 4492
3476 4847
3477 3696
3477 3822
3477 4821
3477 4891
3477 4935
3478 4370
3478 4632
3479 3769
3479 3794
3479 3989
3479 4288
3479 4450
3479 4716
3479 4804
3479 4809
3479 4816
3479 4902
3480 4620
3480 4757
3480 4779
3480 4967
3481 3748
3481 3819
3481 4181
3481 4210
3481 4602
3481 4869
3482 3525
3482 3645
3482 3729
3482 4164
3483 3541
3483 3627
3483 3833
3483 4683
3484 3610
3484 4041
3485 3541
3485 3559
3485 4602
3485 4640
3485 4980
3486 3705
3486 3898
3486 3995
3486 4185
3486 4952
3487 3911
3487 4381
3487 4635
3488 3503
3488 3690
3488 3694
3488 3713
3488 4809
3488 4942
3489 3721
3489 3735
3489 3754
3489 3968
3489 4789
3489 4947
3490 3675
3490 4196
3490 4400
3490 4905
3491 3542
3491 3603
3491 3606
3491 3744
3491 3803
3491 3998
3491 4275
3491 4456
3492 3789
3492 3968
3492 4020
3492 4589
3492 4595
3493 3533
3493 3604
3493 3735
3493 3949
3493 4005
3493 4128
3493 4461
3493 4474
3493 4519
3493 4594
3493 4622
3493 4628
3493 4672
3493 4745
3493 4950
3494 4052
3494 4181
3494 4283
3494 4370
3494 4417
3494 4607
3495 3521
3495 3713
3495 3731
3495 3893
3495 4012
3495 4098
3495 4147
3495 4220
3495 4290
3495 4324
3495 4407
3495 4564
3495 4565
3495 4603
3496 3548
3496 3595
3496 4112
3496 4223
3496 4361
3496 4834
3496 4863
3497 3814
3497 3988
3497 4891
3498 3499
3498 3595
3498 3621
3498 3697
3498 3735
3498 3848
3498 3913
3498 4358
3498 4947
3499 3520
3499 4029
3499 4147
3499 4596
3499 4921
3500 4320
3500 4323
3500 4756
3501 3569
3501 4232
3501 4306
3501 4319
3501 4412
3501 4755
3502 3514
3502 4258
3502 4528
3502 4752
3502 4924
3503 3580
3503 3789
3503 3908
3503 3969
3503 4239
3503 4752
3504 3720
3504 3736
3504 4116
3504 4225
3504 4645
3504 4666
3504 4677
3504 4829
3505 3661
3505 3737
3505 4029
3505 4085
3505 4290
3505 4298
3505 4409
3506 3548
3506 3556
3506 3965
3506 4000
3506 4686
3507 3615
3507 3872
3507 4147
3507 4240
3507 4431
3507 4474
3507 4705
3507 4768
3507 4873
3508 3603
3508 4320
3508 4454
3509 3895
3509 3912
3509 4141
3509 4500
3509 4543
3510 4398
3510 4625
3510 4649
3510 4891
3511 3606
3511 3736
3511 3775
3511 4318
3511 4640
3512 3604
3512 3812
3512 3907
3512 4007
3512 4145
3512 4633
3512 4868
3513 3735
3513 4476
3513 4533
3513 4859
3514 3561
3514 4141
3514 4666
3514 4783
3515 3540
3515 3593
3515 4845
3515 4849
3516 4746
3516 4870
3516 4976
3517 4186
3518 3579
3518 3593
3518 3637
3518 3757
3518 4986
3519 3607
3519 3740
3519 3789
3519 3937
3519 4225
3519 4229
3519 4477
3519 4591
3519 4820
3520 3705
3520 3823
3520 4136
3520 4257
3520 4513
3520 4546
3521 3603
3521 4013
3521 4157
3521 4324
3521 4493
3521 4862
3522 3636
3522 3657
3522 3914
3522 4113
3522 4136
3522 4751
3522 4757
3522 4763
3522 4976
3522 4977
3523 3542
3523 3934
3523 4062
3523 4146
3523 4371
3523 4707
3523 4864
3523 4892
3523 4961
3524 3611
3524 4648
3525 3581
3525 3609
3525 3626
3525 3950
3525 4114
3525 4160
3525 4249
3525 4288
3525 4320
3525 4334
3525 4462
3525 4570
3525 4669
3525 4739
3525 4767
3526 3645
3526 3954
3526 4380
3526 4479
3527 3558
3527 3661
3527 4118
3527 4279
3527 4358
3527 4406
3527 4960
3528 3723
3528 3777
3528 3895
3528 4447
3528 4481
3528 4484
3528 4661
3528 4740
3528 4828
3529 3897
3529 4069
3529 4595
3530 3600
3530 3897
3530 4007
3530 4358
3530 4382
3530 4456
3530 4511
3530 4681
3531 3572
3531 3721
3531 3776
3531 3784
3531 3824
3531 4301
3531 4718
3532 3656
3532 3924
3532 4190
3532 4273
3532 4662
3532 4704
3532 4879
3532 4887
3532 4933
3533 3561
3533 3567
3533 3587
3533 3597
3533 3600
3533 3609
3533 4091
3533 4108
3533 4151
3533 4191
3533 4292
3533 4336
3533 4349
3533 4413
3533 4416
3533 4448
3533 4543
3533 4555
3533 4619
3533 4710
3533 4738
3533 4912
3534 3560
3534 3574
3534 3603
3534 3801
3534 3842
3534 3936
3534 4096
3534 4565
3534 4618
3534 4963
3535 3596
3535 3633
3535 4641
3536 4280
3536 4354
3536 4914
3537 3721
3537 4081
3537 4405
3537 4772
3538 3694
3538 4373
3539 3774
3539 4628
3539 4677
3539 4824
3540 3964
3540 4171
3540 4218
3540 4246
3540 4874
3541 3625
3541 3638
3541 3726
3541 3957
3541 4042
3541 4472
3541 4781
3541 4839
3541 4855
3542 4162
3543 4190
3543 4194
3543 4300
3543 4585
3543 4639
3543 4771
3544 4274
3544 4372
3544 4774
3545 3756
3545 3904
3545 4584
3545 4655
3545 4658
3545 4950
3546 4444
3547 3629
3547 3738
3547 3922
3547 4084
3547 4527
3547 4617
3547 4717
3547 4889
3547 4902
3547 4986
3548 3551
3548 3552
3548 3569
3548 3609
3548 3611
3548 3686
3548 3705
3548 3731
3548 3764
3548 3936
3548 3965
3548 4039
3548 4060
3548 4245
3548 4324
3548 4462
3548 4563
3548 4669
3548 4821
3549 3582
3549 3606
3549 4226
3549 4253
3549 4676
3549 4687
3549 4727
3550 3619
3550 3762
3550 3763
3550 3803
3550 3832
3550 4060
3550 4089
3550 4091
3550 4146
3550 4174
3550 4241
3550 4281
3550 4390
3550 4409
3550 4449
3550 4626
3550 4747
3550 4873
3550 4931
3550 4998
3551 3606
3551 3633
3551 3690
3551 3785
3551 3893
3551 3966
3551 4079
3551 4245
3551 4385
3551 4419
3551 4610
3551 4801
3552 4320
3552 4382
3552 4494
3552 4523
3552 4565
3552 4752
3553 4203
3553 4412
3553 4468
3553 4488
3554 4621
3554 4667
3554 4735
3554 4756
3554 4789
3554 4946
3555 3566
3555 4171
3555 4594
3555 4640
3555 4805
3556 3569
3556 4013
3556 4106
3556 4166
3556 4425
3556 4463
3556 4869
3557 3749
3557 3912
3557 4092
3557 4202
3557 4258
3557 4282
3557 4703
3557 4723
3558 3714
3558 4112
3558 4664
3559 3571
3559 3707
3559 3718
3559 3828
3559 3878
3559 3901
3559 3986
3559 4139
3559 4364
3559 4668
3559 4847
3559 4980
3560 3707
3560 3936
3560 3996
3560 4220
3560 4257
3560 4997
3561 4053
3561 4253
3561 4498
3561 4515
3561 4561
3562 3831
3562 4101
3562 4164
3562 4589
3562 4677
3562 4849
3562 4860
3563 3872
3563 4084
3563 4431
3563 4725
3563 4888
3563 4937
3564 3821
3564 3951
3564 4395
3564 4475
3564 4484
3564 4606
3565 4361
3565 4505
3565 4527
3565 4528
3566 3634
3566 3940
3566 3951
3566 4018
3566 4053
3566 4101
3566 4113
3566 4213
3566 4291
3566 4365
3566 4460
3566 4556
3566 4667
3566 4712
3566 4744
3566 4774
3566 4875
3566 4957
3566 4989
3567 3643
3567 4122
3567 4908
3568 3739
3568 3965
3568 4006
3568 4020
3568 4196
3568 4945
3569 4038
3569 4052
3569 4107
3569 4256
3569 4325
3569 4370
3569 4412
3569 4427
3569 4431
3569 4486
3569 4524
3569 4528
3569 4646
3569 4658
3569 4712
3569 4727
3569 4823
3569 4870
3570 3789
3570 3829
3570 3900
3570 3906
3570 4192
3570 4309
3571 3822
3571 3922
3571 4039
3571 4043
3571 4084
3571 4904
3572 3817
3572 3896
3572 4034
3572 4053
3572 4369
3572 4371
3572 4804
3573 4510
3573 4882
3574 4259
3575 4078
3575 4322
3575 4503
3575 4561
3575 4738
3575 4745
3575 4785
3575 4945
3576 3631
3576 3812
3576 3897
3576 4158
3576 4301
3576 4363
3576 4373
3576 4542
3576 4628
3576 4776
3577 3676
3577 4004
3577 4891
3578 4290
3579 3626
3579 3656
3579 3660
3579 3741
3579 3746
3579 3886
3579 3954
3579 4249
3579 4320
3579 4360
3579 4373
3579 4395
3579 4454
3579 4837
3580 4393
3580 4610
3580 4837
3580 4937
3581 3603
3581 3744
3581 3788
3581 3800
3581 3965
3581 4225
3581 4290
3581 4493
3581 4610
3582 3594
3582 3676
3582 3773
3582 4038
3582 4645
3583 3717
3583 4174
3583 4532
3583 4801
3583 4920
3584 3794
3584 4631
3584 4935
3584 4970
3585 3593
3585 3639
3585 3727
3585 3786
3585 4196
3585 4260
3585 4301
3585 4814
3585 4904
3586 3868
3586 3890
3586 4168
3586 4347
3586 4379
3586 4765
3586 4864
3587 4098
3587 4122
3587 4348
3587 4912
3587 4943
3588 3764
3588 4256
3588 4721
3588 4854
3588 4862
3589 3685
3589 3899
3589 4195
3589 4268
3589 4381
3589 4405
3589 4424
3589 4497
3589 4635
3589 4663
3589 4942
3589 4949
3589 4990
3590 4275
3590 4394
3590 4608
3590 4684
3590 4727
3590 4898
3591 3706
3591 3707
3591 4005
3591 4139
3591 4927
3592 3769
3592 3907
3592 3987
3592 4572
3592 4605
3592 4668
3592 4700
3593 3957
3593 4084
3593 4110
3593 4133
3593 4910
3593 4962
3594 3663
3594 3676
3594 3727
3594 3956
3594 4001
3594 4066
3594 4098
3594 4125
3594 4151
3594 4175
3594 4315
3594 4411
3594 4889
3594 4923
3595 3681
3595 3697
3595 3749
3595 3776
3595 3907
3595 4076
3595 4093
3595 4282
3595 4305
3595 4330
3595 4441
3595 4947
3596 3739
3596 3854
3596 3887
3596 3983
3596 4000
3596 4309
3596 4444
3596 4522
3596 4533
3596 4586
3596 4652
3596 4729
3596 4779
3596 4816
3596 4859
3596 4874
3596 4935
3596 4996
3597 3922
3597 4817
3597 4930
3597 4986
3598 3800
3598 3810
3598 4582
3598 4672
3598 4988
3599 3665
3599 3712
3599 3902
3599 4465
3600 3618
3600 3635
3600 4118
3600 4619
3600 4738
3600 4750
3601 3911
3601 4005
3601 4654
3602 3638
3602 3670
3602 3696
3602 4200
3602 4321
3602 4808
3603 3663
3603 3673
3603 3674
3603 3743
3603 3785
3603 3803
3603 3848
3603 3893
3603 4000
3603 4017
3603 4096
3603 4249
3603 4269
3603 4294
3603 4301
3603 4385
3603 4451
3603 4462
3603 4464
3603 4466
3603 4525
3603 4714
3603 4745
3603 4791
3604 3789
3604 3867
3604 4364
3604 4403
3605 4150
3606 3721
3606 3946
3606 4057
3606 4193
3606 4277
3606 4415
3606 4538
3606 4928
3607 4444
3607 4914
3608 3747
3608 3771
3608 3818
3608 3906
3608 3972
3608 4005
3608 4012
3608 4019
3608 4034
3608 4060
3608 4073
3608 4144
3608 4151
3608 4575
3608 4675
3608 4688
3608 4977
3609 3633
3609 3744
3609 3842
3609 3931
3609 4756
3609 4963
3610 4084
3610 4661
3610 4902
3610 4935
3610 4937
3610 4999
3611 3694
3611 3713
3611 4251
3611 4253
3611 4255
3611 4665
3611 4809
3611 4887
3611 4943
3612 3766
3612 3944
3612 4616
3612 4713
3612 4759
3612 4950
3613 4190
3613 4301
3613 4483
3613 4633
3614 4121
3614 4127
3614 4253
3614 4844
3615 3770
3615 3772
3615 3822
3615 3826
3615 3933
3615 4084
3615 4203
3615 4233
3615 4393
3615 4566
3615 4716
3615 4912
3616 4020
3616 4153
3616 4236
3616 4488
3616 4589
3617 4087
3617 4626
3617 4757
3617 4786
3617 4952
3618 3746
3618 3918
3618 3938
3618 4542
3618 4609
3618 4916
3618 4969
3619 3763
3619 3963
3619 4281
3619 4621
3619 4628
3620 3776
3620 3914
3620 3947
3620 4074
3620 4304
3620 4529
3620 4638
3620 4680
3621 3654
3621 3727
3621 3812
3621 3987
3621 4588
3621 4916
3622 3653
3622 3682
3622 3740
3622 4738
3623 3625
3623 3657
3623 3679
3623 3725
3623 4021
3623 4258
3623 4748
3623 4769
3623 4848
3624 4035
3624 4072
3624 4104
3625 3652
3625 3746
3625 3982
3625 4644
3626 4013
3626 4225
3626 4503
3626 4655
3626 4686
3626 4838
3627 4338
3627 4395
3627 4863
3628 4108
3628 4484
3628 4537
3628 4775
3629 3822
3629 4084
3629 4783
3629 4867
3630 3645
3630 3844
3630 4081
3630 4144
3630 4304
3631 3959
3631 4330
3631 4633
3631 4692
3631 4921
3632 4035
3632 4183
3632 4193
3632 4252
3632 4733
3632 4806
3632 4937
3633 3673
3633 3842
3633 4017
3633 4027
3633 4037
3633 4425
3633 4523
3633 4525
3633 4539
3633 4608
3634 4253
3634 4419
3634 4590
3635 4444
3635 4808
3636 4139
3636 4344
3636 4893
3636 4925
3636 4927
3637 4043
3637 4230
3637 4566
3637 4927
3638 3740
3638 3742
3638 4058
3638 4135
3638 4490
3638 4500
3638 4505
3638 4507
3638 4723
3639 3838
3639 4084
3639 4376
3639 4383
3640 3642
3640 3693
3640 4136
3640 4829
3641 3740
3641 3861
3641 3894
3641 3956
3641 3981
3641 4076
3641 4265
3641 4330
3641 4394
3641 4695
3641 4781
3641 4799
3641 4955
3641 4970
3642 4206
3642 4876
3643 3675
3643 3902
3643 4058
3643 4151
3643 4169
3643 4349
3643 4416
3643 4482
3643 4645
3643 4959
3644 3718
3644 4025
3644 4248
3644 4320
3644 4392
3644 4907
3644 4914
3645 3706
3645 3887
3645 4084
3645 4287
3645 4452
3645 4499
3645 4746
3645 4817
3646 4778
3647 3657
3647 3681
3647 3830
3647 4103
3647 4757
3647 4778
3647 4937
3647 4940
3647 4974
3648 4632
3648 4744
3648 4974
3649 3965
3650 3756
3650 3982
3650 4268
3650 4282
3650 4298
3650 4472
3650 4742
3651 3681
3651 4053
3651 4124
3651 4273
3651 4274
3651 4552
3651 4734
3651 4859
3651 4921
3651 4966
3652 3831
3653 3907
3653 3918
3653 4500
3653 4516
3654 4103
3654 4112
3654 4178
3654 4705
3654 4896
3654 4937
3654 4975
3655 3751
3655 3771
3655 3933
3655 4679
3655 4904
3656 3958
3656 4193
3656 4373
3656 4635
3657 3713
3657 3715
3657 3846
3657 3849
3657 3891
3657 3933
3657 4062
3657 4083
3657 4222
3657 4282
3657 4309
3657 4345
3657 4410
3657 4464
3657 4778
3657 4848
3657 4894
3657 4969
3657 4972
3657 4977
3658 4737
3658 4761
3659 3679
3659 3769
3659 3812
3659 3956
3659 4103
3659 4415
3659 4483
3659 4737
3659 4770
3659 4780
3660 4227
3660 4603
3661 4353
3661 4493
3661 4556
3661 4589
3662 3682
3662 4621
3662 4996
3663 3770
3663 4043
3663 4497
3663 4891
3663 4900
3664 3712
3664 4094
3664 4244
3664 4248
3664 4452
3664 4594
3664 4611
3664 4622
3665 4624
3665 4642
3665 4646
3665 4666
3665 4838
3665 4849
3666 4111
3666 4182
3666 4550
3666 4845
3667 4589
3667 4769
3668 3856
3668 3859
3668 4178
3668 4400
3668 4722
3668 4885
3668 4941
3669 3866
3669 4024
3669 4417
3669 4594
3669 4745
3669 4851
3669 4914
3670 4028
3670 4068
3670 4198
3670 4254
3670 4500
3671 4115
3671 4145
3671 4502
3671 4536
3672 4258
3672 4492
3672 4685
3672 4932
3673 4320
3674 4001
3674 4060
3674 4125
3674 4361
3675 3686
3675 3906
3675 4017
3675 4072
3675 4081
3675 4393
3675 4832
3675 4876
3675 4904
3676 3699
3676 3727
3676 3822
3676 4057
3676 4354
3676 4593
3676 4665
3676 4669
3676 4834
3676 4891
3676 4935
3677 4058
3677 4159
3677 4665
3677 4715
3677 4909
3678 3771
3678 3779
3678 4060
3678 4529
3678 4905
3679 4342
3679 4678
3679 4869
3680 3785
3680 3848
3680 4000
3680 4140
3680 4683
3681 3705
3681 4145
3681 4198
3681 4282
3681 4394
3681 4977
3682 4232
3682 4317
3682 4447
3682 4640
3683 4036
3683 4141
3683 4353
3683 4400
3683 4684
3684 4012
3684 4139
3684 4511
3684 4527
3685 3717
3685 3743
3685 3886
3685 3947
3685 4248
3685 4525
3685 4536
3685 4994
3686 4006
3686 4416
3686 4584
3687 3838
3687 4121
3687 4920
3687 4940
3688 3910
3688 4279
3688 4495
3688 4797
3688 4906
3688 4908
3689 4024
3689 4116
3689 4466
3689 4868
3689 4902
3690 3787
3690 3884
3690 4572
3690 4711
3690 4776
3691 3702
3691 4015
3691 4129
3691 4757
3692 4158
3692 4236
3692 4545
3692 4780
3692 4850
3693 3952
3693 4483
3693 4611
3693 4805
3693 4874
3694 3713
3694 3842
3694 4100
3694 4255
3694 4271
3694 4388
3694 4561
3694 4660
3694 4942
3695 3738
3695 3946
3695 4146
3695 4561
3695 4677
3695 4733
3695 4782
3695 4836
3695 4916
3696 3786
3696 3879
3696 4175
3696 4220
3696 4385
3696 4474
3696 4660
3696 4821
3697 3705
3697 4147
3697 4243
3697 4633
3697 4845
3698 3818
3698 3837
3698 3946
3698 4036
3698 4081
3698 4192
3698 4206
3698 4299
3698 4981
3699 4816
3700 3745
3700 3834
3700 3968
3700 4003
3700 4081
3700 4239
3700 4488
3700 4921
3701 3964
3701 4286
3701 4299
3701 4343
3701 4547
3701 4885
3702 3844
3702 4469
3702 4589
3702 4677
3702 4895
3703 3719
3703 3786
3703 3976
3703 4095
3703 4729
3703 4970
3704 4148
3704 4353
3704 4460
3704 4954
3705 3768
3705 3839
3705 3951
3705 3976
3705 4007
3705 4026
3705 4052
3705 4076
3705 4102
3705 4109
3705 4166
3705 4195
3705 4270
3705 4301
3705 4330
3705 4363
3705 4373
3705 4393
3705 4441
3705 4608
3705 4633
3705 4681
3705 4823
3706 3807
3706 3829
3706 3922
3706 4139
3706 4172
3706 4700
3706 4769
3706 4786
3706 4902
3706 4935
3707 3794
3707 3843
3707 3901
3707 3922
3707 4362
3708 3986
3708 4650
3709 3986
3709 4001
3709 4493
3709 4624
3709 4646
3709 4666
3710 3945
3710 4380
3710 4394
3710 4506
3710 4792
3710 4848
3711 3800
3711 4248
3711 4899
3712 3849
3712 3992
3712 4456
3712 4624
3712 4666
3712 4818
3712 4927
3712 4985
3713 4255
3713 4551
3713 4830
3714 3813
3714 3992
3714 4145
3714 4249
3714 4301
3714 4613
3715 3733
3715 3801
3715 4012
3715 4184
3715 4266
3715 4686
3715 4779
3716 3854
3716 3939
3716 4035
3716 4588
3716 4595
3716 4638
3716 4828
3717 3922
3717 4169
3717 4467
3718 3771
3718 3990
3718 4620
3719 3767
3719 3938
3719 4217
3719 4594
3719 4706
3720 3759
3720 3891
3720 3911
3720 3919
3720 4518
3720 4673
3721 3805
3721 4043
3721 4130
3721 4155
3721 4383
3721 4594
3721 4622
3721 4648
3721 4679
3721 4741
3721 4745
3721 4997
3722 3922
3722 4060
3722 4066
3722 4169
3722 4361
3722 4548
3722 4575
3723 3969
3723 4022
3723 4447
3723 4526
3723 4661
3724 3922
3724 4043
3724 4156
3724 4290
3724 4481
3724 4482
3724 4625
3724 4804
3725 4276
3725 4950
3726 4400
3726 4769
3726 4792
3727 3922
3727 4256
3727 4316
3727 4332
3727 4340
3727 4360
3727 4420
3727 4527
3727 4902
3727 4908
3728 3962
3728 4382
3729 4324
3729 4374
3729 4395
3730 4003
3730 4054
3730 4060
3730 4323
3730 4368
3731 4013
3731 4613
3732 3796
3732 4180
3732 4339
3732 4360
3732 4444
3732 4591
3732 4808
3732 4858
3732 4907
3733 3785
3733 3948
3733 4063
3733 4257
3733 4259
3733 4429
3734 3802
3734 4333
3735 3798
3735 3830
3735 3920
3735 3971
3735 4088
3735 4324
3735 4423
3735 4475
3735 4533
3735 4597
3735 4621
3735 4728
3735 4746
3735 4763
3735 4789
3735 4833
3735 4847
3735 4851
3735 4874
3735 4877
3735 4907
3735 4914
3736 3799
3736 4171
3736 4313
3736 4377
3736 4436
3736 4542
3736 4640
3736 4705
3736 4736
3737 4621
3737 4997
3738 3742
3738 4037
3738 4223
3738 4783
3738 4902
3738 4986
3739 4281
3739 4347
3739 4435
3740 3768
3740 4013
3740 4187
3740 4234
3740 4290
3740 4669
3740 4965
3741 3840
3741 4195
3741 4337
3741 4641
3741 4970
3742 3806
3742 4043
3742 4091
3742 4111
3742 4139
3742 4225
3742 4442
3742 4622
3742 4785
3742 4902
3742 4904
3742 4927
3743 3821
3743 4963
3744 4000
3744 4017
3744 4159
3744 4162
3744 4693
3745 4545
3745 4905
3746 3980
3746 4231
3746 4513
3746 4681
3746 4857
3747 3854
3747 4000
3747 4361
3747 4740
3748 4057
3748 4193
3748 4453
3748 4574
3748 4677
3748 4748
3748 4824
3748 4833
3749 4291
3750 4068
3750 4989
3751 3752
3751 3934
3751 4299
3751 4554
3751 4653
3751 4693
3751 4939
3752 3769
3752 3848
3752 4224
3752 4269
3752 4290
3752 4518
3753 4311
3754 3800
3754 3953
3754 4191
3754 4444
3754 4611
3754 4651
3754 4672
3754 4829
3755 4013
3755 4525
3756 4072
3756 4161
3756 4664
3756 4769
3756 4904
3757 3765
3757 4120
3757 4122
3757 4131
3757 4218
3757 4404
3757 4557
3757 4632
3757 4647
3757 4658
3757 4784
3757 4919
3757 4974
3758 3808
3758 4299
3758 4514
3759 3797
3759 4381
3759 4404
3759 4495
3759 4991
3760 3996
3760 4274
3760 4752
3761 4049
3762 4091
3762 4241
3762 4566
3762 4668
3762 4693
3762 4819
3763 3820
3763 4241
3763 4632
3763 4681
3763 4931
3764 3769
3764 4146
3764 4502
3764 4531
3764 4581
3764 4595
3765 3953
3765 4384
3765 4583
3765 4643
3765 4779
3765 4894
3765 4909
3765 4920
3766 3895
3766 4167
3766 4496
3766 4503
3767 3786
3767 3882
3767 3904
3767 3954
3767 3991
3767 4064
3767 4094
3767 4337
3767 4680
3768 4166
3768 4657
3768 4855
3769 3918
3769 3932
3769 4092
3769 4220
3769 4269
3769 4963
3769 4965
3769 4994
3770 3842
3770 3986
3770 4033
3770 4043
3770 4440
3770 4661
3770 4664
3770 4935
3771 3818
3771 3837
3771 3904
3771 3934
3771 4060
3771 4196
3771 4315
3771 4391
3771 4488
3771 4492
3771 4503
3771 4691
3772 4460
3773 4095
3773 4234
3773 4360
3773 4400
3773 4487
3774 4171
3774 4372
3774 4535
3775 3797
3775 3951
3775 4043
3775 4332
3775 4381
3775 4420
3775 4497
3775 4673
3776 3913
3776 4007
3776 4076
3776 4536
3776 4633
3776 4640
3776 4943
3777 3834
3777 4073
3777 4078
3777 4703
3778 3897
3778 3937
3778 3956
3778 4229
3778 4369
3778 4913
3778 4980
3779 3822
3779 4031
3779 4161
3779 4653
3780 4159
3780 4470
3780 4769
3780 4838
3781 3786
3781 3878
3781 3896
3781 3968
3781 4010
3781 4678
3781 4791
3781 4997
3782 3796
3782 3814
3782 4109
3782 4370
3782 4501
3782 4824
3783 3888
3783 4181
3784 4015
3784 4847
3784 4867
3785 3821
3785 4063
3785 4313
3785 4431
3785 4435
3785 4563
3785 4565
3785 4570
3786 3829
3786 3966
3786 4834
3787 3809
3787 4042
3787 4045
3787 4246
3787 4864
3788 4077
3788 4164
3789 3934
3789 3939
3789 4463
3789 4595
3789 4688
3789 4867
3790 3840
3790 4021
3790 4027
3790 4276
3790 4730
3790 4782
3790 4821
3790 4825
3791 3856
3791 4253
3791 4492
3791 4660
3791 4727
3792 4335
3792 4687
3792 4693
3792 4745
3792 4776
3792 4793
3792 4943
3793 3816
3793 3887
3793 4199
3793 4472
3794 4084
3794 4164
3794 4332
3794 4362
3794 4804
3794 4979
3795 3968
3795 4324
3795 4935
3795 4983
3796 3853
3796 3978
3797 4328
3797 4635
3798 4250
3798 4351
3798 4621
3798 4766
3799 3887
3799 4086
3799 4509
3799 4791
3799 4902
3800 3869
3800 3968
3800 4036
3801 3803
3801 3896
3801 4013
3802 4215
3803 4063
3803 4106
3803 4220
3803 4302
3803 4916
3803 4921
3804 4195
3804 4362
3804 4557
3804 4773
3804 4804
3804 4866
3804 4999
3805 4002
3805 4651
3805 4727
3805 4914
3806 3822
3806 4043
3806 4047
3806 4164
3806 4260
3806 4736
3806 4786
3806 4891
3806 4935
3807 3904
3807 4044
3807 4097
3807 4186
3807 4347
3807 4754
3807 4761
3808 4168
3809 3964
3809 4102
3809 4218
3809 4283
3809 4472
3809 4657
3810 3859
3810 4168
3810 4498
3810 4653
3810 4807
3810 4943
3811 4386
3811 4460
3812 3976
3812 4059
3812 4257
3812 4265
3812 4373
3812 4480
3812 4679
3812 4821
3812 4851
3812 4943
3813 4069
3813 4076
3813 4143
3813 4229
3814 4059
3814 4143
3814 4149
3814 4314
3814 4363
3814 4386
3814 4488
3814 4508
3814 4529
3814 4925
3814 4935
3815 3900
3815 4314
3815 4436
3815 4748
3816 3904
3816 3959
3816 4023
3816 4112
3816 4134
3816 4166
3816 4187
3816 4767
3816 4852
3817 3946
3817 3956
3817 3974
3817 4509
3817 4596
3817 4670
3818 4500
3818 4728
3818 4905
3819 3820
3819 4177
3819 4360
3820 4023
3820 4059
3820 4074
3820 4097
3820 4514
3820 4720
3821 3850
3821 4008
3821 4064
3821 4290
3821 4742
3822 3862
3822 3876
3822 4084
3822 4285
3822 4352
3822 4981
3823 4015
3823 4646
3824 3841
3824 3876
3824 4007
3824 4013
3824 4330
3824 4358
3824 4625
3824 4823
3825 3879
3825 4452
3825 4531
3825 4881
3826 3878
3826 3943
3826 4617
3826 4791
3827 3830
3827 4452
3827 4640
3827 4953
3828 3869
3828 3905
3828 3947
3828 4199
3828 4225
3828 4347
3828 4495
3828 4748
3828 4829
3828 4842
3829 3834
3829 4081
3829 4346
3829 4850
3830 4474
3830 4608
3830 4672
3830 4816
3831 3835
3831 3964
3831 4422
3831 4677
3831 4869
3832 4409
3832 4515
3832 4534
3832 4574
3832 4841
3832 4873
3833 3888
3833 4023
3833 4097
3833 4418
3833 4545
3834 4125
3834 4239
3834 4589
3834 4905
3835 4185
3835 4200
3835 4218
3835 4302
3835 4794
3836 4004
3836 4184
3836 4199
3836 4607
3836 4843
3836 4885
3836 4939
3837 3936
3837 3968
3837 3972
3837 4021
3837 4219
3837 4239
3837 4257
3837 4480
3837 4937
3838 3901
3838 4073
3838 4243
3838 4355
3838 4383
3838 4526
3838 4911
3839 4492
3839 4594
3839 4789
3839 4862
3840 3866
3840 3882
3840 3923
3840 3953
3840 4039
3840 4142
3840 4410
3840 4540
3840 4634
3841 4199
3841 4221
3841 4314
3841 4455
3842 4174
3842 4225
3843 4139
3843 4144
3843 4655
3843 4697
3843 4920
3843 4930
3844 3933
3844 4087
3844 4194
3844 4372
3844 4407
3844 4419
3844 4769
3845 4815
3846 4778
3846 4848
3847 4199
3847 4725
3847 4986
3848 4053
3848 4055
3849 3918
3849 3979
3849 4129
3850 3929
3850 4259
3850 4419
3851 4306
3851 4580
3851 4592
3851 4599
3852 4874
3853 3890
3853 4224
3853 4262
3853 4964
3854 3968
3854 4765
3854 4999
3855 3946
3855 4125
3855 4242
3855 4698
3855 4735
3855 4756
3855 4787
3856 3925
3856 4278
3856 4511
3857 4108
3857 4142
3857 4365
3857 4644
3857 4679
3857 4792
3858 4199
3858 4369
3859 3865
3859 4112
3859 4142
3859 4300
3859 4809
3859 4826
3860 4047
3860 4364
3861 4164
3861 4561
3861 4568
3861 4574
3861 4705
3861 4709
3861 4910
3861 4955
3861 4966
3862 4856
3862 4904
3863 4398
3864 3880
3864 4285
3865 4206
3865 4380
3865 4465
3865 4917
3866 3882
3866 4386
3866 4572
3866 4644
3866 4746
3866 4826
3867 4201
3868 3873
3868 4203
3868 4289
3868 4333
3868 4371
3868 4840
3869 3888
3869 3960
3869 4029
3869 4097
3869 4337
3869 4450
3869 4536
3869 4636
3869 4822
3869 4830
3869 4898
3870 3897
3870 3937
3870 4360
3870 4439
3870 4698
3870 4928
3871 4286
3871 4302
3871 4337
3872 4085
3872 4459
3872 4590
3872 4896
3872 4990
3873 3896
3873 4328
3874 4313
3874 4387
3874 4460
3874 4891
3875 4138
3875 4488
3875 4530
3875 4693
3875 4786
3876 3883
3876 4010
3876 4093
3876 4112
3876 4292
3876 4869
3877 4342
3877 4418
3877 4957
3878 4891
3879 4682
3880 4127
3880 4193
3880 4633
3880 4739
3880 4774
3881 4080
3881 4201
3881 4203
3881 4232
3881 4238
3881 4338
3881 4655
3882 4168
3882 4280
3882 4612
3883 3908
3883 4109
3883 4147
3883 4398
3883 4603
3884 3897
3884 3962
3884 4316
3884 4497
3884 4500
3884 4723
3884 4905
3885 4528
3885 4692
3885 4700
3885 4828
3886 3978
3886 4111
3886 4438
3886 4602
3886 4991
3887 4061
3887 4064
3887 4238
3887 4295
3887 4880
3888 3898
3888 3961
3888 4047
3888 4097
3888 4199
3888 4349
3888 4905
3889 3952
3890 4100
3890 4104
3890 4146
3890 4333
3890 4379
3890 4648
3890 4840
3891 4257
3891 4281
3891 4334
3891 4917
3891 4977
3892 3991
3892 4199
3892 4278
3892 4857
3893 4096
3893 4385
3894 3976
3894 3997
3894 4222
3895 4186
3895 4740
3896 3900
3896 3929
3896 3968
3896 4072
3896 4638
3896 4653
3896 4680
3897 3976
3897 3992
3897 4143
3897 4145
3897 4157
3897 4165
3897 4229
3897 4480
3897 4536
3897 4811
3898 4103
3898 4128
3898 4140
3898 4182
3898 4622
3898 4724
3899 4186
3899 4277
3899 4492
3900 4411
3900 4453
3900 4586
3901 4361
3901 4816
3901 4999
3902 3970
3902 4219
3902 4417
3902 4627
3902 4646
3902 4905
3903 4338
3903 4611
3903 4857
3904 3970
3904 4065
3904 4092
3904 4142
3904 4179
3904 4224
3904 4328
3904 4359
3904 4386
3904 4643
3904 4688
3904 4697
3904 4775
3904 4875
3904 4897
3905 3922
3905 4106
3905 4857
3906 4452
3907 4046
3907 4055
3907 4095
3907 4284
3907 4349
3907 4480
3907 4597
3908 4014
3908 4190
3908 4284
3908 4349
3908 4417
3908 4613
3908 4784
3908 4859
3908 4973
3908 4982
3909 3925
3909 4065
3909 4499
3910 4061
3910 4787
3910 4797
3910 4803
3910 4902
3910 4906
3910 4908
3911 3919
3911 4071
3911 4462
3911 4627
3911 4635
3911 4670
3911 4673
3911 4932
3912 3946
3912 4251
3912 4314
3912 4561
3912 4584
3912 4659
3912 4697
3912 4996
3913 3981
3913 4304
3913 4413
3913 4437
3913 4700
3913 4798
3913 4885
3914 4200
3914 4316
3914 4500
3914 4657
3915 4239
3915 4281
3915 4634
3915 4905
3916 4360
3916 4907
3916 4996
3917 4117
3917 4629
3917 4718
3917 4745
3917 4857
3917 4884
3918 4200
3918 4238
3918 4469
3918 4502
3918 4581
3918 4657
3918 4723
3919 3943
3919 3985
3919 4070
3919 4268
3919 4518
3919 4726
3919 4816
3919 4837
3920 4038
3920 4224
3920 4343
3920 4920
3921 4152
3921 4361
3921 4552
3922 3925
3922 4002
3922 4043
3922 4225
3922 4354
3922 4821
3922 4834
3922 4856
3923 4383
3923 4693
3923 4799
3924 4139
3924 4622
3924 4644
3924 4831
3924 4938
3925 3987
3925 4065
3925 4186
3925 4199
3925 4266
3925 4287
3925 4349
3925 4451
3925 4610
3925 4811
3925 4926
3925 4945
3925 4981
3926 4248
3926 4714
3926 4988
3927 4675
3927 4757
3927 4769
3927 4855
3927 4922
3928 4140
3928 4278
3928 4303
3928 4308
3928 4453
3929 3965
3929 4765
3929 4812
3930 4210
3930 4316
3930 4660
3930 4832
3931 4506
3931 4638
3931 4797
3931 4914
3931 4996
3932 4099
3932 4621
3932 4638
3932 4698
3932 4789
3932 4968
3933 4117
3933 4263
3933 4952
3934 4391
3934 4905
3935 3960
3935 4029
3936 4009
3936 4193
3936 4568
3936 4607
3936 4742
3936 4768
3937 3973
3937 4014
3937 4046
3937 4180
3937 4182
3937 4283
3937 4308
3937 4327
3937 4446
3937 4613
3937 4768
3937 4974
3937 4981
3938 4071
3938 4276
3938 4459
3938 4987
3939 4008
3939 4012
3939 4192
3939 4260
3939 4688
3940 4485
3940 4692
3940 4732
3941 3993
3941 4081
3941 4303
3941 4407
3941 4412
3942 4691
3942 4944
3943 4316
3943 4433
3943 4533
3943 4604
3943 4621
3943 4884
3944 4020
3944 4105
3944 4123
3944 4510
3944 4611
3944 4816
3944 4994
3945 4053
3945 4655
3945 4719
3945 4757
3945 4807
3946 4057
3946 4101
3946 4213
3946 4319
3946 4377
3946 4471
3946 4537
3946 4599
3946 4641
3946 4671
3946 4690
3946 4744
3946 4768
3946 4774
3947 4190
3947 4292
3947 4491
3947 4528
3947 4531
3947 4788
3948 4284
3948 4347
3948 4506
3948 4594
3948 4674
3948 4762
3948 4789
3948 4829
3949 4474
3949 4476
3949 4680
3950 4173
3950 4314
3950 4439
3950 4483
3950 4660
3950 4677
3950 4767
3950 4857
3951 4320
3951 4573
3952 4024
3952 4116
3952 4253
3952 4717
3952 4828
3953 4146
3953 4588
3953 4815
3954 4096
3954 4233
3954 4290
3954 4944
3955 4537
3955 4601
3955 4738
3955 4774
3956 4076
3956 4270
3957 4969
3957 4998
3958 4142
3958 4233
3959 4250
3959 4380
3959 4409
3959 4658
3959 4830
3960 4097
3960 4134
3960 4199
3960 4287
3960 4603
3960 4712
3961 3991
3961 4224
3962 4190
3962 4302
3963 4124
3963 4674
3964 4164
3964 4218
3964 4248
3964 4323
3964 4918
3965 3996
3965 4030
3965 4068
3965 4724
3966 4164
3966 4253
3966 4408
3966 4422
3966 4444
3966 4599
3966 4638
3966 4671
3967 4147
3967 4358
3968 4012
3968 4026
3968 4035
3968 4073
3968 4092
3968 4125
3968 4196
3968 4228
3968 4437
3968 4595
3968 4659
3968 4688
3968 4765
3968 4869
3968 4944
3969 4301
3969 4939
3970 4328
3970 4764
3971 4533
3971 4555
3971 4621
3971 4622
3971 4789
3972 4079
3972 4192
3972 4196
3972 4653
3972 4735
3972 4905
3973 4322
3973 4951
3974 4412
3974 4413
3974 4444
3974 4789
3975 3976
3975 4142
3976 3987
3976 4229
3976 4344
3976 4369
3977 4063
3977 4443
3977 4583
3977 4876
3977 4918
3978 4435
3978 4693
3978 4741
3978 4831
3979 4139
3979 4445
3979 4447
3979 4681
3979 4752
3980 4657
3980 4886
3982 4049
3982 4558
3982 4855
3982 4940
3983 3984
3983 4353
3983 4366
3983 4398
3983 4400
3983 4493
3983 4684
3983 4695
3983 4764
3983 4899
3984 4353
3984 4366
3984 4398
3984 4456
3984 4684
3984 4695
3985 3994
3985 4532
3985 4789
3985 4909
3985 4941
3985 4975
3986 4002
3986 4043
3986 4355
3986 4716
3986 4935
3987 4265
3987 4710
3987 4766
3987 4921
3987 4952
3988 4076
3988 4284
3988 4931
3990 4203
3990 4397
3990 4584
3990 4904
3990 4905
3991 4142
3991 4146
3991 4233
3991 4811
3991 4815
3991 4826
3991 4897
3992 4143
3992 4509
3992 4835
3993 4039
3993 4516
3993 4692
3994 4205
3994 4516
3995 4038
3995 4179
3995 4434
3995 4449
3995 4561
3995 4579
3995 4594
3995 4701
3995 4747
3995 4810
3996 4030
3996 4067
3996 4253
3996 4462
3996 4539
3996 4904
3997 4369
3997 4404
3998 4142
3998 4216
3998 4282
3998 4901
3999 4043
3999 4295
3999 4686
3999 4736
3999 4764
3999 4791
4000 4008
4000 4017
4000 4486
4000 4563
4000 4712
4000 4931
4001 4086
4001 4338
4001 4344
4001 4667
4001 4791
4001 4798
4001 4834
4002 4978
4003 4020
4003 4296
4003 4591
4003 4621
4003 4905
4004 4187
4004 4287
4004 4736
4005 4150
4005 4418
4005 4605
4006 4020
4006 4119
4006 4448
4006 4530
4006 4705
4006 4947
4006 4971
4007 4231
4007 4329
4007 4896
4008 4207
4008 4235
4008 4528
4008 4633
4009 4830
4009 4861
4010 4143
4010 4414
4010 4510
4010 4881
4011 4031
4011 4152
4011 4347
4011 4460
4011 4923
4012 4060
4012 4073
4012 4081
4012 4363
4012 4391
4012 4496
4012 4503
4012 4589
4012 4748
4012 4928
4012 4937
4012 4992
4013 4162
4013 4182
4013 4250
4013 4259
4013 4290
4013 4320
4013 4342
4013 4592
4013 4603
4013 4621
4013 4636
4013 4706
4013 4821
4013 4922
4013 4981
4013 4994
4014 4970
4015 4035
4015 4133
4015 4524
4015 4581
4016 4053
4016 4075
4016 4079
4016 4177
4016 4466
4016 4704
4016 4941
4017 4308
4017 4332
4017 4491
4017 4586
4017 4937
4018 4531
4018 4736
4018 4785
4019 4169
4019 4386
4019 4769
4019 4826
4020 4028
4020 4367
4020 4415
4020 4541
4020 4545
4020 4773
4020 4905
4021 4951
4022 4420
4022 4911
4023 4154
4023 4266
4023 4300
4023 4330
4023 4536
4023 4610
4023 4890
4024 4073
4024 4490
4024 4865
4024 4987
4025 4881
4026 4488
4026 4718
4026 4789
4027 4081
4027 4224
4027 4327
4027 4611
4027 4651
4028 4905
4029 4061
4029 4097
4029 4186
4029 4857
4029 4903
4030 4053
4030 4140
4030 4290
4030 4385
4031 4054
4031 4221
4031 4322
4031 4929
4032 4204
4032 4487
4032 4914
4033 4126
4033 4306
4033 4521
4033 4930
4034 4554
4034 4951
4034 4970
4035 4431
4035 4435
4035 4544
4035 4688
4036 4190
4036 4763
4036 4905
4036 4974
4037 4101
4037 4204
4037 4610
4037 4937
4038 4240
4038 4297
4038 4468
4038 4706
4041 4444
4041 4594
4041 4997
4042 4303
4042 4952
4043 4049
4043 4338
4043 4645
4043 4861
4043 4880
4043 4891
4044 4103
4044 4134
4044 4364
4044 4381
4044 4517
4044 4923
4045 4132
4045 4240
4046 4559
4047 4508
4047 4923
4048 4464
4048 4531
4048 4642
4048 4647
4049 4085
4049 4127
4050 4187
4050 4347
4050 4423
4050 4828
4051 4076
4051 4269
4051 4290
4051 4658
4051 4937
4052 4304
4052 4325
4052 4334
4052 4468
4052 4489
4052 4517
4052 4607
4052 4651
4052 4870
4053 4119
4053 4128
4053 4210
4053 4226
4053 4354
4053 4436
4053 4537
4053 4671
4053 4795
4053 4916
4053 4934
4054 4252
4054 4259
4054 4468
4054 4566
4054 4677
4054 4744
4054 4820
4054 4880
4055 4429
4055 4618
4055 4944
4055 4945
4056 4057
4056 4228
4056 4263
4056 4916
4056 4974
4056 4985
4057 4124
4057 4127
4057 4226
4057 4228
4057 4400
4057 4498
4057 4568
4057 4597
4057 4709
4057 4770
4058 4169
4058 4598
4059 4347
4059 4358
4059 4692
4059 4709
4059 4919
4060 4206
4060 4290
4060 4309
4060 4516
4060 4549
4060 4590
4060 4815
4061 4097
4061 4312
4061 4324
4061 4450
4062 4468
4062 4781
4062 4855
4062 4998
4063 4192
4064 4354
4064 4412
4064 4579
4065 4629
4065 4886
4066 4084
4067 4202
4067 4360
4067 4828
4068 4087
4068 4546
4068 4606
4068 4632
4069 4911
4070 4090
4070 4270
4070 4280
4070 4601
4070 4712
4071 4171
4071 4264
4071 4638
4072 4191
4073 4149
4073 4375
4073 4691
4073 4908
4074 4097
4074 4549
4074 4632
4074 4916
4074 4923
4075 4144
4075 4313
4075 4456
4075 4869
4076 4112
4076 4186
4076 4334
4076 4358
4076 4369
4076 4382
4076 4489
4076 4553
4076 4605
4076 4653
4076 4732
4076 4828
4076 4887
4077 4090
4077 4103
4077 4172
4077 4173
4077 4220
4077 4272
4077 4399
4077 4427
4077 4489
4077 4514
4077 4727
4077 4780
4077 4891
4078 4124
4079 4289
4079 4809
4080 4146
4080 4401
4081 4589
4081 4598
4081 4692
4082 4594
4082 4603
4082 4781
4083 4257
4083 4367
4083 4814
4083 4950
4083 4977
4084 4098
4084 4152
4084 4199
4084 4260
4084 4352
4084 4427
4084 4540
4084 4563
4084 4585
4084 4676
4084 4716
4084 4733
4084 4770
4084 4889
4084 4891
4084 4979
4084 4986
4085 4144
4085 4464
4085 4781
4086 4179
4086 4312
4086 4579
4086 4747
4086 4891
4087 4270
4087 4571
4087 4781
4087 4831
4087 4839
4087 4940
4087 4959
4088 4461
4088 4599
4088 4672
4088 4855
4088 4996
4089 4124
4089 4132
4089 4308
4089 4580
4089 4949
4089 4987
4090 4275
4090 4325
4091 4686
4092 4195
4092 4826
4094 4096
4094 4142
4094 4145
4094 4583
4094 4733
4095 4446
4095 4970
4096 4454
4096 4565
4096 4863
4097 4128
4097 4199
4097 4450
4097 4886
4097 4890
4097 4964
4099 4214
4099 4248
4099 4426
4099 4496
4099 4620
4099 4648
4100 4104
4100 4146
4100 4707
4100 4870
4100 4892
4101 4709
4101 4925
4102 4218
4102 4246
4102 4472
4102 4711
4103 4107
4103 4148
4103 4149
4103 4153
4103 4181
4103 4232
4103 4334
4103 4412
4103 4417
4103 4601
4103 4607
4103 4780
4104 4289
4104 4712
4104 4825
4104 4892
4104 4894
4105 4123
4105 4350
4105 4510
4105 4578
4105 4592
4105 4616
4105 4759
4105 4950
4106 4162
4106 4320
4106 4454
4106 4570
4106 4947
4106 4973
4106 4990
4107 4153
4107 4164
4107 4489
4107 4712
4107 4780
4108 4164
4108 4377
4108 4447
4108 4684
4108 4715
4108 4762
4108 4922
4109 4112
4109 4246
4109 4322
4110 4118
4110 4645
4111 4172
4111 4304
4111 4468
4111 4607
4111 4836
4112 4235
4112 4270
4112 4405
4112 4480
4112 4633
4112 4737
4112 4896
4112 4916
4113 4137
4113 4306
4113 4436
4113 4564
4113 4690
4114 4272
4114 4639
4114 4771
4115 4182
4115 4347
4115 4417
4115 4500
4115 4553
4115 4651
4115 4747
4115 4944
4115 4961
4116 4142
4116 4164
4116 4171
4116 4466
4117 4197
4117 4266
4117 4506
4117 4629
4117 4718
4117 4724
4118 4591
4118 4650
4119 4375
4119 4437
4119 4499
4119 4512
4119 4600
4119 4736
4120 4249
4120 4987
4121 4318
4121 4485
4121 4821
4122 4253
4122 4348
4122 4462
4122 4511
4122 4738
4122 4784
4122 4936
4123 4541
4123 4759
4123 4910
4123 4950
4124 4132
4124 4140
4124 4247
4124 4308
4124 4454
4124 4618
4124 4683
4124 4995
4125 4248
4125 4306
4125 4361
4125 4589
4125 4600
4126 4138
4126 4285
4126 4406
4126 4480
4126 4545
4126 4905
4127 4253
4127 4527
4127 4599
4127 4971
4128 4286
4128 4418
4128 4537
4128 4671
4128 4690
4128 4808
4129 4407
4129 4470
4129 4594
4129 4812
4130 4539
4130 4715
4131 4244
4131 4632
4131 4651
4131 4974
4132 4553
4133 4143
4133 4178
4133 4471
4133 4535
4133 4824
4134 4347
4134 4508
4134 4601
4134 4667
4135 4223
4135 4353
4135 4400
4135 4620
4135 4684
4135 4849
4136 4664
4136 4917
4136 4922
4136 4977
4137 4356
4137 4500
4137 4559
4137 4564
4137 4913
4137 4937
4138 4433
4138 4693
4138 4776
4138 4781
4138 4799
4139 4180
4139 4181
4139 4344
4139 4364
4139 4594
4139 4617
4139 4716
4139 4791
4139 4861
4139 4904
4140 4317
4140 4401
4140 4618
4140 4723
4140 4881
4140 4944
4140 4945
4141 4155
4141 4334
4141 4520
4141 4526
4141 4548
4141 4630
4141 4868
4141 4886
4142 4177
4142 4182
4142 4328
4142 4343
4142 4410
4142 4588
4142 4815
4142 4844
4142 4875
4142 4901
4142 4927
4142 4954
4142 4962
4143 4358
4143 4516
4143 4921
4143 4964
4144 4277
4144 4336
4144 4367
4144 4374
4145 4147
4145 4363
4145 4373
4145 4567
4145 4918
4145 4968
4146 4379
4146 4457
4146 4707
4146 4840
4147 4157
4147 4158
4147 4330
4147 4358
4147 4373
4147 4382
4147 4464
4147 4497
4147 4693
4147 4732
4147 4823
4147 4947
4148 4201
4148 4217
4148 4306
4148 4412
4148 4780
4149 4430
4149 4607
4150 4428
4150 4514
4150 4562
4150 4702
4150 4759
4151 4619
4151 4710
4152 4258
4152 4494
4152 4707
4153 4370
4153 4500
4153 4514
4153 4771
4154 4530
4154 4557
4154 4632
4154 4658
4154 4974
4154 4981
4154 4997
4155 4501
4155 4674
4155 4754
4156 4412
4156 4601
4156 4899
4157 4158
4157 4531
4157 4732
4158 4269
4158 4382
4158 4737
4158 4823
4159 4259
4159 4838
4159 4850
4159 4893
4160 4716
4160 4844
4160 4935
4161 4236
4161 4589
4162 4320
4162 4338
4162 4519
4163 4183
4163 4206
4163 4445
4163 4467
4163 4538
4163 4671
4163 4760
4163 4906
4164 4227
4164 4314
4164 4350
4164 4377
4164 4400
4164 4418
4164 4504
4164 4697
4164 4722
4164 4726
4164 4730
4164 4732
4164 4849
4164 4916
4165 4478
4165 4558
4165 4568
4165 4864
4166 4650
4166 4798
4167 4358
4168 4224
4169 4467
4169 4469
4169 4912
4170 4397
4171 4213
4171 4240
4171 4241
4171 4313
4171 4325
4171 4365
4171 4373
4171 4377
4171 4388
4171 4474
4171 4537
4171 4576
4171 4599
4171 4677
4171 4709
4172 4334
4172 4393
4172 4412
4172 4514
4172 4863
4173 4412
4173 4755
4173 4937
4174 4310
4174 4478
4174 4608
4174 4697
4174 4942
4175 4490
4175 4791
4175 4817
4175 4891
4175 4935
4176 4381
4176 4497
4177 4400
4177 4414
4178 4481
4178 4567
4178 4676
4179 4188
4179 4434
4179 4677
4179 4701
4179 4747
4180 4782
4180 4922
4181 4189
4181 4205
4181 4370
4181 4412
4181 4524
4181 4655
4181 4780
4181 4827
4181 4939
4182 4203
4182 4594
4183 4274
4183 4568
4183 4666
4183 4671
4184 4186
4184 4499
4184 4737
4184 4830
4184 4923
4184 4989
4185 4245
4185 4428
4186 4830
4186 4842
4187 4231
4187 4373
4187 4891
4187 4904
4187 4923
4188 4434
4188 4579
4188 4701
4188 4747
4188 4810
4188 4827
4188 4926
4189 4232
4189 4275
4189 4306
4189 4412
4189 4479
4189 4601
4190 4576
4190 4585
4190 4771
4190 4997
4191 4416
4191 4582
4192 4905
4193 4532
4193 4610
4194 4385
4194 4874
4195 4328
4195 4512
4195 4588
4195 4777
4195 4871
4196 4367
4196 4503
4196 4639
4196 4770
4197 4278
4197 4301
4197 4312
4197 4714
4197 4718
4198 4368
4198 4416
4198 4502
4198 4627
4198 4725
4198 4893
4199 4275
4199 4287
4199 4443
4199 4465
4199 4485
4199 4511
4199 4705
4199 4715
4199 4756
4199 4811
4199 4852
4199 4857
4199 4860
4199 4885
4199 4923
4199 4991
4200 4302
4200 4317
4200 4500
4200 4581
4200 4703
4201 4692
4201 4785
4202 4291
4202 4502
4202 4595
4203 4305
4203 4916
4204 4323
4204 4521
4204 4610
4204 4660
4204 4768
4204 4896
4204 4937
4205 4275
4205 4306
4205 4399
4205 4468
4205 4601
4206 4488
4206 4589
4206 4653
4206 4872
4207 4221
4207 4388
4208 4472
4208 4637
4208 4747
4208 4881
4209 4258
4209 4528
4209 4589
4209 4666
4209 4692
4209 4693
4209 4744
4209 4752
4210 4485
4210 4558
4210 4561
4210 4580
4210 4752
4210 4774
4210 4802
4210 4832
4210 4905
4211 4375
4211 4452
4211 4506
4211 4715
4211 4787
4211 4881
4212 4218
4212 4343
4212 4393
4212 4573
4212 4610
4212 4623
4212 4771
4212 4990
4213 4281
4213 4445
4213 4561
4213 4577
4213 4777
4213 4941
4214 4258
4215 4407
4215 4542
4216 4314
4216 4417
4216 4495
4216 4569
4216 4757
4216 4844
4216 4905
4217 4235
4217 4564
4217 4600
4217 4732
4218 4389
4218 4472
4218 4547
4218 4571
4218 4711
4218 4869
4218 4960
4218 4985
4219 4905
4220 4558
4220 4745
4220 4776
4221 4378
4221 4654
4221 4782
4222 4757
4222 4855
4222 4863
4222 4922
4222 4930
4223 4232
4223 4275
4223 4340
4223 4427
4223 4439
4223 4601
4223 4607
4224 4247
4224 4386
4224 4467
4224 4693
4225 4529
4225 4669
4225 4994
4226 4326
4226 4485
4226 4602
4226 4850
4227 4253
4227 4581
4227 4916
4228 4267
4228 4717
4228 4747
4228 4962
4229 4411
4229 4789
4230 4235
4230 4719
4230 4862
4232 4306
4232 4338
4232 4383
4232 4399
4232 4534
4232 4549
4232 4851
4232 4890
4233 4251
4234 4478
4234 4523
4234 4669
4234 4905
4235 4411
4235 4428
4235 4911
4236 4632
4237 4461
4237 4692
4238 4485
4238 4742
4238 4867
4238 4908
4240 4294
4240 4319
4240 4751
4240 4882
4241 4515
4241 4552
4241 4770
4241 4795
4242 4670
4242 4795
4243 4732
4243 4803
4243 4857
4243 4939
4244 4547
4244 4647
4244 4655
4244 4658
4244 4784
4244 4974
4244 4987
4244 4993
4245 4411
4245 4557
4246 4299
4246 4456
4246 4755
4246 4772
4246 4902
4247 4294
4247 4322
4247 4945
4247 4951
4247 4996
4248 4474
4248 4551
4248 4789
4248 4877
4249 4863
4249 4905
4250 4340
4250 4454
4251 4325
4251 4436
4251 4714
4251 4765
4252 4517
4252 4663
4252 4774
4252 4985
4253 4313
4253 4331
4253 4377
4253 4441
4253 4471
4253 4577
4253 4801
4253 4987
4254 4509
4254 4777
4254 4881
4255 4271
4255 4473
4256 4275
4256 4325
4256 4408
4256 4486
4256 4562
4256 4601
4256 4614
4256 4974
4257 4828
4257 4835
4257 4863
4258 4685
4258 4696
4259 4781
4259 4992
4260 4532
4260 4716
4260 4856
4260 4891
4260 4999
4261 4698
4261 4756
4262 4305
4262 4479
4262 4480
4262 4698
4262 4743
4262 4795
4263 4634
4263 4648
4263 4657
4263 4723
4264 4608
4264 4731
4264 4991
4265 4369
4265 4517
4265 4601
4265 4749
4266 4511
4266 4830
4267 4292
4267 4378
4267 4624
4268 4381
4268 4888
4269 4455
4269 4686
4269 4816
4270 4536
4270 4616
4270 4771
4271 4634
4271 4942
4273 4642
4274 4296
4275 4304
4275 4306
4275 4370
4275 4399
4275 4486
4275 4487
4275 4607
4275 4755
4276 4347
4276 4866
4276 4871
4276 4897
4277 4342
4277 4475
4278 4312
4278 4501
4278 4506
4278 4629
4278 4695
4278 4968
4279 4803
4279 4807
4279 4819
4279 4906
4279 4950
4280 4380
4280 4387
4280 4460
4281 4315
4281 4390
4281 4392
4281 4396
4281 4409
4281 4668
4281 4754
4281 4850
4281 4931
4283 4370
4283 4468
4283 4788
4284 4322
4284 4468
4284 4944
4284 4973
4285 4309
4285 4367
4285 4679
4285 4905
4285 4974
4286 4373
4286 4571
4286 4645
4287 4668
4287 4803
4287 4904
4288 4837
4289 4707
4289 4894
4290 4307
4290 4320
4290 4547
4290 4669
4290 4686
4290 4692
4290 4972
4291 4490
4291 4500
4292 4409
4292 4543
4292 4774
4292 4936
4292 4983
4293 4352
4293 4528
4293 4685
4294 4944
4295 4464
4295 4888
4296 4392
4296 4681
4296 4965
4297 4447
4297 4726
4298 4391
4298 4426
4298 4460
4298 4470
4298 4550
4298 4778
4299 4412
4299 4520
4299 4885
4300 4307
4300 4529
4300 4600
4300 4766
4300 4816
4301 4916
4302 4578
4302 4867
4303 4359
4303 4783
4303 4875
4304 4338
4304 4363
4304 4430
4304 4524
4304 4609
4304 4712
4304 4870
4305 4546
4305 4634
4305 4670
4305 4756
4305 4758
4306 4325
4306 4399
4306 4412
4306 4461
4306 4601
4306 4658
4306 4780
4306 4969
4306 4996
4307 4677
4307 4731
4307 4925
4308 4401
4308 4446
4309 4383
4309 4789
4309 4960
4309 4977
4310 4611
4312 4421
4312 4506
4312 4760
4313 4422
4313 4735
4313 4775
4313 4934
4315 4648
4315 4836
4315 4935
4316 4500
4316 4723
4316 4870
4317 4881
4317 4913
4318 4403
4318 4684
4318 4712
4319 4508
4319 4845
4319 4961
4319 4995
4320 4425
4320 4477
4320 4686
4321 4376
4321 4421
4321 4723
4321 4978
4322 4683
4322 4884
4322 4907
4322 4995
4323 4495
4323 4513
4323 4580
4323 4724
4324 4636
4325 4407
4325 4412
4325 4667
4325 4755
4326 4331
4326 4346
4326 4594
4326 4640
4326 4666
4326 4729
4326 4744
4326 4766
4326 4801
4327 4328
4327 4337
4327 4449
4328 4800
4329 4339
4329 4360
4329 4512
4329 4915
4329 4920
4329 4960
4330 4394
4331 4561
4331 4571
4331 4727
4332 4352
4332 4758
4332 4786
4332 4880
4332 4889
4332 4904
4333 4690
4333 4727
4333 4925
4334 4444
4334 4878
4335 4403
4335 4747
4335 4886
4335 4991
4337 4800
4338 4412
4338 4489
4338 4607
4338 4712
4338 4903
4339 4360
4339 4813
4339 4858
4339 4915
4339 4928
4339 4960
4340 4452
4340 4509
4340 4527
4340 4786
4341 4423
4341 4463
4341 4504
4342 4478
4342 4677
4342 4697
4342 4726
4343 4541
4343 4574
4345 4781
4345 4792
4345 4952
4346 4748
4346 4982
4347 4450
4347 4552
4347 4622
4347 4939
4348 4361
4348 4507
4348 4591
4348 4773
4348 4831
4348 4912
4348 4958
4349 4401
4349 4498
4350 4578
4350 4690
4350 4759
4350 4910
4351 4478
4351 4489
4351 4686
4351 4704
4351 4726
4351 4941
4352 4354
4352 4821
4352 4946
4352 4979
4353 4366
4353 4400
4353 4456
4353 4650
4353 4695
4353 4764
4353 4867
4355 4383
4356 4437
4356 4520
4356 4836
4357 4466
4357 4721
4357 4802
4357 4828
4357 4882
4358 4394
4358 4536
4358 4620
4359 4601
4359 4844
4359 4883
4360 4438
4360 4459
4360 4512
4360 4551
4360 4765
4360 4808
4360 4858
4360 4907
4360 4915
4360 4928
4360 4960
4361 4503
4362 4848
4363 4388
4363 4778
4364 4428
4364 4589
4364 4732
4364 4862
4365 4697
4366 4398
4366 4400
4366 4456
4366 4695
4366 4697
4367 4448
4367 4595
4367 4653
4367 4773
4368 4434
4368 4666
4368 4907
4368 4932
4369 4655
4370 4468
4370 4780
4371 4616
4371 4894
4372 4561
4372 4869
4373 4413
4373 4536
4374 4692
4374 4713
4375 4401
4375 4452
4375 4509
4375 4715
4375 4777
4375 4881
4375 4972
4376 4489
4377 4802
4378 4380
4378 4465
4378 4782
4379 4415
4379 4646
4379 4892
4380 4465
4380 4796
4381 4518
4381 4653
4381 4949
4381 4991
4383 4760
4384 4665
4384 4899
4384 4909
4384 4920
4385 4477
4386 4897
4387 4460
4387 4554
4387 4600
4387 4825
4389 4472
4389 4547
4389 4936
4390 4409
4390 4444
4390 4920
4391 4905
4392 4594
4392 4971
4393 4431
4393 4457
4393 4546
4393 4573
4393 4610
4393 4623
4393 4630
4393 4659
4393 4705
4393 4747
4393 4836
4393 4879
4393 4888
4393 4896
4393 4937
4393 4972
4393 4975
4394 4480
4394 4737
4395 4464
4396 4469
4396 4557
4396 4637
4396 4816
4397 4695
4397 4911
4398 4400
4398 4442
4398 4456
4398 4684
4398 4695
4398 4924
4398 4998
4399 4524
4399 4950
4400 4456
4400 4662
4400 4675
4400 4684
4400 4695
4400 4981
4402 4791
4403 4491
4403 4593
4403 4600
4403 4732
4404 4405
4404 4627
4404 4990
4405 4635
4405 4693
4405 4837
4406 4921
4406 4925
4407 4757
4407 4812
4408 4498
4408 4535
4408 4561
4408 4575
4408 4752
4408 4806
4408 4986
4409 4448
4409 4449
4409 4464
4409 4560
4409 4595
4409 4699
4409 4931
4410 4529
4410 4572
4410 4712
4410 4901
4411 4481
4411 4528
4412 4430
4412 4468
4412 4702
4412 4712
4412 4731
4412 4755
4413 4746
4414 4563
4414 4755
4415 4612
4415 4659
4415 4753
4415 4937
4416 4616
4416 4645
4416 4846
4417 4468
4417 4498
4417 4514
4419 4422
4419 4445
4419 4572
4419 4631
4419 4671
4419 4676
4419 4847
4419 4850
4420 4561
4420 4677
4420 4892
4421 4490
4421 4505
4421 4634
4422 4934
4422 4941
4423 4443
4423 4461
4423 4611
4423 4614
4424 4595
4424 4635
4424 4765
4424 4982
4426 4461
4426 4611
4426 4661
4426 4708
4426 4739
4426 4874
4427 4755
4427 4843
4428 4655
4428 4893
4429 4492
4429 4621
4429 4727
4429 4805
4429 4870
4429 4976
4430 4468
4430 4608
4430 4661
4431 4659
4431 4705
4431 4710
4431 4937
4432 4667
4432 4828
4432 4881
4432 4929
4433 4435
4433 4658
4433 4799
4434 4589
4434 4701
4434 4747
4434 4837
4434 4843
4435 4492
4435 4689
4435 4929
4436 4631
4436 4640
4436 4806
4437 4459
4437 4760
4437 4974
4438 4512
4438 4602
4438 4765
4438 4915
4439 4580
4439 4612
4439 4846
4440 4693
4441 4462
4441 4921
4442 4506
4442 4730
4442 4976
4443 4611
4443 4620
4443 4621
4443 4874
4444 4461
4444 4621
4444 4660
4444 4680
4444 4697
4444 4727
4444 4762
4444 4816
4444 4874
4444 4996
4445 4561
4445 4734
4445 4875
4446 4970
4447 4484
4447 4526
4447 4661
4447 4702
4447 4740
4448 4873
4449 4626
4449 4951
4450 4857
4451 4464
4452 4637
4452 4765
4452 4881
4452 4937
4453 4574
4453 4774
4453 4781
4453 4869
4454 4539
4454 4803
4455 4756
4455 4758
4456 4972
4457 4864
4457 4925
4458 4757
4459 4760
4460 4532
4460 4560
4460 4587
4460 4731
4460 4766
4461 4638
4461 4644
4461 4763
4461 4996
4462 4523
4462 4889
4462 4963
4463 4596
4464 4523
4465 4649
4465 4804
4466 4567
4466 4721
4466 4825
4466 4828
4466 4865
4466 4882
4466 4982
4467 4965
4468 4489
4468 4517
4468 4607
4468 4618
4468 4643
4468 4988
4469 4658
4469 4723
4470 4769
4471 4830
4471 4869
4471 4944
4471 4958
4472 4725
4472 4766
4473 4942
4474 4526
4474 4680
4474 4690
4474 4813
4474 4958
4475 4498
4475 4564
4475 4728
4475 4753
4475 4992
4476 4672
4477 4729
4478 4586
4478 4671
4478 4915
4479 4698
4479 4756
4479 4821
4479 4974
4481 4862
4481 4935
4482 4805
4483 4612
4483 4742
4483 4846
4483 4988
4484 4516
4484 4557
4484 4950
4485 4519
4485 4677
4485 4695
4486 4601
4486 4775
4487 4832
4488 4643
4488 4701
4488 4985
4489 4736
4490 4517
4490 4614
4490 4656
4490 4720
4490 4723
4491 4622
4492 4736
4492 4749
4492 4805
4492 4962
4494 4666
4494 4978
4496 4621
4498 4631
4499 4566
4499 4631
4499 4632
4499 4648
4499 4934
4500 4566
4500 4615
4501 4549
4501 4728
4501 4740
4502 4608
4502 4646
4504 4732
4504 4969
4505 4936
4506 4533
4506 4601
4506 4609
4506 4613
4506 4629
4506 4718
4506 4724
4506 4730
4506 4853
4507 4977
4509 4881
4510 4759
4510 4950
4511 4752
4511 4811
4511 4842
4511 4857
4512 4915
4512 4960
4513 4533
4513 4622
4513 4816
4514 4755
4514 4780
4514 4941
4515 4681
4516 4629
4516 4642
4516 4898
4518 4523
4518 4627
4518 4738
4519 4577
4519 4583
4519 4775
4521 4621
4521 4624
4521 4838
4522 4586
4522 4644
4522 4763
4522 4816
4522 4877
4523 4997
4525 4563
4525 4572
4525 4963
4527 4617
4528 4649
4528 4685
4528 4692
4528 4713
4528 4752
4528 4881
4528 4915
4528 4974
4529 4533
4529 4594
4529 4611
4529 4663
4529 4674
4529 4679
4529 4694
4529 4841
4529 4914
4529 4976
4530 4632
4530 4655
4530 4784
4530 4974
4531 4760
4531 4803
4531 4887
4532 4587
4532 4731
4532 4874
4533 4594
4533 4674
4533 4728
4533 4997
4534 4624
4534 4646
4534 4978
4535 4761
4535 4963
4537 4744
4539 4563
4539 4883
4541 4592
4541 4861
4541 4950
4542 4599
4542 4654
4542 4866
4542 4940
4544 4626
4544 4732
4545 4917
4546 4607
4546 4952
4546 4994
4547 4885
4548 4760
4549 4747
4549 4905
4550 4968
4550 4974
4551 4602
4551 4809
4552 4691
4553 4788
4554 4825
4554 4876
4554 4983
4555 4986
4556 4697
4556 4709
4557 4655
4557 4658
4557 4721
4557 4974
4558 4561
4559 4841
4559 4945
4559 4981
4560 4606
4561 4656
4561 4665
4561 4678
4561 4894
4562 4624
4562 4660
4562 4838
4562 4932
4564 4879
4566 4586
4566 4680
4566 4727
4566 4974
4567 4655
4567 4721
4567 4748
4567 4828
4567 4833
4567 4882
4568 4774
4569 4929
4570 4594
4570 4736
4570 4753
4570 4804
4572 4675
4573 4610
4573 4937
4573 4998
4574 4712
4574 4722
4574 4744
4574 4964
4575 4905
4576 4771
4576 4814
4576 4827
4577 4602
4577 4656
4577 4690
4578 4592
4578 4759
4578 4950
4580 4638
4580 4742
4581 4732
4581 4881
4582 4592
4582 4650
4582 4674
4582 4738
4583 4920
4584 4708
4584 4970
4586 4628
4586 4751
4586 4834
4586 4859
4586 4976
4589 4688
4589 4718
4589 4770
4589 4902
4589 4917
4589 4931
4590 4670
4590 4698
4590 4893
4591 4738
4592 4690
4592 4759
4592 4799
4592 4950
4593 4800
4594 4621
4594 4638
4594 4674
4594 4727
4594 4741
4594 4749
4594 4757
4594 4766
4594 4772
4594 4783
4594 4898
4594 4996
4594 4997
4596 4688
4597 4730
4598 4650
4599 4677
4599 4978
4601 4664
4601 4780
4601 4945
4602 4633
4602 4678
4603 4751
4603 4800
4604 4624
4604 4938
4605 4766
4605 4791
4608 4644
4608 4795
4608 4818
4609 4727
4609 4765
4609 4788
4609 4789
4609 4997
4610 4619
4610 4623
4610 4686
4610 4704
4610 4705
4610 4878
4610 4888
4610 4937
4610 4975
4610 4990
4611 4694
4611 4728
4611 4829
4611 4841
4611 4884
4611 4898
4611 4996
4612 4742
4615 4723
4616 4950
4617 4904
4617 4986
4619 4681
4619 4710
4619 4738
4619 4815
4620 4745
4620 4841
4620 4921
4621 4727
4621 4805
4621 4833
4621 4841
4621 4997
4622 4651
4622 4728
4622 4750
4622 4777
4622 4779
4622 4847
4622 4914
4622 4997
4623 4700
4623 4937
4624 4646
4624 4659
4624 4725
4624 4752
4624 4788
4624 4822
4624 4850
4624 4966
4624 4978
4625 4716
4625 4745
4625 4786
4627 4666
4627 4991
4628 4862
4629 4714
4629 4718
4629 4730
4629 4852
4629 4853
4630 4804
4631 4709
4632 4647
4632 4655
4632 4723
4632 4784
4632 4794
4632 4974
4633 4902
4634 4723
4634 4879
4635 4762
4635 4820
4635 4870
4635 4949
4636 4686
4636 4806
4637 4743
4637 4777
4637 4831
4637 4881
4638 4854
4639 4642
4639 4662
4639 4771
4639 4887
4640 4734
4640 4736
4640 4971
4641 4684
4642 4756
4642 4848
4643 4665
4643 4918
4643 4920
4645 4646
4646 4666
4646 4827
4646 4978
4648 4794
4648 4829
4649 4689
4649 4730
4649 4804
4651 4679
4651 4728
4651 4784
4651 4877
4651 4935
4651 4996
4652 4992
4653 4719
4653 4773
4653 4971
4654 4978
4655 4974
4656 4904
4657 4834
4657 4867
4658 4784
4658 4974
4659 4705
4659 4937
4662 4771
4662 4806
4662 4841
4662 4965
4664 4832
4664 4945
4665 4899
4665 4909
4666 4827
4666 4850
4666 4860
4666 4893
4666 4965
4666 4978
4668 4699
4669 4772
4670 4756
4671 4824
4672 4708
4672 4766
4672 4833
4673 4823
4673 4923
4675 4781
4675 4863
4675 4977
4676 4690
4677 4687
4677 4690
4677 4748
4677 4817
4677 4824
4678 4985
4679 4694
4679 4766
4679 4924
4679 4996
4680 4711
4680 4718
4680 4789
4680 4826
4680 4841
4680 4851
4681 4732
4681 4970
4682 4850
4683 4769
4683 4944
4684 4695
4684 4952
4686 4731
4686 4994
4689 4693
4689 4700
4689 4862
4689 4956
4690 4849
4690 4866
4690 4912
4690 4916
4690 4941
4690 4971
4692 4700
4692 4715
4692 4968
4692 4982
4693 4929
4693 4956
4694 4784
4694 4805
4694 4970
4696 4700
4696 4739
4696 4758
4696 4780
4696 4846
4696 4997
4698 4756
4698 4758
4698 4795
4700 4752
4701 4923
4702 4727
4702 4952
4704 4901
4705 4768
4705 4896
4705 4975
4706 4756
4706 4783
4706 4816
4707 4711
4708 4760
4708 4829
4711 4802
4711 4858
4711 4885
4712 4755
4712 4893
4713 4739
4714 4882
4715 4777
4715 4864
4715 4881
4716 4856
4717 4788
4717 4967
4718 4753
4718 4924
4720 4752
4720 4776
4720 4896
4720 4957
4721 4736
4721 4780
4721 4833
4723 4865
4724 4753
4724 4974
4725 4760
4725 4978
4727 4729
4727 4736
4727 4877
4727 4906
4727 4924
4727 4992
4729 4914
4730 4968
4731 4905
4732 4862
4732 4879
4733 4966
4734 4920
4734 4982
4736 4971
4737 4947
4740 4751
4741 4944
4741 4960
4742 4957
4743 4940
4744 4801
4744 4824
4745 4868
4745 4882
4746 4928
4748 4774
4749 4759
4749 4816
4749 4888
4750 4943
4751 4947
4752 4894
4752 4905
4754 4875
4755 4999
4756 4758
4756 4767
4756 4969
4756 4973
4757 4812
4758 4795
4758 4969
4759 4910
4759 4981
4760 4920
4763 4847
4765 4907
4768 4937
4768 4972
4769 4781
4769 4839
4769 4895
4772 4996
4773 4978
4775 4801
4775 4923
4777 4787
4778 4997
4779 4816
4779 4941
4781 4831
4781 4839
4781 4848
4782 4796
4782 4979
4783 4789
4783 4950
4784 4974
4786 4955
4786 4999
4787 4881
4787 4903
4789 4914
4790 4851
4791 4817
4791 4928
4792 4808
4792 4822
4793 4943
4794 4816
4797 4803
4797 4807
4797 4819
4797 4906
4799 4929
4803 4807
4803 4819
4803 4908
4803 4930
4804 4904
4804 4986
4805 4898
4806 4869
4806 4892
4807 4906
4807 4908
4810 4988
4811 4854
4813 4823
4813 4877
4813 4907
4814 4855
4814 4917
4816 4972
4819 4906
4819 4908
4820 4934
4822 4937
4824 4914
4828 4882
4829 4996
4831 4832
4833 4997
4835 4929
4835 4998
4837 4893
4837 4946
4838 4905
4844 4962
4846 4895
4848 4855
4848 4899
4849 4876
4850 4978
4851 4884
4852 4857
4852 4921
4853 4875
4854 4923
4855 4866
4855 4959
4856 4891
4856 4922
4860 4882
4861 4889
4861 4891
4861 4946
4862 4879
4864 4878
4864 4892
4864 4894
4864 4925
4866 4916
4868 4946
4869 4976
4869 4985
4874 4958
4877 4914
4880 4891
4881 4916
4881 4984
4884 4938
4886 4937
4888 4911
4892 4894
4892 4907
4893 4978
4897 4898
4897 4943
4897 4945
4900 4935
4902 4938
4902 4946
4902 4979
4903 4958
4906 4908
4907 4960
4908 4980
4909 4912
4909 4918
4909 4920
4910 4950
4912 4936
4914 4943
4914 4997
4915 4918
4918 4920
4919 4974
4921 4966
4925 4981
4928 4960
4930 4931
4932 4977
4932 4978
4933 4970
4937 4990
4944 4950
4944 4995
4952 4989
4961 4995
4988 4997
4992 4997
