0 1238
0 1291
0 1719
0 1870
0 2560
0 2572
0 2907
0 3178
0 3190
0 3504
0 3696
0 3953
0 4261
0 4925
1 12
1 289
1 385
1 667
1 694
1 827
1 914
1 1024
1 1524
1 1611
1 1621
1 1949
1 2040
1 2054
1 2171
1 2259
1 2263
1 2293
1 2504
1 2554
1 2569
1 2579
1 2584
1 2644
1 2709
1 2791
1 2855
1 3127
1 3710
1 3786
1 4069
1 4102
1 4124
1 4623
1 4801
1 4833
1 4867
1 4955
2 168
2 191
2 338
2 549
2 662
2 716
2 797
2 1135
2 1146
2 1160
2 1289
2 1363
2 1760
2 2410
2 2514
2 2536
2 2676
2 2710
2 2935
2 3100
2 3575
2 3902
2 3930
2 4352
2 4540
2 4919
3 115
3 309
3 599
3 1675
3 1698
3 1972
3 2552
3 2864
3 2878
3 2906
3 2916
3 3022
3 3181
3 3382
3 3502
3 3544
3 3708
3 4256
3 4772
4 65
4 355
4 485
4 554
4 571
4 614
4 643
4 645
4 1076
4 1231
4 1547
4 1614
4 1836
4 1904
4 1958
4 2076
4 2197
4 3155
4 3416
4 3502
4 3587
4 3613
4 3961
4 4099
4 4263
4 4291
4 4467
4 4748
5 365
5 858
5 1179
5 1460
5 1498
5 1540
5 1980
5 1982
5 2051
5 2201
5 2642
5 2981
5 3188
5 4069
5 4102
5 4318
5 4400
5 4867
5 4955
5 4985
6 831
6 1458
6 1704
6 1769
6 1994
6 2395
6 2435
6 2602
6 2926
6 2971
6 3042
6 3469
6 3927
6 3966
6 4413
6 4789
7 121
7 234
7 475
7 649
7 1098
7 1237
7 1266
7 1316
7 1374
7 1429
7 1499
7 1527
7 1794
7 1919
7 2080
7 2148
7 2171
7 2178
7 2375
7 2469
7 2643
7 3091
7 3105
7 3301
7 3376
7 3446
7 3830
7 3888
7 4065
7 4211
7 4277
7 4306
7 4750
7 4785
8 97
8 306
8 506
8 523
8 863
8 1614
8 1816
8 1976
8 2158
8 2296
8 2461
8 2716
8 3014
8 3099
8 3170
8 3311
8 3748
8 3863
8 3954
8 4122
8 4235
8 4245
8 4448
8 4985
9 103
9 323
9 1211
9 1227
9 1486
9 2074
9 2136
9 2176
9 2486
9 2768
9 2781
9 3500
9 3914
9 3952
9 3978
9 3979
9 3994
9 4052
9 4843
9 4938
10 190
10 197
10 446
10 561
10 701
10 940
10 1066
10 1091
10 1139
10 1282
10 1351
10 1404
10 1779
10 1815
10 2038
10 2047
10 2073
10 2087
10 2135
10 2137
10 2146
10 2253
10 2308
10 2363
10 2444
10 2527
10 2632
10 2634
10 3106
10 3151
10 3269
10 3346
10 3392
10 3704
10 3786
10 3833
10 3865
10 4068
10 4155
10 4201
10 4206
10 4256
10 4320
10 4563
10 4564
10 4591
10 4594
11 18
11 99
11 422
11 423
11 434
11 599
11 930
11 979
11 1098
11 1474
11 1624
11 1917
11 1920
11 2009
11 2089
11 2099
11 2325
11 2458
11 2595
11 2778
11 3018
11 3519
11 4197
11 4323
11 4367
11 4444
11 4807
11 4849
12 51
12 276
12 770
12 1080
12 1159
12 1261
12 1452
12 2344
12 2832
12 3227
12 3607
12 3624
12 3655
12 3802
12 4414
12 4568
12 4608
12 4986
13 209
13 240
13 350
13 1464
13 1703
13 1867
13 1994
13 2775
13 2975
13 3167
13 3399
13 3590
13 3810
13 4327
13 4798
13 4900
14 23
14 1032
14 1545
14 1637
14 1884
14 1906
14 1942
14 2312
14 2338
14 2642
14 2655
14 2700
14 2991
14 3017
14 3226
14 3274
14 3352
14 3465
14 3466
14 3714
14 3816
14 3996
14 4153
14 4332
14 4726
15 57
15 327
15 963
15 1530
15 1766
15 2089
15 2371
15 2788
15 2896
15 3148
15 3894
15 4363
15 4624
16 352
16 539
16 940
16 1131
16 1202
16 1853
16 3103
16 3220
16 3465
16 3533
16 3850
16 3975
16 4220
16 4256
17 232
17 785
17 1193
17 1457
17 1633
17 1763
17 1862
17 2308
17 2425
17 2645
17 2678
17 2738
17 2828
17 3056
17 3115
17 3147
17 3180
17 3308
17 3506
17 4004
17 4101
17 4154
17 4189
17 4342
17 4352
17 4632
17 4737
18 24
18 54
18 392
18 768
18 819
18 886
18 890
18 1005
18 1313
18 2095
18 2396
18 2618
18 3121
18 3401
18 3543
18 3762
18 3894
18 3901
18 4354
19 266
19 427
19 533
19 599
19 747
19 769
19 771
19 774
19 928
19 1027
19 1103
19 1262
19 1381
19 1519
19 1552
19 1841
19 2051
19 2210
19 2211
19 2422
19 2440
19 2466
19 2471
19 3245
19 3329
19 3463
19 3606
19 3820
19 3835
19 3864
19 4047
19 4261
19 4478
19 4575
19 4588
19 4594
19 4619
19 4628
19 4691
20 527
20 1125
20 1292
20 1344
20 1723
20 2070
20 2089
20 2369
20 2427
20 2522
20 2975
20 3144
20 3403
20 3454
20 4933
21 53
21 517
21 521
21 595
21 665
21 909
21 1284
21 1310
21 1391
21 2296
21 2433
21 2596
21 2603
21 2649
21 2958
21 3328
21 3334
21 3757
21 3822
21 3969
21 3971
21 4026
21 4222
21 4285
21 4507
22 482
22 537
22 567
22 696
22 867
22 907
22 926
22 1100
22 1633
22 2286
22 2325
22 2670
22 2860
22 3833
22 4148
22 4458
22 4564
23 169
23 451
23 488
23 598
23 711
23 1367
23 1442
23 2017
23 2090
23 2259
23 2408
23 3030
23 3226
23 3816
23 3976
23 4779
24 28
24 29
24 271
24 276
24 278
24 302
24 310
24 318
24 333
24 474
24 557
24 584
24 894
24 1044
24 1088
24 1208
24 1231
24 1284
24 1299
24 1314
24 1327
24 1366
24 1444
24 1487
24 1549
24 1868
24 1956
24 2125
24 2203
24 2238
24 2730
24 2771
24 3111
24 3155
24 3216
24 3228
24 3233
24 3272
24 3433
24 3800
24 4107
24 4132
24 4253
24 4328
24 4433
24 4489
25 257
25 373
25 774
25 1137
25 1224
25 1254
25 1309
25 1694
25 2002
25 2419
25 2881
25 3616
25 3628
25 3911
25 3980
25 4109
25 4356
25 4603
25 4906
26 351
26 363
26 416
26 425
26 914
26 1015
26 1097
26 1231
26 1255
26 1405
26 1519
26 1779
26 1903
26 2112
26 2159
26 2305
26 2397
26 2417
26 2490
26 2585
26 2641
26 3270
26 3425
26 3768
26 4058
26 4071
26 4161
26 4255
26 4385
26 4430
26 4706
27 67
27 162
27 416
27 424
27 711
27 1810
27 1907
27 2087
27 2100
27 2415
27 2454
27 2463
27 2542
27 2569
27 2833
27 2960
27 3004
27 3239
27 3460
27 3487
27 3544
27 3956
27 4015
27 4065
27 4207
27 4585
27 4824
27 4994
28 87
28 407
28 430
28 487
28 556
28 894
28 947
28 973
28 1788
28 2568
28 2656
28 2858
28 3054
28 3260
28 3827
28 3892
28 4444
28 4975
28 4977
29 298
29 333
29 851
29 1146
29 1231
29 1295
29 1306
29 1352
29 1406
29 1922
29 2453
29 2493
29 2568
29 2730
29 2999
29 3149
29 3176
29 3272
29 3540
29 3885
29 3886
29 4139
29 4220
29 4267
29 4292
29 4800
29 4973
30 667
30 733
30 1072
30 1109
30 1232
30 1273
30 1680
30 1734
30 2086
30 2277
30 2294
30 2301
30 2400
30 2578
30 2739
30 2749
30 2779
30 3162
30 3216
30 3270
30 3287
30 3311
30 3379
30 3410
30 3440
30 3461
30 3588
30 3667
30 3694
30 3750
30 3926
30 4028
30 4039
30 4085
30 4154
30 4185
30 4300
30 4349
30 4443
30 4444
30 4481
30 4635
30 4820
30 4865
30 4920
31 305
31 357
31 468
31 930
31 960
31 1047
31 1247
31 1375
31 1536
31 1837
31 2248
31 2471
31 2684
31 2762
31 3102
31 3124
31 3375
31 3650
31 3801
31 4085
31 4117
31 4140
31 4447
31 4597
31 4716
31 4835
31 4942
32 121
32 134
32 270
32 438
32 443
32 461
32 550
32 770
32 1211
32 1212
32 1362
32 1474
32 1883
32 1977
32 2105
32 2144
32 2326
32 2370
32 2578
32 2974
32 2975
32 3057
32 3637
32 4044
32 4086
32 4701
33 64
33 283
33 355
33 362
33 411
33 598
33 947
33 1193
33 1194
33 1372
33 1434
33 1731
33 2812
33 2876
33 2916
33 3468
33 3706
33 3861
33 4161
33 4170
33 4280
33 4499
33 4752
34 155
34 173
34 421
34 1011
34 1076
34 1410
34 1587
34 1925
34 2484
34 2687
34 2762
34 2847
34 3286
34 3731
34 3869
34 3956
34 4005
34 4262
34 4284
34 4690
35 158
35 326
35 536
35 720
35 822
35 1288
35 1431
35 1545
35 1871
35 1894
35 1938
35 2056
35 2086
35 2308
35 2478
35 2479
35 2612
35 2719
35 2773
35 2890
35 3132
35 3353
35 3392
35 3642
35 3679
35 3953
35 4124
35 4313
36 215
36 282
36 869
36 1064
36 1298
36 1497
36 1518
36 1669
36 1781
36 1994
36 2036
36 2195
36 2299
36 2554
36 2662
36 2807
36 2812
36 3066
36 3276
36 3287
36 3338
36 3421
36 3436
36 3479
36 3515
36 3520
36 3705
36 3716
36 3756
36 3824
36 3864
36 4395
36 4410
36 4588
36 4594
36 4599
36 4665
36 4931
36 4937
37 218
37 284
37 352
37 561
37 708
37 963
37 1139
37 1295
37 1552
37 1740
37 2210
37 2344
37 2406
37 2471
37 2624
37 3158
37 3218
37 4118
37 4220
37 4261
37 4691
38 379
38 594
38 778
38 790
38 1371
38 1622
38 1643
38 1933
38 2279
38 2284
38 2634
38 2726
38 2742
38 4041
38 4275
38 4282
38 4764
38 4788
39 53
39 56
39 178
39 207
39 374
39 487
39 639
39 863
39 909
39 1429
39 1455
39 1548
39 1667
39 1848
39 2093
39 2161
39 2473
39 2630
39 2934
39 3135
39 3259
39 3447
39 3544
39 3628
39 3934
39 4178
39 4203
39 4310
39 4512
39 4692
39 4721
39 4986
40 200
40 1238
40 1493
40 1563
40 2831
40 3087
40 3264
40 3551
40 4086
40 4132
40 4293
40 4900
41 66
41 186
41 209
41 688
41 887
41 974
41 1637
41 1796
41 2047
41 3445
41 3631
41 3712
41 3930
41 3977
41 4815
42 296
42 444
42 452
42 468
42 531
42 650
42 683
42 1102
42 1224
42 1710
42 2390
42 2473
42 2681
42 2894
42 3014
42 3145
42 3226
42 3310
42 3465
42 3826
42 4214
42 4778
43 53
43 91
43 273
43 297
43 622
43 1025
43 1240
43 1369
43 1585
43 1621
43 1895
43 1911
43 1956
43 2603
43 2604
43 3728
43 3773
43 4079
43 4160
43 4167
43 4185
43 4445
43 4738
44 56
44 646
44 771
44 821
44 934
44 1076
44 1519
44 1733
44 1926
44 2051
44 2193
44 2471
44 2840
44 2983
44 3207
44 3345
44 3441
44 3503
44 3981
44 4083
44 4264
44 4283
44 4448
45 129
45 917
45 1147
45 1729
45 2102
45 2311
45 2505
45 3070
45 3180
45 3253
45 3393
45 3486
45 3500
45 3566
45 4273
45 4352
45 4677
45 4878
45 4903
45 4919
46 495
46 547
46 691
46 712
46 765
46 1430
46 1483
46 2418
46 2858
46 2865
46 2924
46 2999
46 3020
46 3260
46 3400
46 3597
46 3761
46 4005
46 4089
46 4323
46 4425
46 4682
46 4915
47 318
47 326
47 402
47 405
47 469
47 1068
47 1179
47 1212
47 1300
47 1322
47 1365
47 1745
47 2106
47 2107
47 2403
47 2556
47 2626
47 2841
47 2954
47 3311
47 3332
47 3444
47 3544
47 3600
47 3636
47 3761
47 3820
47 3851
47 3914
47 3929
47 4157
47 4209
47 4232
47 4328
47 4405
47 4575
47 4706
47 4710
48 340
48 405
48 462
48 1270
48 1479
48 1567
48 1891
48 2019
48 2465
48 2888
48 2956
48 3055
48 3135
48 3292
48 3293
48 3596
48 3868
48 4079
48 4084
48 4871
49 342
49 555
49 735
49 848
49 933
49 2109
49 2322
49 2914
49 3026
49 3087
49 3564
49 3859
49 4014
49 4128
49 4180
49 4189
49 4207
49 4209
49 4229
49 4396
49 4443
49 4716
49 4739
49 4811
50 71
50 139
50 189
50 256
50 452
50 580
50 592
50 711
50 738
50 816
50 997
50 1339
50 1408
50 1448
50 1517
50 1972
50 2055
50 2086
50 2176
50 2209
50 2450
50 2501
50 2708
50 2721
50 2986
50 3159
50 3526
50 3636
50 3777
50 3787
50 3892
50 4024
50 4158
50 4300
50 4336
50 4432
50 4608
51 64
51 89
51 107
51 140
51 210
51 240
51 276
51 302
51 306
51 512
51 1070
51 1080
51 1399
51 1472
51 1520
51 1771
51 1880
51 2101
51 2196
51 2447
51 2473
51 2544
51 2771
51 2811
51 2813
51 3054
51 3060
51 3227
51 3283
51 3381
51 3575
51 3634
51 3714
51 3731
51 3768
51 3881
51 3911
51 4243
51 4434
51 4634
51 4662
51 4682
51 4727
51 4757
51 4771
51 4854
51 4986
52 178
52 278
52 350
52 392
52 758
52 763
52 1102
52 1174
52 1505
52 1537
52 1632
52 1667
52 1700
52 1827
52 1993
52 2124
52 2151
52 2257
52 2311
52 2318
52 2438
52 2459
52 2477
52 2688
52 2994
52 3339
52 3395
52 3475
52 3489
52 3684
52 3925
52 3943
52 4074
52 4149
52 4267
52 4422
52 4433
52 4611
52 4665
52 4738
52 4890
52 4938
53 189
53 215
53 374
53 376
53 383
53 428
53 489
53 506
53 523
53 664
53 701
53 717
53 876
53 883
53 952
53 1113
53 1251
53 1453
53 1495
53 1506
53 1527
53 1672
53 1874
53 2011
53 2218
53 2415
53 2449
53 2461
53 2503
53 2584
53 2668
53 2995
53 3007
53 3051
53 3096
53 3100
53 3135
53 3137
53 3202
53 3264
53 3307
53 3549
53 3578
53 3629
53 3749
53 3820
53 3935
53 3968
53 4071
53 4122
53 4166
53 4168
53 4429
53 4559
53 4676
53 4691
53 4719
54 594
54 999
54 1192
54 1291
54 1297
54 1443
54 1724
54 1731
54 2062
54 2099
54 2210
54 2215
54 2521
54 2540
54 2739
54 2811
54 3066
54 3838
54 4368
54 4574
55 638
55 864
55 1055
55 1984
55 2179
55 2299
55 2640
55 2995
55 3108
55 3311
55 3576
55 3821
55 4352
55 4437
55 4539
55 4620
55 4853
56 188
56 215
56 247
56 506
56 518
56 883
56 959
56 1063
56 1131
56 1203
56 1489
56 1550
56 1709
56 2087
56 2186
56 2218
56 2337
56 2559
56 2565
56 2728
56 3096
56 3382
56 3751
56 3852
56 4040
56 4122
56 4197
57 152
57 241
57 451
57 455
57 762
57 773
57 843
57 873
57 2315
57 2510
57 3302
57 3746
57 4154
57 4357
57 4489
57 4957
58 75
58 96
58 212
58 248
58 314
58 637
58 1416
58 1910
58 2097
58 2376
58 2429
58 2466
58 2528
58 2775
58 2834
58 3157
58 3204
58 3536
58 3812
58 3874
58 4092
58 4148
58 4478
58 4663
58 4678
58 4824
58 4893
59 75
59 81
59 183
59 258
59 512
59 865
59 1250
59 1270
59 1421
59 1581
59 1844
59 2752
59 2785
59 2915
59 3378
59 3596
59 3858
59 3892
59 3948
59 4148
59 4214
59 4274
59 4812
60 247
60 350
60 407
60 567
60 586
60 997
60 1146
60 1240
60 1423
60 2039
60 2533
60 2725
60 3087
60 3690
60 4139
60 4790
61 482
61 705
61 926
61 1168
61 1959
61 2230
61 2797
61 2975
61 3474
61 3645
61 3647
61 4385
61 4746
61 4864
61 4903
61 4937
61 4970
62 97
62 301
62 643
62 790
62 1368
62 1659
62 1952
62 2056
62 2161
62 2514
62 2933
62 3226
62 3397
62 3485
62 4768
62 4933
62 4973
63 311
63 390
63 519
63 787
63 1192
63 1886
63 1934
63 2322
63 2346
63 2363
63 2771
63 3046
63 3342
63 4212
63 4567
63 4818
63 4860
64 77
64 299
64 378
64 433
64 539
64 699
64 1460
64 1979
64 2334
64 2415
64 2709
64 2813
64 3227
64 3353
64 3708
64 3891
64 4225
64 4414
64 4434
65 408
65 513
65 677
65 950
65 1003
65 1448
65 1601
65 1782
65 1825
65 1997
65 2103
65 2368
65 2601
65 2754
65 2887
65 2948
65 3158
65 3451
65 3485
65 4163
65 4556
65 4661
65 4970
66 97
66 251
66 382
66 504
66 996
66 1008
66 1136
66 1161
66 1226
66 1235
66 1389
66 1514
66 1993
66 2044
66 2239
66 2334
66 2947
66 3143
66 3693
66 3729
66 3739
66 3953
66 4000
66 4100
66 4140
66 4219
66 4238
66 4270
66 4663
66 4755
66 4842
66 4962
67 189
67 600
67 711
67 820
67 945
67 1144
67 1308
67 2161
67 2165
67 2305
67 2695
67 2833
67 3165
67 3313
67 3717
67 4088
67 4168
67 4507
67 4613
67 4651
67 4879
67 4912
68 183
68 740
68 833
68 955
68 1074
68 1110
68 1436
68 1500
68 2740
68 2808
68 3262
68 3539
68 4559
68 4812
68 4858
68 4953
68 4988
69 266
69 734
69 747
69 769
69 1631
69 1761
69 1841
69 1883
69 2006
69 2028
69 2210
69 2231
69 2420
69 2471
69 2906
69 3214
69 3739
69 3910
69 3915
69 3981
69 4042
69 4214
69 4478
69 4580
69 4957
70 190
70 602
70 647
70 1092
70 1140
70 1155
70 1266
70 1491
70 1767
70 2038
70 2401
70 2470
70 2604
70 2632
70 2660
70 3031
70 3398
70 3427
70 3935
70 4206
70 4308
70 4564
70 4648
70 4711
70 4966
71 511
71 561
71 801
71 1061
71 1215
71 2215
71 2326
71 2495
71 3038
71 3355
71 3442
71 3464
71 3745
71 4005
71 4298
71 4314
71 4811
71 4850
72 142
72 170
72 906
72 996
72 1139
72 1634
72 1728
72 1815
72 2092
72 2203
72 2448
72 2662
72 3027
72 3368
72 3742
72 3971
72 4180
72 4294
72 4571
72 4634
72 4747
73 174
73 631
73 697
73 727
73 858
73 872
73 878
73 909
73 1281
73 1458
73 1715
73 1957
73 2469
73 2886
73 3118
73 3266
73 4081
73 4095
73 4229
73 4351
73 4463
73 4465
73 4955
74 152
74 793
74 2134
74 2634
74 2744
74 2783
74 2812
74 2899
74 2982
74 3365
74 3588
74 3864
74 4436
74 4991
75 234
75 243
75 1844
75 2095
75 2396
75 2633
75 2639
75 2651
75 3121
75 3311
75 3434
75 4096
76 392
76 520
76 936
76 1250
76 1299
76 1458
76 1683
76 1798
76 2032
76 2376
76 2495
76 2730
76 2863
76 2910
76 3121
76 3286
76 3309
76 3418
76 3474
76 3555
76 3585
76 3758
76 3995
76 4137
76 4206
76 4245
76 4884
76 4934
76 4955
77 89
77 259
77 410
77 486
77 879
77 991
77 1199
77 1309
77 1320
77 1386
77 1742
77 2042
77 2094
77 2149
77 2500
77 2517
77 2540
77 2570
77 2925
77 3007
77 3303
77 3314
77 3393
77 3604
77 3710
77 4124
77 4229
77 4299
78 745
78 831
78 1189
78 1614
78 2213
78 3024
78 3182
78 3299
78 3489
78 3555
78 3572
78 3624
78 4080
78 4149
78 4189
78 4310
78 4388
78 4397
78 4655
79 145
79 417
79 528
79 998
79 1317
79 1451
79 1509
79 1654
79 1717
79 1913
79 2534
79 2843
79 2918
79 3128
79 3281
79 3330
79 3732
79 3775
79 3965
79 4132
79 4415
79 4842
80 176
80 676
80 721
80 886
80 1168
80 1223
80 1265
80 1390
80 1498
80 1510
80 1605
80 1790
80 1835
80 1861
80 1936
80 2209
80 2421
80 2824
80 2827
80 3101
80 3142
80 3184
80 3340
80 3349
80 3373
80 3753
80 3765
80 3952
80 3977
80 4110
80 4165
80 4208
80 4222
80 4270
80 4772
80 4868
80 4941
81 1197
81 1202
81 1231
81 1529
81 1602
81 1740
81 2469
81 2486
81 2604
81 2878
81 3149
81 3707
81 4009
81 4572
82 133
82 289
82 430
82 548
82 594
82 1443
82 1479
82 1771
82 1790
82 2238
82 2373
82 2544
82 2811
82 2813
82 3066
82 3180
82 3381
82 3655
82 4290
82 4372
82 4473
82 4501
82 4778
82 4780
82 4812
82 4840
83 441
83 600
83 668
83 726
83 766
83 1061
83 1071
83 1079
83 1352
83 1437
83 1650
83 1665
83 1697
83 1801
83 1963
83 2665
83 2708
83 2782
83 2962
83 3181
83 3291
83 3302
83 3354
83 3367
83 3408
83 3416
83 3444
83 3596
83 3612
83 3658
83 3854
83 3969
83 3976
83 4039
83 4124
83 4244
83 4473
83 4510
84 299
84 516
84 1097
84 1126
84 1205
84 1236
84 1253
84 1295
84 1334
84 1341
84 1506
84 2112
84 2424
84 2863
84 2925
84 3199
84 3268
84 3399
84 3417
84 3583
84 3706
84 4125
85 341
85 378
85 934
85 951
85 966
85 1553
85 1756
85 1788
85 1841
85 2088
85 2190
85 2196
85 2495
85 2559
85 2793
85 2807
85 2910
85 3263
85 3384
85 3553
85 3810
85 3888
85 4064
85 4109
85 4219
85 4233
85 4484
85 4561
86 144
86 529
86 1319
86 1387
86 1431
86 1621
86 1679
86 1712
86 1738
86 2603
86 2860
86 2992
86 3004
86 3012
86 3070
86 3447
86 4242
86 4337
86 4767
86 4780
87 422
87 767
87 928
87 1013
87 1034
87 1316
87 1569
87 1839
87 1855
87 2090
87 2239
87 2747
87 3212
87 3392
87 4171
87 4398
87 4444
87 4604
87 4809
88 400
88 515
88 747
88 931
88 1179
88 1346
88 1659
88 2209
88 2342
88 2449
88 2558
88 2628
88 2630
88 2702
88 3284
88 3374
88 3434
88 3542
88 3732
88 3939
88 3990
88 4194
88 4199
88 4496
88 4805
89 169
89 410
89 991
89 1005
89 1309
89 1359
89 1579
89 1654
89 1730
89 2042
89 2059
89 2210
89 2260
89 2627
89 4063
89 4076
89 4390
89 4411
90 97
90 425
90 703
90 863
90 1546
90 1554
90 2276
90 2422
90 2471
90 2625
90 2874
90 2964
90 4009
90 4920
90 4962
91 895
91 1081
91 1102
91 1215
91 1315
91 1414
91 1598
91 1715
91 1801
91 1959
91 2190
91 3231
91 3651
91 3809
91 4424
91 4464
91 4882
92 93
92 212
92 588
92 748
92 752
92 1221
92 1530
92 1901
92 2043
92 2270
92 2593
92 2633
92 2756
92 2929
92 3733
92 3830
92 3854
92 4397
92 4520
92 4737
92 4935
93 145
93 227
93 447
93 722
93 853
93 877
93 942
93 1046
93 1192
93 1194
93 1208
93 1278
93 1696
93 1700
93 2052
93 2247
93 2341
93 2423
93 2433
93 2556
93 2702
93 2758
93 3132
93 3189
93 3208
93 3273
93 3741
93 4026
93 4081
93 4103
93 4297
93 4372
93 4378
93 4734
94 145
94 208
94 717
94 956
94 1678
94 1751
94 1848
94 2103
94 2602
94 2676
94 3932
94 4144
94 4257
94 4527
94 4768
95 204
95 328
95 435
95 496
95 881
95 995
95 1295
95 1494
95 1529
95 1666
95 1739
95 1745
95 2181
95 2512
95 3144
95 3422
95 3632
95 3660
95 3782
95 4190
95 4506
95 4601
96 241
96 338
96 372
96 540
96 997
96 1016
96 1026
96 1140
96 1378
96 1459
96 1498
96 2025
96 2071
96 2132
96 2143
96 2233
96 2237
96 2268
96 2327
96 2913
96 4432
96 4483
96 4532
96 4556
96 4878
96 4894
97 118
97 130
97 241
97 274
97 331
97 429
97 468
97 612
97 903
97 931
97 942
97 956
97 977
97 981
97 1018
97 1847
97 1905
97 2009
97 2092
97 2340
97 2360
97 2449
97 2627
97 2747
97 2866
97 3033
97 3144
97 3168
97 3226
97 3251
97 3330
97 3548
97 3635
97 3684
97 3776
97 3791
97 3816
97 3899
97 4155
97 4260
97 4305
97 4396
97 4849
97 4859
97 4939
98 356
98 538
98 878
98 1038
98 1149
98 1423
98 1440
98 1477
98 1722
98 1847
98 2108
98 2161
98 2217
98 2472
98 2538
98 2916
98 3100
98 3387
98 3412
98 3416
98 3524
98 3556
98 3648
98 3914
98 4565
98 4614
98 4788
98 4905
99 299
99 311
99 384
99 473
99 505
99 563
99 564
99 601
99 696
99 736
99 739
99 744
99 754
99 999
99 1100
99 1166
99 1261
99 1347
99 1359
99 1412
99 1474
99 1520
99 1528
99 1613
99 1629
99 1843
99 1951
99 2082
99 2123
99 2141
99 2204
99 2256
99 2260
99 2415
99 2557
99 2570
99 2790
99 2909
99 3070
99 3164
99 3203
99 3251
99 3257
99 3318
99 3396
99 3467
99 3492
99 3604
99 3741
99 3835
99 4019
99 4209
99 4272
99 4301
99 4326
99 4479
99 4639
99 4903
100 281
100 633
100 745
100 1161
100 1280
100 1347
100 1361
100 1572
100 1995
100 2466
100 2643
100 2754
100 3342
100 3484
100 3488
100 3598
100 3609
100 3646
100 3781
100 3815
100 3887
100 4157
100 4324
100 4361
100 4487
100 4489
100 4684
101 206
101 784
101 1008
101 1159
101 1529
101 1562
101 1635
101 1677
101 1690
101 1792
101 1907
101 1964
101 2392
101 2542
101 2872
101 3041
101 3293
101 3544
101 3651
101 3913
101 3957
102 391
102 395
102 444
102 461
102 540
102 614
102 626
102 649
102 1292
102 1566
102 1685
102 1844
102 2098
102 2197
102 2282
102 2602
102 2786
102 2872
102 3144
102 3571
102 3665
102 3779
102 3868
102 4046
102 4351
102 4388
102 4653
102 4970
103 147
103 243
103 252
103 447
103 953
103 955
103 964
103 984
103 1063
103 1117
103 1325
103 1396
103 1508
103 1554
103 1585
103 1587
103 1593
103 1615
103 1808
103 1815
103 1837
103 1897
103 1937
103 1941
103 1979
103 1981
103 2163
103 2232
103 2314
103 2375
103 2406
103 2574
103 2593
103 2673
103 2768
103 2863
103 2987
103 3039
103 3283
103 3284
103 3407
103 3619
103 3742
103 3785
103 3801
103 3892
103 3901
103 3939
103 3953
103 3979
103 3980
103 4047
103 4108
103 4267
103 4420
103 4450
103 4451
103 4458
103 4462
103 4502
103 4590
103 4666
103 4718
103 4918
103 4929
103 4940
104 169
104 362
104 443
104 827
104 1248
104 1904
104 2166
104 2304
104 2376
104 2404
104 2770
104 2828
104 2902
104 2939
104 3043
104 3099
104 3104
104 3212
104 3226
104 3233
104 3311
104 3448
104 3640
104 4120
104 4280
105 109
105 368
105 2095
105 2437
105 2596
105 2913
105 3325
105 3396
105 3482
105 3541
105 4067
105 4207
105 4410
105 4640
106 246
106 359
106 404
106 806
106 1057
106 1512
106 1961
106 1999
106 2135
106 2137
106 2310
106 2592
106 3190
106 3285
106 3898
106 3942
106 3967
106 4502
106 4589
107 271
107 375
107 1133
107 1281
107 1322
107 1531
107 1719
107 1731
107 1764
107 2191
107 2234
107 2415
107 2859
107 2988
107 3148
107 3294
107 3367
107 4389
107 4767
108 180
108 402
108 1219
108 1376
108 1711
108 2195
108 2332
108 2399
108 2545
108 2784
108 2960
108 3731
108 3799
108 4085
108 4273
109 559
109 648
109 664
109 876
109 1067
109 1105
109 1417
109 1619
109 2011
109 2461
109 2995
109 2998
109 3113
109 3527
109 3550
109 3749
109 3754
109 3772
109 3948
109 3991
109 4166
109 4395
110 188
110 727
110 746
110 951
110 1091
110 1205
110 1606
110 1710
110 1751
110 2092
110 2180
110 2721
110 3495
110 3928
110 4017
110 4082
110 4534
110 4764
111 378
111 429
111 1088
111 1258
111 1282
111 1561
111 1638
111 1905
111 1936
111 2015
111 2147
111 2614
111 2701
111 2798
111 2808
111 2961
111 3006
111 3746
111 3807
111 3824
111 3881
111 4532
111 4950
112 471
112 557
112 630
112 761
112 1147
112 1208
112 1259
112 1420
112 1558
112 2901
112 3222
112 3286
112 4575
112 4719
113 185
113 428
113 512
113 514
113 959
113 1296
113 1680
113 2019
113 2560
113 2899
113 2949
113 2969
113 3035
113 3072
113 3156
113 3193
113 3592
113 3624
113 3998
113 4021
113 4236
113 4600
113 4754
113 4773
114 502
114 632
114 973
114 1150
114 1169
114 1575
114 1767
114 2000
114 2034
114 2036
114 2328
114 2593
114 3144
114 3678
114 4475
115 152
115 180
115 194
115 549
115 1567
115 2150
115 2640
115 2791
115 2842
115 3840
115 3851
115 3898
115 3935
115 4188
115 4789
115 4812
116 232
116 414
116 511
116 1110
116 1124
116 1359
116 1531
116 1740
116 2126
116 2238
116 2468
116 2771
116 3095
116 3588
116 4167
116 4259
116 4291
116 4316
116 4474
116 4538
116 4540
116 4692
116 4982
117 255
117 380
117 459
117 707
117 730
117 888
117 903
117 966
117 1007
117 1169
117 1375
117 1454
117 1666
117 1980
117 2103
117 2174
117 2485
117 3235
117 3250
117 3731
117 4127
117 4201
117 4237
117 4335
117 4365
117 4802
117 4962
118 326
118 364
118 1199
118 1575
118 1863
118 2319
118 2565
118 2757
118 3313
118 3625
118 3879
118 4023
118 4159
118 4641
118 4782
119 170
119 226
119 243
119 466
119 829
119 2095
119 2293
119 2304
119 2727
119 3049
119 3149
119 3213
119 3548
119 3976
119 4009
119 4088
119 4785
120 240
120 667
120 1694
120 2083
120 2147
120 2337
120 2567
120 3377
120 3869
120 4071
120 4204
120 4380
120 4631
120 4660
121 443
121 445
121 675
121 847
121 850
121 978
121 1340
121 1362
121 1625
121 1692
121 1872
121 1883
121 1977
121 1986
121 2091
121 2105
121 2144
121 2370
121 2600
121 4044
121 4307
121 4462
121 4573
121 4626
122 574
122 580
122 738
122 1134
122 1356
122 2501
122 2885
122 2952
122 2960
122 3335
122 3753
122 3789
122 3848
122 4011
122 4174
122 4323
122 4468
122 4842
123 159
123 295
123 304
123 477
123 496
123 667
123 944
123 1658
123 2078
123 3192
123 3465
123 3657
123 3979
123 4202
123 4244
123 4272
123 4316
123 4770
124 149
124 186
124 300
124 337
124 635
124 806
124 1136
124 1376
124 1440
124 1445
124 1500
124 1625
124 2130
124 2703
124 2735
124 2805
124 2855
124 2954
124 3154
124 3877
124 3902
124 4472
125 415
125 605
125 832
125 837
125 1227
125 1278
125 2156
125 3009
125 3396
125 3412
125 3486
125 3647
125 4219
125 4278
125 4628
125 4661
126 195
126 215
126 233
126 662
126 723
126 1197
126 1321
126 2335
126 2504
126 2589
126 2861
126 2909
126 3222
126 3703
126 3722
126 3893
126 4064
127 140
127 376
127 501
127 664
127 1100
127 1486
127 1822
127 1862
127 2097
127 3087
127 3492
127 4079
127 4593
127 4749
128 469
128 494
128 601
128 798
128 977
128 1027
128 1057
128 1321
128 1693
128 1717
128 1880
128 2040
128 2191
128 2843
128 3018
128 3060
128 3326
128 3523
128 3628
128 3672
128 4051
128 4056
128 4305
128 4370
128 4437
128 4462
128 4664
129 421
129 575
129 700
129 785
129 995
129 1046
129 1061
129 1147
129 1457
129 1531
129 1596
129 1810
129 2311
129 2340
129 2574
129 2717
129 2738
129 2812
129 3206
129 3267
129 3916
129 3942
129 4060
129 4155
129 4159
129 4294
129 4607
129 4632
129 4811
129 4919
129 4930
130 159
130 1132
130 1146
130 1507
130 1579
130 1615
130 2379
130 4404
130 4500
130 4655
130 4790
131 195
131 246
131 388
131 1435
131 1520
131 1562
131 1704
131 1784
131 1791
131 2532
131 2933
131 3288
131 3571
131 3952
131 4038
131 4223
131 4936
132 1142
132 1318
132 1356
132 1368
132 1466
132 1955
132 1973
132 2036
132 2449
132 2467
132 2588
132 2614
132 2833
132 2901
132 3012
132 3582
132 3678
132 3986
132 4253
132 4283
132 4297
132 4588
132 4857
132 4943
132 4965
133 489
133 602
133 923
133 1085
133 1276
133 1509
133 1627
133 1881
133 2014
133 2315
133 2331
133 2851
133 2988
133 3085
133 3683
133 3699
133 3762
133 4034
133 4061
133 4064
133 4262
133 4438
133 4765
133 4866
134 169
134 635
134 641
134 806
134 860
134 1322
134 1572
134 1651
134 1683
134 1691
134 2475
134 2532
134 2579
134 2626
134 2799
134 3003
134 3438
134 3722
134 3820
134 3821
134 4206
134 4347
134 4746
134 4782
135 766
135 804
135 1333
135 1896
135 2024
135 2395
135 2479
135 2882
135 3054
135 3186
135 3404
135 3605
135 4038
135 4052
135 4430
135 4451
135 4906
135 4920
136 201
136 899
136 1636
136 2029
136 2098
136 2363
136 2538
136 2581
136 2603
136 2656
136 2753
136 2888
136 3076
136 3082
136 3144
136 3402
136 3945
136 3946
136 4034
136 4285
136 4342
136 4459
136 4633
136 4751
137 165
137 673
137 730
137 843
137 1028
137 1091
137 1185
137 1428
137 1548
137 1797
137 2199
137 2438
137 2491
137 2834
137 3010
137 3196
137 3328
137 3350
137 3554
137 3814
137 3860
137 4366
137 4493
137 4498
137 4922
138 262
138 396
138 1068
138 1343
138 1390
138 1428
138 1487
138 1492
138 1956
138 2528
138 2690
138 2716
138 3511
138 3546
138 4276
138 4341
138 4543
138 4570
138 4857
138 4888
139 157
139 529
139 807
139 810
139 1394
139 1549
139 1590
139 1723
139 1728
139 1898
139 2088
139 2268
139 2348
139 2443
139 2805
139 2863
139 3103
139 3144
139 3216
139 3302
140 968
140 1222
140 1343
140 1567
140 2118
140 3017
140 3381
140 3563
140 3689
140 3953
140 4000
140 4381
140 4387
140 4414
140 4434
140 4528
140 4578
140 4757
140 4874
141 459
141 819
141 980
141 1272
141 1588
141 1707
141 1936
141 2466
141 2624
141 2706
141 2709
141 2818
141 3343
141 3401
141 3533
141 3738
141 3975
141 4481
141 4970
142 277
142 648
142 711
142 784
142 913
142 1229
142 1483
142 1586
142 1826
142 1973
142 2040
142 2438
142 2487
142 2570
142 2687
142 2941
142 4207
142 4443
142 4648
142 4897
143 180
143 591
143 592
143 594
143 1255
143 1625
143 1870
143 2073
143 2156
143 2167
143 3433
143 4955
144 276
144 1499
144 1573
144 1614
144 2052
144 2192
144 2405
144 2625
144 3354
144 3555
144 3628
144 4482
144 4604
144 4844
145 645
145 769
145 981
145 992
145 1041
145 1114
145 1280
145 1450
145 1554
145 1644
145 1963
145 2071
145 2081
145 2196
145 2223
145 2257
145 2382
145 2421
145 2422
145 2581
145 2589
145 2607
145 2814
145 2888
145 3098
145 3430
145 3670
145 4255
145 4324
145 4344
145 4358
145 4621
145 4675
145 4871
145 4994
146 244
146 297
146 347
146 425
146 474
146 521
146 640
146 957
146 1284
146 1302
146 1310
146 1725
146 1738
146 2902
146 2996
146 3125
146 3227
146 3531
146 3721
146 3728
146 3884
146 4872
146 4953
147 176
147 597
147 618
147 684
147 918
147 973
147 1012
147 1040
147 1052
147 1082
147 1135
147 1152
147 1209
147 1342
147 1443
147 1516
147 1664
147 2060
147 2346
147 2461
147 2604
147 2865
147 2908
147 2935
147 3099
147 3241
147 3621
147 3691
147 3760
147 3804
147 4192
147 4244
147 4517
147 4796
147 4858
148 439
148 460
148 665
148 927
148 1044
148 1081
148 1233
148 1338
148 1413
148 1437
148 1952
148 1988
148 2044
148 2287
148 2366
148 2376
148 2496
148 2834
148 3252
148 3536
148 4361
148 4875
148 4978
149 180
149 241
149 259
149 432
149 801
149 1136
149 1378
149 1456
149 1895
149 2078
149 2228
149 2527
149 2605
149 2855
149 3164
149 3572
149 3861
149 4024
149 4415
149 4448
149 4883
150 371
150 1093
150 1390
150 1536
150 1835
150 1857
150 2430
150 2500
150 2545
150 2560
150 3540
150 3638
150 3903
150 3952
150 4110
150 4230
150 4271
150 4586
150 4735
150 4740
151 177
151 494
151 697
151 956
151 1823
151 2093
151 2312
151 2420
151 2627
151 3465
151 3615
151 3859
151 4075
151 4269
151 4469
151 4574
151 4643
151 4809
152 166
152 617
152 1504
152 1512
152 1539
152 1557
152 1562
152 2137
152 2408
152 2527
152 2555
152 2573
152 2606
152 2835
152 3054
152 3075
152 3898
152 3952
152 3985
152 4152
152 4416
152 4505
152 4565
152 4615
152 4947
153 191
153 511
153 960
153 992
153 1135
153 1420
153 1573
153 1625
153 1707
153 1760
153 1827
153 2507
153 2664
153 2885
153 3768
153 3942
153 4280
153 4458
153 4631
154 222
154 616
154 656
154 863
154 897
154 939
154 1035
154 1664
154 1719
154 1750
154 2007
154 2199
154 2272
154 2466
154 3032
154 3080
154 3375
154 3467
154 3654
154 3868
154 4108
154 4227
154 4406
154 4432
154 4516
154 4760
154 4962
155 273
155 510
155 768
155 804
155 871
155 888
155 1295
155 1336
155 1391
155 1505
155 1941
155 2807
155 2859
155 2863
155 2914
155 2969
155 3161
155 3243
155 3868
155 3893
155 4537
155 4655
155 4960
156 1178
156 1278
156 1286
156 1298
156 1874
156 2204
156 2385
156 2409
156 2459
156 2582
156 2746
156 2813
156 3285
156 3451
156 3655
156 3669
156 3820
156 4176
156 4214
156 4273
156 4372
156 4414
156 4420
156 4572
156 4605
156 4608
156 4662
156 4952
157 194
157 214
157 250
157 298
157 530
157 660
157 777
157 995
157 1097
157 1101
157 1404
157 1476
157 1590
157 1637
157 1672
157 1677
157 1685
157 1707
157 1733
157 1865
157 1996
157 2084
157 2219
157 2264
157 2602
157 2637
157 2776
157 2973
157 3064
157 3069
157 3144
157 3324
157 3413
157 3577
157 3636
157 3709
157 3733
157 3784
157 4174
157 4248
157 4343
157 4409
157 4653
157 4960
158 202
158 347
158 1183
158 1210
158 1228
158 1364
158 1522
158 1700
158 1749
158 1950
158 2086
158 2216
158 2286
158 2808
158 2847
158 3132
158 3967
158 4194
158 4642
158 4870
159 263
159 821
159 1270
159 1689
159 1834
159 1947
159 2395
159 2545
159 2777
159 3624
159 3769
159 3806
159 3919
159 4013
159 4359
159 4606
159 4669
159 4732
160 221
160 1770
160 1838
160 2392
160 2723
160 3294
160 3365
160 3411
160 3467
160 3504
160 3539
160 3810
160 4074
160 4106
160 4360
160 4490
160 4646
161 750
161 907
161 1104
161 1795
161 2055
161 2370
161 2461
161 2709
161 2772
161 2960
161 3223
161 3228
161 3239
161 3378
161 3658
161 3838
161 4207
161 4254
161 4365
161 4395
161 4812
161 4978
162 240
162 446
162 519
162 666
162 711
162 1097
162 1184
162 1268
162 1691
162 2534
162 2951
162 2960
162 3073
162 3106
162 3817
162 4084
162 4207
162 4427
162 4617
162 4853
163 233
163 497
163 572
163 763
163 1058
163 1270
163 1468
163 1486
163 1549
163 2473
163 2747
163 2789
163 2892
163 2999
163 3068
163 3484
163 3595
163 3610
163 4006
163 4024
163 4153
163 4639
163 4753
163 4815
163 4844
164 203
164 267
164 349
164 392
164 486
164 516
164 601
164 633
164 753
164 811
164 827
164 831
164 881
164 989
164 1277
164 1390
164 1418
164 1530
164 1554
164 1649
164 1742
164 1822
164 1827
164 2077
164 2185
164 2196
164 2578
164 2711
164 2969
164 3209
164 3341
164 3374
164 3871
164 3980
164 4003
164 4149
164 4264
164 4348
164 4399
164 4407
164 4427
164 4445
164 4527
164 4530
164 4590
164 4599
164 4658
164 4991
165 471
165 922
165 1006
165 1039
165 1554
165 1625
165 1679
165 1686
165 1842
165 2382
165 2527
165 2834
165 2869
165 3027
165 3382
165 4092
165 4220
165 4611
165 4968
166 174
166 262
166 1563
166 2828
166 2955
166 3196
166 3703
166 3884
166 4338
166 4370
166 4539
166 4551
166 4888
167 174
167 409
167 802
167 1602
167 2089
167 2327
167 2853
167 2922
167 2982
167 3031
167 3179
167 3605
167 4067
167 4090
167 4420
168 169
168 369
168 500
168 650
168 809
168 850
168 901
168 1000
168 1157
168 1177
168 1272
168 1369
168 1473
168 1499
168 1504
168 1659
168 1676
168 1748
168 1877
168 1965
168 2132
168 2189
168 2345
168 2563
168 2588
168 2611
168 2692
168 2858
168 3458
168 3500
168 3617
168 3872
168 4115
168 4161
168 4389
168 4427
168 4693
168 4945
169 219
169 469
169 488
169 822
169 1006
169 1217
169 1385
169 1763
169 1770
169 1869
169 2080
169 2090
169 2092
169 2118
169 2166
169 2185
169 2187
169 2627
169 2787
169 2966
169 3009
169 3100
169 3142
169 3153
169 3181
169 3185
169 3333
169 3412
169 3428
169 3506
169 3570
169 3667
169 3785
169 3804
169 3998
169 4050
169 4073
169 4085
169 4291
169 4655
169 4923
170 196
170 420
170 513
170 515
170 662
170 683
170 1551
170 2264
170 2312
170 2446
170 2684
170 2728
170 2741
170 3006
170 3202
170 3318
170 3400
170 3643
170 3703
170 3776
170 3846
170 3893
170 3950
170 3968
170 3985
170 4070
170 4170
170 4189
170 4359
170 4392
170 4410
170 4517
170 4765
170 4844
171 305
171 327
171 535
171 647
171 787
171 962
171 1141
171 1214
171 2010
171 2167
171 2188
171 2576
171 2638
171 2959
171 2960
171 3136
171 3221
171 3246
171 3771
171 3880
171 3932
171 4241
171 4744
171 4890
172 291
172 665
172 762
172 786
172 1299
172 1448
172 1972
172 2176
172 2695
172 4347
172 4389
172 4410
172 4543
172 4612
172 4806
172 4930
173 296
173 390
173 603
173 626
173 720
173 810
173 1319
173 1371
173 1483
173 1504
173 1692
173 1923
173 2086
173 2661
173 3132
173 3471
173 3553
173 3753
173 3768
173 3802
173 4401
173 4421
173 4442
173 4614
174 577
174 776
174 869
174 1093
174 1213
174 1215
174 1265
174 1902
174 2379
174 2534
174 2590
174 2638
174 2849
174 2903
174 2974
174 3166
174 3746
174 3810
174 4110
174 4251
174 4543
175 216
175 619
175 773
175 1040
175 1290
175 1366
175 1688
175 1734
175 2228
175 2453
175 2766
175 3004
175 3311
175 3409
175 3714
175 3902
175 4290
175 4551
175 4628
175 4774
175 4840
175 4878
175 4923
175 4955
176 451
176 677
176 831
176 865
176 904
176 938
176 959
176 1246
176 1296
176 1476
176 1559
176 1599
176 1862
176 2277
176 2577
176 2681
176 3541
176 4106
176 4166
176 4491
176 4560
176 4931
176 4962
177 277
177 887
177 919
177 1400
177 1563
177 1662
177 2181
177 2297
177 2312
177 2757
177 3226
177 3598
177 3729
177 3826
177 4019
177 4524
177 4866
177 4884
177 4949
177 4950
178 244
178 367
178 432
178 447
178 476
178 506
178 664
178 666
178 876
178 883
178 1149
178 1292
178 1403
178 1478
178 1537
178 1602
178 1767
178 2155
178 2186
178 2269
178 2451
178 2541
178 2814
178 3280
178 3789
178 3947
178 4200
178 4296
178 4306
178 4310
178 4317
178 4318
178 4393
178 4414
178 4448
178 4502
178 4839
178 4985
179 203
179 318
179 402
179 622
179 634
179 635
179 729
179 948
179 1324
179 1616
179 2178
179 2198
179 2262
179 2317
179 2432
179 2669
179 2671
179 2933
179 3171
179 3663
179 4100
179 4143
179 4180
179 4345
180 337
180 612
180 765
180 1452
180 1726
180 2186
180 2228
180 2271
180 2348
180 2665
180 2853
180 2922
180 2960
180 3242
180 4026
180 4403
180 4482
180 4494
180 4535
181 435
181 470
181 792
181 798
181 1079
181 1106
181 1147
181 1261
181 1312
181 1316
181 1347
181 1372
181 1377
181 1595
181 1631
181 1749
181 1836
181 1884
181 2082
181 2180
181 2274
181 2527
181 2543
181 2628
181 3018
181 3091
181 3119
181 3126
181 3203
181 3265
181 3521
181 3536
181 3631
181 3681
181 3714
181 3768
181 4005
181 4088
181 4225
181 4378
181 4407
181 4425
181 4429
181 4448
181 4519
181 4582
181 4744
181 4988
182 795
182 918
182 1011
182 1341
182 1574
182 2222
182 2733
182 2808
182 2815
182 3043
182 3104
182 3382
182 4025
182 4047
182 4070
182 4178
182 4477
182 4653
182 4931
183 261
183 364
183 562
183 636
183 685
183 695
183 726
183 758
183 759
183 851
183 1307
183 1478
183 1567
183 2015
183 2063
183 2065
183 2124
183 2425
183 2426
183 2508
183 2572
183 2672
183 2752
183 3055
183 3219
183 3263
183 3333
183 3433
183 3699
183 3713
183 3809
183 3854
183 3881
183 4145
183 4251
183 4285
183 4646
183 4661
183 4812
183 4991
184 511
184 552
184 1882
184 2089
184 2572
184 2617
184 2634
184 3381
184 3518
184 3622
184 3760
184 3800
184 4068
185 330
185 519
185 589
185 840
185 1207
185 1281
185 1409
185 1604
185 1777
185 1926
185 1931
185 2130
185 2189
185 2343
185 2411
185 2729
185 2759
185 2821
185 2885
185 3392
185 3466
185 3593
185 3933
185 4189
185 4455
185 4859
185 4890
186 197
186 212
186 320
186 343
186 582
186 592
186 689
186 700
186 707
186 748
186 885
186 905
186 937
186 1060
186 1140
186 1201
186 1207
186 1267
186 1375
186 1635
186 1663
186 1785
186 1817
186 1900
186 1924
186 1943
186 2174
186 2181
186 2186
186 2189
186 2252
186 2257
186 2328
186 2351
186 2354
186 2380
186 2384
186 2417
186 2436
186 2599
186 2618
186 2663
186 2691
186 2707
186 2721
186 3099
186 3103
186 3116
186 3119
186 3173
186 3361
186 3461
186 3637
186 3660
186 3678
186 3679
186 3722
186 3731
186 3789
186 3950
186 4027
186 4286
186 4357
186 4419
186 4480
186 4502
186 4511
186 4539
186 4562
186 4707
186 4879
187 605
187 612
187 2086
187 2399
187 2467
187 2706
187 2713
187 2770
187 2906
187 2957
187 3018
187 3054
187 3577
187 3696
187 3848
187 4345
187 4748
187 4825
188 215
188 389
188 578
188 597
188 761
188 955
188 1485
188 1537
188 1663
188 1804
188 1805
188 1911
188 1958
188 1965
188 2210
188 2310
188 2312
188 2352
188 2392
188 2639
188 2736
188 2785
188 2847
188 2865
188 3014
188 3083
188 3161
188 3260
188 3314
188 3378
188 3825
188 3928
188 3992
188 4075
188 4192
188 4353
188 4488
188 4523
188 4623
188 4788
188 4806
188 4889
189 226
189 579
189 919
189 996
189 1434
189 1514
189 1598
189 1972
189 2075
189 2225
189 2400
189 2589
189 2615
189 2715
189 2986
189 3083
189 3421
189 3785
189 3824
189 3892
189 4013
189 4495
189 4520
189 4603
189 4773
189 4987
190 296
190 701
190 732
190 1138
190 1179
190 2328
190 2492
190 2502
190 2560
190 3028
190 3281
190 3594
190 3868
190 4120
190 4439
190 4591
191 476
191 498
191 898
191 919
191 955
191 957
191 1135
191 1238
191 1409
191 1420
191 1432
191 1595
191 1743
191 1889
191 1918
191 1946
191 1953
191 2054
191 2149
191 2247
191 2426
191 2783
191 3067
191 3091
191 3096
191 3178
191 3205
191 3258
191 3289
191 3549
191 3829
191 4023
191 4052
191 4283
191 4286
191 4290
191 4299
191 4318
191 4419
191 4492
191 4579
191 4637
191 4707
191 4735
191 4777
191 4795
192 327
192 396
192 568
192 633
192 694
192 1665
192 1712
192 1871
192 2292
192 2408
192 2569
192 3113
192 3202
192 4071
192 4079
192 4095
192 4130
192 4551
193 258
193 287
193 696
193 1115
193 1156
193 1161
193 1248
193 1582
193 1583
193 1604
193 1779
193 2462
193 2782
193 2803
193 2911
193 2928
193 3102
193 3178
193 3385
193 3459
193 3596
193 3990
193 4007
193 4440
194 843
194 1178
194 1270
194 1319
194 2511
194 2782
194 3003
194 3329
194 3389
194 3396
194 4283
194 4348
194 4566
194 4885
195 501
195 756
195 1412
195 2177
195 2226
195 2280
195 2773
195 2979
195 3875
195 4283
195 4550
195 4585
196 367
196 853
196 1196
196 1238
196 1414
196 1420
196 1436
196 1825
196 2186
196 2624
196 2626
196 3636
196 3669
196 3767
196 3820
196 4180
196 4235
196 4259
196 4328
196 4919
196 4944
197 941
197 1050
197 1439
197 1899
197 2161
197 2320
197 2472
197 2604
197 3098
197 3135
197 3213
197 3265
197 3301
197 4366
198 237
198 245
198 248
198 291
198 425
198 513
198 572
198 641
198 649
198 739
198 983
198 1255
198 1286
198 1320
198 1527
198 1905
198 2198
198 2357
198 2372
198 2382
198 2452
198 2599
198 2771
198 3299
198 3336
198 3446
198 3482
198 3576
198 3588
198 3693
198 4510
198 4541
198 4569
198 4575
198 4688
198 4832
198 4875
199 684
199 777
199 884
199 916
199 1154
199 1215
199 1355
199 1773
199 2031
199 2040
199 2592
199 2618
199 2686
199 2786
199 2915
199 3076
199 3549
199 4156
199 4165
199 4169
199 4251
199 4262
199 4778
199 4793
199 4923
200 230
200 338
200 437
200 550
200 705
200 744
200 749
200 755
200 953
200 1258
200 1280
200 1300
200 1304
200 1426
200 1495
200 1531
200 1560
200 1573
200 1610
200 1674
200 1709
200 1771
200 1808
200 1844
200 1880
200 1893
200 1954
200 1999
200 2208
200 2211
200 2286
200 2321
200 2331
200 2354
200 2448
200 2568
200 2571
200 2719
200 2731
200 2754
200 2780
200 2939
200 3127
200 3154
200 3216
200 3250
200 3263
200 3389
200 3397
200 3472
200 3488
200 3513
200 3516
200 3585
200 3609
200 3839
200 3898
200 4029
200 4113
200 4142
200 4258
200 4415
200 4481
200 4526
200 4534
200 4537
200 4724
200 4893
201 1189
201 1231
201 1477
201 1648
201 1834
201 1845
201 1926
201 1964
201 2023
201 2242
201 2306
201 2466
201 2525
201 3013
201 3196
201 3255
201 3399
201 3508
201 3586
201 3953
201 4108
201 4843
201 4962
201 4972
201 4996
202 576
202 942
202 1762
202 2062
202 2155
202 2279
202 2307
202 2347
202 2433
202 2563
202 2590
202 2598
202 2691
202 2696
202 3128
202 3469
202 3775
202 3851
202 3964
202 4244
202 4661
202 4733
202 4753
203 402
203 607
203 704
203 905
203 1279
203 1624
203 1665
203 1905
203 2181
203 2306
203 2799
203 3261
203 3636
203 3820
203 4077
203 4122
203 4133
203 4262
204 241
204 480
204 589
204 818
204 825
204 852
204 1093
204 1296
204 1354
204 1498
204 1536
204 1705
204 2240
204 2274
204 2297
204 2545
204 2595
204 2598
204 2601
204 3148
204 3235
204 3245
204 3362
204 3638
204 3894
204 3972
204 4120
204 4165
204 4253
204 4300
204 4314
204 4382
204 4625
204 4786
204 4909
204 4923
204 4974
205 290
205 424
205 596
205 672
205 678
205 874
205 1008
205 1110
205 1254
205 1552
205 1625
205 1661
205 1668
205 1669
205 1810
205 1839
205 1877
205 2065
205 2284
205 2316
205 2468
205 2534
205 2537
205 2641
205 2693
205 2707
205 2749
205 2758
205 2865
205 3243
205 3379
205 3621
205 3683
205 3769
205 3808
205 3821
205 3823
205 3941
205 4149
205 4159
205 4210
205 4296
205 4413
205 4457
205 4604
205 4707
205 4726
205 4769
205 4926
206 594
206 1649
206 1658
206 2113
206 2553
206 2819
206 3427
206 3449
206 3581
206 3596
206 3633
206 4273
206 4625
206 4751
207 296
207 513
207 973
207 1097
207 1190
207 1341
207 1625
207 1676
207 1945
207 2957
207 3002
207 3199
207 3241
207 3273
207 3475
207 3718
207 3978
207 4445
207 4449
207 4530
207 4692
207 4962
208 322
208 635
208 923
208 1096
208 1099
208 1585
208 1749
208 2027
208 2310
208 2387
208 2676
208 2900
208 3106
208 3206
208 3278
208 3554
208 3680
208 3749
208 3826
209 304
209 452
209 484
209 529
209 563
209 574
209 792
209 912
209 1062
209 1326
209 1380
209 1382
209 1406
209 1648
209 1973
209 2001
209 2094
209 2374
209 2495
209 2612
209 2649
209 2732
209 2760
209 2782
209 2833
209 2937
209 2991
209 3105
209 3154
209 3202
209 3283
209 3359
209 3406
209 3460
209 3545
209 3736
209 3872
209 3887
209 3890
209 3897
209 4179
209 4188
209 4204
209 4286
209 4447
209 4490
209 4521
209 4560
209 4566
209 4584
209 4660
209 4679
209 4744
209 4838
209 4985
210 236
210 341
210 495
210 508
210 812
210 998
210 1522
210 1532
210 1536
210 1839
210 1936
210 1939
210 1973
210 2028
210 2078
210 2130
210 2137
210 2276
210 2415
210 2519
210 2552
210 2906
210 2963
210 3030
210 3195
210 3354
210 3373
210 3421
210 3648
210 3720
210 3810
210 3950
210 4064
210 4164
210 4223
210 4230
210 4593
211 235
211 469
211 499
211 815
211 863
211 1206
211 1403
211 1569
211 1614
211 1684
211 1721
211 1953
211 2035
211 2148
211 2519
211 2905
211 2926
211 3098
211 3226
211 3945
211 4078
211 4182
211 4233
211 4395
211 4438
211 4524
211 4749
212 328
212 463
212 935
212 1079
212 1247
212 1316
212 1689
212 1694
212 1945
212 2192
212 2376
212 2455
212 2522
212 2564
212 2865
212 3024
212 3065
212 3079
212 3208
212 3232
212 3465
212 4095
212 4248
212 4272
212 4297
212 4551
213 727
213 1168
213 1180
213 1220
213 1231
213 1657
213 2462
213 2595
213 3110
213 3426
213 4067
213 4398
213 4813
213 4986
214 222
214 434
214 600
214 1073
214 1140
214 1198
214 1228
214 1503
214 1670
214 2358
214 3027
214 3142
214 3555
214 3858
214 4019
214 4355
214 4806
214 4838
214 4875
215 436
215 536
215 575
215 783
215 788
215 882
215 1882
215 1891
215 1980
215 2158
215 2418
215 2436
215 2995
215 3462
215 3980
215 4159
215 4245
215 4266
215 4512
216 237
216 339
216 388
216 475
216 649
216 698
216 739
216 773
216 854
216 870
216 906
216 1117
216 1169
216 1237
216 1266
216 1285
216 1303
216 1327
216 1374
216 1392
216 1395
216 1511
216 1527
216 1555
216 1619
216 1761
216 1794
216 1919
216 1954
216 1994
216 2148
216 2259
216 2357
216 2391
216 2414
216 2468
216 2507
216 2577
216 2642
216 2809
216 2950
216 3030
216 3085
216 3154
216 3265
216 3301
216 3304
216 3468
216 3489
216 3498
216 3524
216 3559
216 3888
216 3897
216 3906
216 3955
216 3965
216 4210
216 4306
216 4340
216 4429
216 4482
216 4510
216 4538
216 4541
216 4643
216 4666
216 4713
216 4785
216 4875
216 4878
216 4909
216 4999
217 505
217 888
217 1178
217 1312
217 1448
217 1455
217 2053
217 2198
217 2209
217 2286
217 2382
217 2495
217 2523
217 2649
217 2663
217 2762
217 2910
217 3230
217 3361
217 3469
217 3848
217 3865
217 3868
217 3980
217 3982
217 4060
217 4137
217 4221
217 4878
218 232
218 505
218 571
218 787
218 1170
218 1237
218 1262
218 1714
218 1891
218 1919
218 2148
218 2343
218 2424
218 2518
218 2771
218 2796
218 3178
218 3536
218 3799
218 3835
218 3889
218 3900
218 4340
218 4566
218 4607
218 4658
218 4759
219 488
219 530
219 1206
219 1287
219 1497
219 1549
219 1665
219 2084
219 2227
219 2473
219 2725
219 3383
219 3673
219 4336
219 4608
219 4646
220 258
220 283
220 501
220 1034
220 1106
220 1129
220 1216
220 1285
220 1658
220 1671
220 1960
220 1967
220 2082
220 2940
220 3714
220 3903
220 3937
220 4030
220 4216
220 4218
220 4272
220 4777
221 496
221 992
221 1241
221 1575
221 1611
221 1722
221 1743
221 1964
221 2462
221 2542
221 2872
221 3284
221 3333
221 3526
221 3528
221 4464
221 4649
221 4840
222 329
222 344
222 873
222 1207
222 1295
222 1490
222 1511
222 1913
222 1914
222 2064
222 2128
222 2286
222 2374
222 2431
222 2584
222 3324
222 3485
222 4130
222 4319
222 4559
222 4857
223 416
223 479
223 596
223 659
223 798
223 811
223 1097
223 1393
223 1585
223 1749
223 1794
223 1984
223 2117
223 2641
223 3345
223 3473
223 3558
223 4143
223 4717
224 384
224 1298
224 1693
224 1834
224 2027
224 2462
224 2948
224 3215
224 3241
224 3308
224 3354
224 3381
224 3596
224 3653
224 4559
224 4843
224 4942
225 300
225 327
225 821
225 1166
225 1184
225 1325
225 1726
225 1889
225 2123
225 2578
225 2650
225 2899
225 3339
225 3417
225 4032
225 4055
225 4182
225 4290
225 4920
226 513
226 571
226 966
226 1685
226 2052
226 2060
226 2277
226 2382
226 2412
226 2486
226 2634
226 3160
226 4051
226 4657
226 4673
227 300
227 883
227 1119
227 1367
227 1438
227 1599
227 2760
227 2954
227 3006
227 3084
227 3290
227 4306
228 957
228 1003
228 1352
228 1441
228 1629
228 1728
228 1910
228 2245
228 2256
228 2303
228 2628
228 2803
228 3310
228 3336
228 3492
228 3644
228 3659
228 3709
228 4187
228 4412
228 4640
228 4903
228 4961
229 685
229 819
229 1066
229 1238
229 1299
229 1413
229 1585
229 1805
229 2179
229 2508
229 2630
229 2805
229 3451
229 3603
229 3636
229 3799
229 3806
229 4245
229 4347
229 4581
230 281
230 840
230 1091
230 1179
230 1261
230 1280
230 1300
230 1394
230 1504
230 1624
230 1674
230 1684
230 1880
230 1949
230 2216
230 2286
230 2321
230 2331
230 2405
230 2754
230 2840
230 2910
230 3516
230 3657
230 3831
230 3983
230 4067
230 4121
230 4126
230 4142
230 4258
230 4363
230 4365
230 4560
230 4724
230 4858
231 296
231 328
231 644
231 1015
231 1097
231 1131
231 1380
231 1619
231 1930
231 2281
231 2340
231 2373
231 2419
231 2924
231 3050
231 3254
231 3325
231 3708
231 4035
231 4084
231 4321
231 4395
231 4429
231 4891
232 469
232 653
232 691
232 725
232 833
232 1111
232 1266
232 2028
232 2310
232 2319
232 2468
232 2539
232 2871
232 3067
232 3217
232 3301
232 3388
232 3515
232 3590
232 3744
232 3756
232 4285
232 4289
232 4424
232 4505
232 4510
232 4614
233 236
233 269
233 323
233 662
233 1236
233 1433
233 1457
233 1468
233 1529
233 1600
233 1886
233 2473
233 2597
233 2721
233 2789
233 2823
233 3070
233 3107
233 3243
233 3800
233 4133
233 4619
233 4734
234 350
234 881
234 964
234 1051
234 1625
234 1731
234 1879
234 2007
234 2019
234 3225
234 3364
234 3748
234 4070
234 4340
234 4500
235 632
235 778
235 925
235 927
235 1513
235 1952
235 2292
235 2312
235 3078
235 3104
235 3226
235 3276
235 3980
235 4291
235 4441
236 350
236 552
236 883
236 1872
236 2003
236 2164
236 2191
236 2291
236 2332
236 2403
236 2415
236 2998
236 3452
236 3541
236 3561
236 3785
236 3894
236 4109
236 4191
236 4197
236 4600
236 4749
236 4822
237 739
237 1045
237 1266
237 1374
237 1918
237 2156
237 2391
237 2445
237 2553
237 2710
237 2809
237 2936
237 2960
237 3195
237 3533
237 3652
237 4142
237 4306
237 4529
237 4727
238 336
238 611
238 989
238 1178
238 2109
238 2284
238 2602
238 2693
238 3180
238 3526
238 4192
238 4360
238 4452
238 4857
239 327
239 373
239 733
239 810
239 1869
239 2049
239 2359
239 2418
239 2542
239 2762
239 3463
239 3841
239 4238
239 4350
239 4558
239 4986
240 448
240 452
240 484
240 503
240 855
240 939
240 1034
240 1035
240 1062
240 1084
240 1169
240 1408
240 1532
240 1661
240 1729
240 1764
240 1880
240 1933
240 2008
240 2170
240 2429
240 2635
240 2791
240 2925
240 3299
240 3545
240 3840
240 3879
240 3882
240 3976
240 4075
240 4208
240 4239
240 4334
240 4380
240 4501
240 4552
240 4555
240 4566
240 4584
240 4945
241 687
241 764
241 827
241 966
241 1227
241 1730
241 2077
241 4231
241 4784
241 4805
242 381
242 794
242 1636
242 1760
242 1882
242 2027
242 2055
242 2073
242 2227
242 2261
242 2410
242 2596
242 2940
242 3207
242 3724
242 3964
242 4307
242 4324
242 4428
242 4840
242 4998
243 284
243 544
243 748
243 786
243 948
243 1008
243 1077
243 1095
243 1113
243 1266
243 1362
243 1383
243 1618
243 1834
243 1983
243 2106
243 2192
243 2306
243 2318
243 2578
243 2637
243 2694
243 2793
243 2913
243 3264
243 3464
243 3631
243 3783
243 4055
243 4061
243 4118
243 4414
243 4638
243 4651
243 4854
243 4968
244 406
244 702
244 919
244 1113
244 1135
244 1557
244 1797
244 1990
244 2025
244 2097
244 2318
244 2441
244 3540
244 4664
244 4690
244 4692
244 4757
244 4889
244 4972
245 403
245 622
245 629
245 707
245 778
245 1275
245 1566
245 1703
245 1721
245 1968
245 2124
245 2415
245 2497
245 2612
245 2729
245 2737
245 2755
245 3021
245 3486
245 3498
245 3712
245 3856
245 3873
245 3932
245 3944
245 4008
245 4100
245 4629
245 4952
246 1206
246 1549
246 1578
246 1925
246 2084
246 2162
246 2305
246 2507
246 2621
246 3222
246 3268
246 3335
246 3608
246 4018
246 4242
246 4448
246 4450
246 4616
246 4812
246 4845
247 1019
247 1292
247 1435
247 1624
247 1895
247 2048
247 2234
247 2237
247 2648
247 2759
247 3166
247 4118
247 4215
247 4263
247 4501
247 4885
247 4891
247 4929
248 374
248 378
248 439
248 544
248 552
248 927
248 957
248 1125
248 1238
248 2491
248 2799
248 2834
248 2863
248 2896
248 2966
248 3013
248 3076
248 3294
248 3482
248 3732
248 4092
248 4634
249 276
249 333
249 539
249 832
249 1043
249 1080
249 1393
249 1614
249 2117
249 2787
249 2816
249 3892
249 4114
249 4387
249 4540
249 4580
249 4608
250 303
250 327
250 428
250 429
250 650
250 792
250 1184
250 1434
250 2030
250 2119
250 2570
250 2623
250 2988
250 3265
250 3638
250 3762
250 3824
250 4315
250 4374
250 4440
250 4575
250 4809
251 363
251 1299
251 1310
251 1425
251 1881
251 2009
251 2046
251 2201
251 2324
251 3043
251 3078
251 3215
251 3264
251 3647
251 3802
251 3942
251 4093
251 4205
251 4264
251 4390
252 301
252 389
252 447
252 494
252 601
252 719
252 1193
252 1234
252 1654
252 1680
252 1819
252 2066
252 2376
252 2755
252 3323
252 4214
252 4480
252 4580
253 309
253 743
253 1116
253 1303
253 1654
253 1908
253 1965
253 2159
253 2408
253 2410
253 2923
253 2936
253 2962
253 3064
253 3469
253 3596
253 3644
253 3849
253 4988
254 501
254 555
254 643
254 916
254 935
254 940
254 960
254 1337
254 1955
254 2234
254 2265
254 2585
254 2647
254 2698
254 2714
254 2786
254 2896
254 2962
254 3127
254 3347
254 3626
254 3712
254 3764
254 3850
254 4275
254 4354
254 4362
254 4466
254 4500
254 4524
254 4613
254 4866
254 4894
254 4918
255 395
255 443
255 735
255 788
255 1141
255 1348
255 1628
255 1636
255 1657
255 1664
255 2462
255 2490
255 2901
255 3607
255 4755
256 522
256 898
256 932
256 1039
256 1322
256 1909
256 1985
256 2057
256 2070
256 2176
256 2590
256 2591
256 2635
256 2711
256 2838
256 3101
256 3193
256 3298
256 3923
256 4300
256 4407
256 4872
256 4880
257 651
257 901
257 1365
257 2135
257 2174
257 3062
257 3449
257 3472
257 3487
257 3758
257 3953
257 4035
257 4941
257 4980
258 414
258 826
258 1270
258 1276
258 1461
258 1478
258 1779
258 2096
258 2383
258 2576
258 2610
258 3020
258 3433
258 3622
258 3768
258 3820
258 4062
259 271
259 561
259 621
259 879
259 1122
259 1161
259 1309
259 1586
259 1588
259 1718
259 1742
259 1979
259 2030
259 2149
259 2644
259 2820
259 2893
259 2925
259 3314
259 3413
259 3528
259 4026
259 4093
259 4299
259 4858
260 615
260 975
260 1285
260 1321
260 1663
260 1675
260 1781
260 2132
260 2882
260 3328
260 3335
260 3449
260 3535
260 3785
260 4064
260 4087
260 4100
260 4585
261 835
261 1270
261 1320
261 1498
261 1712
261 2058
261 2308
261 2356
261 2425
261 2490
261 2889
261 2933
261 3596
261 3675
261 3794
261 3967
261 4319
261 4344
261 4559
261 4753
261 4835
262 370
262 723
262 1365
262 1551
262 1680
262 2682
262 2716
262 2815
262 3202
262 3470
262 3901
262 4142
262 4373
262 4386
262 4949
262 4975
263 328
263 1242
263 1327
263 1703
263 2013
263 2170
263 2244
263 2409
263 2657
263 2883
263 3507
263 3822
263 3919
263 4120
263 4230
263 4490
263 4856
264 317
264 407
264 604
264 701
264 744
264 753
264 798
264 1046
264 1449
264 1629
264 2279
264 2522
264 2816
264 3457
264 3500
264 4523
264 4557
265 350
265 380
265 487
265 830
265 929
265 1248
265 1361
265 1398
265 1543
265 1601
265 1935
265 2425
265 2454
265 2459
265 2683
265 2743
265 3060
265 3200
265 3281
265 3295
265 3552
265 3757
265 3948
265 4350
265 4357
265 4758
265 4912
266 816
266 850
266 1609
266 1841
266 1860
266 2096
266 2117
266 2270
266 2355
266 2415
266 2471
266 2530
266 2940
266 3113
266 3826
266 3839
266 3978
266 4045
266 4409
266 4567
266 4851
267 471
267 571
267 1002
267 1390
267 1444
267 1594
267 1815
267 1884
267 1913
267 2136
267 2401
267 2459
267 2979
267 3177
267 3491
267 3519
267 3636
267 3829
267 4242
267 4527
267 4565
267 4600
267 4734
267 4856
268 574
268 1126
268 1206
268 1518
268 1644
268 1931
268 2115
268 2291
268 2436
268 2484
268 2519
268 2964
268 3797
268 3991
268 4295
269 865
269 1204
269 1613
269 1819
269 2408
269 2518
269 2551
269 2901
269 3596
269 3613
269 4603
269 4634
269 4702
269 4829
269 4957
269 4962
270 438
270 516
270 722
270 974
270 1175
270 1226
270 1369
270 1862
270 1930
270 2291
270 2324
270 2372
270 2650
270 2896
270 2933
270 3117
270 3762
270 3806
270 4204
270 4232
270 4241
270 4386
270 4530
270 4657
271 506
271 728
271 1027
271 1036
271 1097
271 1381
271 1506
271 1616
271 1665
271 1700
271 1733
271 1895
271 2358
271 2462
271 2615
271 2736
271 2819
271 3354
271 3564
271 3583
271 3963
271 4324
271 4415
271 4489
271 4630
271 4690
272 391
272 451
272 920
272 942
272 1037
272 1425
272 1533
272 1629
272 1702
272 1924
272 2496
272 2746
272 3017
272 3648
272 3822
272 4050
272 4303
272 4625
272 4707
272 4838
273 424
273 453
273 620
273 698
273 739
273 828
273 1296
273 1927
273 1979
273 2172
273 2406
273 2479
273 2687
273 2847
273 2865
273 3223
273 3229
273 4137
273 4333
273 4428
273 4441
273 4510
273 4763
273 4776
273 4959
273 4980
274 301
274 546
274 1052
274 1794
274 1892
274 2627
274 2852
274 2930
274 3075
274 3574
274 3717
274 4336
274 4337
275 409
275 468
275 501
275 1174
275 1410
275 1489
275 1545
275 1679
275 2102
275 2637
275 3126
275 3196
275 3301
275 3775
275 4148
275 4329
275 4508
275 4657
276 405
276 683
276 737
276 868
276 1229
276 2382
276 2811
276 2885
276 2959
276 3227
276 3263
276 3332
276 3770
276 4059
276 4112
276 4312
276 4354
276 4414
277 402
277 450
277 456
277 506
277 747
277 1504
277 1876
277 2001
277 2067
277 2081
277 2088
277 2283
277 2419
277 2505
277 2676
277 3043
277 3051
277 3104
277 3387
277 3524
277 3813
277 3984
277 4062
277 4472
278 359
278 609
278 894
278 895
278 947
278 1006
278 1056
278 1528
278 1540
278 1666
278 2321
278 2444
278 2617
278 2730
278 2999
278 3256
278 3274
278 3521
278 3731
278 4300
278 4563
279 314
279 325
279 383
279 678
279 702
279 841
279 990
279 1002
279 1142
279 1328
279 1334
279 1348
279 1443
279 1505
279 1644
279 1922
279 2416
279 2613
279 2736
279 3026
279 3082
279 3093
279 3233
279 3474
279 3572
279 3881
279 4444
279 4599
279 4757
279 4763
280 381
280 445
280 801
280 860
280 1068
280 1249
280 1262
280 1521
280 1541
280 1544
280 2073
280 2203
280 2338
280 2528
280 2687
280 2863
280 2900
280 3156
280 3388
280 4128
280 4235
280 4406
280 4428
280 4664
281 322
281 357
281 384
281 434
281 512
281 612
281 744
281 1101
281 1196
281 1201
281 1230
281 1290
281 1300
281 1456
281 1557
281 1573
281 1602
281 1729
281 2208
281 2286
281 2322
281 2850
281 2937
281 3026
281 3155
281 3260
281 3513
281 3735
281 3781
281 3843
281 4065
281 4105
281 4319
281 4324
281 4552
281 4780
281 4858
282 789
282 949
282 1360
282 1518
282 1582
282 2094
282 2195
282 2486
282 2724
282 3374
282 3511
282 4023
282 4187
282 4236
282 4769
282 4856
282 4901
282 4939
283 361
283 1519
283 1713
283 1811
283 2173
283 2387
283 3171
283 3555
283 3869
283 3991
283 4301
283 4342
283 4962
284 327
284 449
284 1113
284 2095
284 2969
284 2975
284 3077
284 3494
284 3712
284 3793
284 3982
284 4482
284 4510
284 4975
285 538
285 572
285 1155
285 1411
285 1702
285 1707
285 1935
285 1997
285 2161
285 2785
285 3108
285 3170
285 3314
285 3320
285 3433
285 3567
285 3574
285 3581
285 3622
285 3630
285 3939
285 3958
285 4083
285 4304
285 4313
285 4683
285 4819
285 4914
285 4925
285 4951
286 641
286 825
286 833
286 871
286 1099
286 1465
286 1742
286 1927
286 2332
286 2382
286 2532
286 3072
286 3255
286 3375
286 3775
286 3953
286 4461
286 4693
286 4784
286 4942
287 583
287 814
287 904
287 1206
287 1378
287 1996
287 2499
287 3167
287 3296
287 3584
287 3877
287 4428
287 4447
287 4576
287 4704
288 399
288 418
288 738
288 810
288 884
288 1022
288 1206
288 1530
288 1660
288 1751
288 1830
288 2030
288 2157
288 2223
288 2295
288 2378
288 2598
288 2991
288 3275
288 3485
288 3547
288 3679
288 3774
288 3793
288 3872
288 4089
288 4295
288 4480
288 4716
288 4817
288 4958
289 359
289 403
289 916
289 946
289 982
289 1199
289 1479
289 1812
289 2097
289 2976
289 3103
289 3116
289 3553
289 3672
289 3716
289 3967
289 3982
289 4062
289 4291
290 506
290 988
290 1178
290 1401
290 2201
290 2731
290 3222
290 3322
290 3426
290 3771
290 3792
290 4280
290 4321
290 4399
290 4819
291 496
291 580
291 638
291 741
291 866
291 932
291 1261
291 1339
291 1465
291 1470
291 1478
291 1868
291 1972
291 2176
291 2501
291 2517
291 2605
291 2713
291 2751
291 3050
291 3098
291 3246
291 4052
291 4353
291 4609
291 4779
292 845
292 888
292 1341
292 1781
292 1843
292 1885
292 2354
292 2739
292 2939
292 3024
292 3066
292 3305
292 3462
292 3575
292 3636
292 3679
292 4045
292 4548
292 4555
292 4595
292 4900
293 523
293 705
293 725
293 740
293 1537
293 1589
293 1666
293 1715
293 2111
293 2322
293 2429
293 2715
293 3244
293 3415
293 3559
293 3609
293 4192
293 4724
294 433
294 506
294 651
294 720
294 765
294 1921
294 2028
294 2437
294 3022
294 3066
294 3192
294 3234
294 3244
294 3360
294 3439
294 3533
294 3628
294 3659
294 4085
294 4115
294 4359
294 4835
294 4938
295 304
295 645
295 937
295 1096
295 1348
295 1372
295 1618
295 1937
295 2449
295 2712
295 2809
295 2950
295 2971
295 3464
295 3502
295 3652
295 3749
295 4052
295 4304
295 4687
296 328
296 444
296 720
296 815
296 937
296 979
296 1030
296 1118
296 1344
296 1901
296 1957
296 2049
296 2086
296 2103
296 2350
296 2416
296 2628
296 2663
296 2885
296 3044
296 3132
296 3231
296 3367
296 4035
296 4412
296 4416
296 4642
296 4704
296 4762
296 4818
297 449
297 672
297 774
297 801
297 825
297 996
297 1064
297 1211
297 1494
297 2048
297 2274
297 2319
297 2469
297 2476
297 3023
297 3042
297 3196
297 3799
297 3803
297 4037
297 4048
297 4062
297 4140
297 4470
297 4962
298 711
298 1014
298 1318
298 1360
298 2484
298 2662
298 2689
298 3144
298 3281
298 3392
298 4021
298 4130
298 4280
298 4414
298 4858
299 423
299 507
299 717
299 904
299 914
299 929
299 1820
299 2049
299 2082
299 2420
299 2994
299 3225
299 3238
299 3250
299 3652
299 4177
299 4255
299 4285
299 4395
300 355
300 913
300 1258
300 1391
300 1678
300 2165
300 2271
300 2642
300 2810
300 2999
300 3335
300 3454
300 3695
300 4403
300 4632
300 4900
301 559
301 572
301 719
301 834
301 897
301 959
301 1057
301 1128
301 1132
301 1174
301 1670
301 1891
301 1907
301 2172
301 2239
301 2334
301 2427
301 2697
301 3023
301 3042
301 3102
301 3325
301 3375
301 3670
301 3693
301 3873
301 4402
301 4613
301 4755
301 4812
301 4834
301 4849
301 4959
301 4962
302 416
302 1439
302 1913
302 2017
302 2395
302 2730
302 2927
302 3233
302 3402
302 3808
302 4178
302 4308
302 4382
302 4452
302 4491
302 4563
303 430
303 443
303 526
303 537
303 598
303 688
303 929
303 1062
303 1097
303 1101
303 1150
303 1165
303 1227
303 1242
303 1253
303 1289
303 1316
303 1341
303 1372
303 1432
303 1568
303 1728
303 1883
303 2111
303 2112
303 2128
303 2147
303 2221
303 2244
303 2329
303 2540
303 2560
303 2594
303 2612
303 2695
303 2802
303 2816
303 2965
303 3100
303 3233
303 3342
303 3378
303 3706
303 3759
303 3820
303 4175
303 4194
303 4233
303 4329
303 4371
303 4395
303 4402
303 4425
303 4449
303 4603
303 4642
303 4647
303 4780
303 4984
304 1373
304 1755
304 1839
304 1925
304 2011
304 2144
304 2315
304 2337
304 3129
304 3206
304 3424
304 4097
304 4204
304 4244
304 4455
304 4780
305 543
305 787
305 1013
305 1141
305 1170
305 1312
305 2490
305 3219
305 3296
305 4224
305 4598
305 4712
305 4761
306 327
306 354
306 716
306 996
306 1078
306 1745
306 2170
306 2443
306 2606
306 2689
306 2966
306 3442
306 3475
306 3850
306 4003
306 4382
306 4527
306 4957
307 381
307 426
307 601
307 605
307 1096
307 1307
307 1319
307 1541
307 1548
307 1613
307 1619
307 1713
307 1779
307 1785
307 1958
307 2161
307 2520
307 2691
307 3097
307 3406
307 4307
307 4515
307 4629
307 4919
308 365
308 404
308 501
308 767
308 1432
308 1779
308 1865
308 2009
308 2138
308 2166
308 2197
308 2231
308 2342
308 2447
308 2619
308 2763
308 2795
308 2815
308 3026
308 3340
308 3538
308 3604
308 3878
308 3889
308 4148
308 4531
308 4808
308 4818
308 4869
308 4899
308 4988
309 367
309 827
309 1209
309 1249
309 1382
309 1599
309 1754
309 2209
309 2368
309 2462
309 2510
309 2670
309 2675
309 3094
309 3379
309 3555
309 3956
309 4046
309 4551
309 4790
309 4988
310 617
310 927
310 1059
310 1223
310 1231
310 1306
310 1350
310 1990
310 2203
310 2355
310 3084
310 3147
310 3557
310 4070
310 4074
310 4399
311 625
311 1259
311 1488
311 1694
311 1778
311 1984
311 2058
311 2173
311 2434
311 2536
311 2882
311 3014
311 3058
311 3222
311 3324
311 4126
311 4132
311 4805
312 430
312 682
312 962
312 1093
312 1680
312 1895
312 1985
312 2061
312 2607
312 2721
312 3001
312 3016
312 3340
312 3969
312 4067
312 4165
312 4314
312 4422
312 4802
312 4811
313 373
313 382
313 413
313 601
313 728
313 848
313 938
313 964
313 1168
313 1301
313 1341
313 1424
313 1957
313 1975
313 2055
313 2113
313 2230
313 2365
313 2373
313 2419
313 2423
313 2761
313 3232
313 3361
313 4084
313 4214
313 4315
313 4369
314 379
314 392
314 399
314 418
314 451
314 518
314 546
314 765
314 818
314 882
314 936
314 1000
314 1177
314 1219
314 1331
314 1396
314 1436
314 1530
314 1701
314 1708
314 1767
314 1853
314 1870
314 1969
314 2152
314 2498
314 2505
314 2946
314 2979
314 3083
314 3401
314 3488
314 3562
314 3683
314 3951
314 4068
314 4119
314 4427
314 4498
314 4501
314 4555
314 4821
314 4865
314 4897
314 4904
315 906
315 1175
315 1797
315 2180
315 2576
315 2603
315 2725
315 2790
315 2792
315 3728
315 3731
315 3798
315 4336
315 4728
315 4995
316 736
316 1763
316 1831
316 2024
316 2166
316 2176
316 2477
316 2652
316 3168
316 3307
316 3872
316 4283
316 4819
317 902
317 1180
317 1831
317 1894
317 2280
317 2538
317 2888
317 4097
317 4399
317 4694
317 4789
318 385
318 1226
318 1459
318 1463
318 1606
318 1612
318 1895
318 1915
318 2005
318 2089
318 2121
318 2179
318 2385
318 2449
318 2769
318 3095
318 3332
318 3371
318 3518
318 3578
318 3820
318 3844
318 3870
318 4112
318 4180
318 4326
318 4420
319 787
319 822
319 1548
319 1602
319 2429
319 2596
319 2719
319 2751
319 3042
319 3698
319 3777
319 3818
319 4275
319 4402
319 4539
319 4698
319 4732
320 380
320 452
320 632
320 744
320 1264
320 1288
320 1337
320 1626
320 1828
320 1891
320 2096
320 2181
320 2212
320 2223
320 2279
320 2292
320 2493
320 2506
320 2663
320 2817
320 3050
320 3187
320 3270
320 3499
320 3594
320 3783
320 4151
320 4208
320 4548
320 4604
320 4761
320 4959
320 4981
321 328
321 1035
321 1151
321 1305
321 1321
321 1428
321 1553
321 2076
321 2185
321 2606
321 2771
321 3333
321 3390
321 4204
321 4231
321 4467
321 4675
321 4925
322 888
322 1034
322 1050
322 1355
322 2138
322 2466
322 2486
322 2604
322 2860
322 3034
322 3263
322 3426
322 3533
322 3585
322 4524
322 4709
322 4782
323 414
323 496
323 497
323 571
323 925
323 1692
323 1870
323 2095
323 2302
323 2363
323 2473
323 2595
323 2823
323 3818
323 3941
323 4006
323 4381
324 576
324 810
324 852
324 893
324 1063
324 1082
324 1705
324 1914
324 2267
324 2457
324 2563
324 2678
324 3223
324 3434
324 3589
324 3677
324 3678
324 3780
324 4497
324 4866
325 1474
325 1535
325 1805
325 2096
325 2271
325 2302
325 2906
325 2926
325 3020
325 3925
325 3966
325 4040
325 4362
325 4374
325 4813
326 377
326 641
326 775
326 899
326 945
326 1090
326 1430
326 1485
326 1526
326 1605
326 1620
326 1692
326 1795
326 2349
326 2404
326 2633
326 3040
326 3096
326 3103
326 3171
326 3190
326 3250
326 3337
326 3362
326 3511
326 3519
326 3560
326 3807
326 3984
326 4047
326 4139
326 4189
326 4393
326 4658
326 4747
326 4765
326 4826
326 4982
326 4996
327 644
327 650
327 975
327 1036
327 1084
327 1177
327 1194
327 1208
327 1253
327 1256
327 1301
327 1312
327 1333
327 1341
327 1708
327 1788
327 1802
327 2076
327 2113
327 2128
327 2386
327 2779
327 3154
327 3204
327 3258
327 3266
327 3354
327 3509
327 3590
327 4013
327 4084
327 4091
327 4194
327 4198
327 4442
327 4448
327 4467
327 4635
327 4747
327 4899
327 4953
327 4976
328 344
328 406
328 443
328 607
328 735
328 769
328 802
328 860
328 868
328 963
328 1025
328 1158
328 1221
328 1275
328 1281
328 1362
328 1377
328 1429
328 1445
328 1677
328 1687
328 1690
328 1763
328 1791
328 1873
328 1923
328 2006
328 2138
328 2184
328 2328
328 2403
328 2504
328 2533
328 2723
328 2777
328 2842
328 2879
328 2973
328 3037
328 3069
328 3302
328 3308
328 3330
328 3450
328 3452
328 3692
328 3912
328 3917
328 4011
328 4027
328 4032
328 4081
328 4087
328 4169
328 4221
328 4236
328 4237
328 4373
328 4420
328 4450
328 4525
328 4577
328 4620
328 4649
328 4661
328 4667
328 4712
328 4718
328 4727
328 4780
328 4785
328 4787
328 4862
328 4877
328 4914
328 4945
329 412
329 656
329 774
329 1172
329 1278
329 1397
329 1767
329 1863
329 2370
329 2756
329 2964
329 3186
329 3282
329 3418
329 3785
329 4082
329 4155
329 4685
329 4917
329 4930
329 4934
330 334
330 501
330 606
330 1104
330 1253
330 1276
330 1512
330 1538
330 1590
330 1815
330 2238
330 2270
330 2441
330 2845
330 2926
330 2960
330 3563
330 3652
330 3734
330 3757
330 4143
330 4148
330 4361
330 4369
330 4372
330 4909
330 4990
331 425
331 725
331 860
331 1253
331 1697
331 1830
331 1946
331 2008
331 2080
331 2096
331 2506
331 2650
331 2935
331 3029
331 3046
331 3064
331 3116
331 3289
331 4086
331 4295
331 4645
331 4672
331 4683
331 4743
331 4790
332 773
332 891
332 1210
332 1251
332 2097
332 2115
332 2799
332 3319
332 3436
332 3551
332 3970
332 4358
332 4998
333 605
333 1231
333 1779
333 2125
333 2228
333 3488
333 3518
333 4346
333 4722
333 4866
333 4962
334 734
334 739
334 1191
334 2185
334 2703
334 2785
334 3365
334 3394
334 3540
334 4295
334 4301
334 4342
334 4443
334 4692
335 437
335 705
335 957
335 1192
335 1257
335 1377
335 1573
335 1761
335 1775
335 2286
335 2302
335 2855
335 3135
335 3244
335 3749
335 3946
335 4097
335 4142
335 4323
335 4324
335 4646
336 419
336 492
336 538
336 599
336 720
336 872
336 968
336 1513
336 1526
336 2076
336 2175
336 2322
336 2332
336 2558
336 2830
336 3197
336 3349
336 3502
336 3854
336 3905
336 3941
336 4052
336 4115
336 4436
336 4727
336 4819
337 619
337 671
337 733
337 1290
337 1376
337 1378
337 1571
337 1814
337 2083
337 2156
337 2271
337 2379
337 2423
337 2478
337 2523
337 2552
337 2642
337 2922
337 2999
337 3030
337 3149
337 3284
337 3590
337 3618
337 3774
337 4309
337 4668
337 4712
337 4900
338 707
338 876
338 1054
338 1196
338 1312
338 1426
338 1477
338 1573
338 2258
338 2780
338 3148
338 4652
338 4905
338 4991
339 388
339 558
339 693
339 714
339 964
339 1286
339 1287
339 1383
339 1854
339 2066
339 2357
339 2871
339 3179
339 3468
339 3475
339 3505
339 3657
339 3789
339 3973
339 4153
339 4306
339 4479
339 4510
339 4522
339 4538
339 4573
339 4694
339 4819
340 364
340 629
340 718
340 823
340 1222
340 1413
340 1637
340 1986
340 2517
340 2613
340 2637
340 3175
340 3320
340 3385
340 3480
340 3682
340 3712
340 3785
340 3820
340 3889
340 4559
341 528
341 650
341 796
341 930
341 935
341 1160
341 1318
341 1424
341 1618
341 1628
341 2028
341 2052
341 2098
341 3824
341 3855
341 3918
341 4305
342 426
342 610
342 858
342 1149
342 1355
342 1512
342 1599
342 1793
342 2284
342 2290
342 2423
342 3953
342 4647
342 4717
343 517
343 621
343 1103
343 1163
343 1210
343 1553
343 1592
343 1624
343 1861
343 2394
343 2553
343 2564
343 2603
343 3693
343 4096
343 4467
343 4539
343 4607
343 4835
344 477
344 710
344 763
344 863
344 2198
344 2304
344 2330
344 2357
344 2767
344 3151
344 3185
344 3257
344 3608
344 3717
344 4155
344 4362
345 451
345 492
345 516
345 617
345 951
345 982
345 1155
345 1512
345 1657
345 1892
345 2137
345 2555
345 2579
345 2659
345 3207
345 3285
345 3323
345 3898
345 3948
345 4587
346 527
346 643
346 656
346 682
346 1037
346 1582
346 1822
346 1987
346 2070
346 2438
346 2592
346 2598
346 2622
346 2682
346 2733
346 2851
346 3040
346 3110
346 3245
346 3718
346 3736
346 3882
346 3952
346 4101
346 4592
346 4644
346 4901
346 4997
347 357
347 591
347 638
347 639
347 803
347 1138
347 1210
347 1258
347 1351
347 1443
347 1500
347 2150
347 2724
347 2928
347 3150
347 3184
347 3364
347 3396
347 3547
347 4070
347 4424
347 4454
347 4495
347 4545
347 4835
347 4977
348 381
348 500
348 748
348 1307
348 1364
348 1450
348 1842
348 2036
348 2257
348 2309
348 3020
348 3322
348 3934
348 4231
348 4304
348 4477
348 4556
349 546
349 608
349 1225
349 1649
349 1671
349 1971
349 2057
349 2318
349 2659
349 4085
349 4196
349 4350
349 4358
350 648
350 1006
350 1089
350 1231
350 1306
350 1334
350 1406
350 1625
350 1672
350 1859
350 2027
350 2125
350 2206
350 2913
350 3306
350 3592
350 3793
350 4224
350 4322
350 4540
351 817
351 1169
351 1230
351 1426
351 1517
351 1573
351 1687
351 2006
351 2286
351 2643
351 3006
351 3117
351 3248
351 3723
351 4102
351 4443
351 4538
351 4560
351 4592
351 4840
351 4858
351 4951
352 655
352 698
352 750
352 1067
352 1100
352 1302
352 1443
352 1777
352 2071
352 2116
352 2618
352 2904
352 3024
352 3121
352 3532
352 3729
352 3936
352 4011
352 4480
352 4584
353 390
353 611
353 657
353 1140
353 1322
353 1570
353 2303
353 2332
353 2449
353 2740
353 3116
353 3308
353 3521
353 3581
353 3706
353 4089
353 4925
353 4956
354 610
354 868
354 1317
354 1398
354 1707
354 1935
354 2407
354 2693
354 2706
354 2710
354 2724
354 2757
354 3077
354 3327
354 3533
354 3696
354 3985
354 4307
354 4724
355 457
355 805
355 1211
355 1225
355 1299
355 1590
355 1786
355 1808
355 2028
355 2048
355 2069
355 2103
355 2159
355 2490
355 2588
355 2721
355 2766
355 2863
355 2950
355 3349
355 4023
355 4033
355 4247
355 4556
355 4617
355 4713
355 4827
355 4986
356 369
356 419
356 426
356 492
356 502
356 577
356 605
356 607
356 837
356 858
356 880
356 890
356 950
356 1071
356 1423
356 1430
356 1507
356 1629
356 1726
356 1731
356 1948
356 1972
356 2090
356 2110
356 2148
356 2156
356 2219
356 2270
356 2609
356 3027
356 3080
356 3129
356 3451
356 3746
356 3992
356 4168
356 4575
356 4666
356 4819
356 4984
357 515
357 671
357 902
357 960
357 1197
357 1318
357 1353
357 1417
357 1665
357 1862
357 2435
357 2797
357 3124
357 3220
357 3253
357 3317
357 3693
357 3936
357 4089
357 4161
357 4163
357 4219
357 4782
357 4962
357 4979
358 659
358 770
358 1014
358 1064
358 1499
358 1683
358 1727
358 1737
358 2038
358 2167
358 2194
358 2284
358 2350
358 2469
358 2974
358 3096
358 3100
358 3193
358 3440
358 3521
358 3679
358 3711
358 3839
358 4270
358 4327
358 4506
358 4763
358 4848
359 363
359 450
359 648
359 793
359 806
359 829
359 863
359 1236
359 1403
359 1417
359 1418
359 1455
359 1553
359 1911
359 2158
359 2423
359 2480
359 2493
359 2524
359 2745
359 2943
359 2947
359 3135
359 3271
359 3327
359 3468
359 3774
359 3838
359 4080
359 4297
359 4448
359 4474
359 4515
359 4953
360 711
360 796
360 1587
360 1694
360 1768
360 2096
360 2549
360 2999
360 3308
360 3644
360 4185
360 4478
361 887
361 891
361 1338
361 1625
361 2015
361 2025
361 2115
361 2367
361 2793
361 2912
361 3106
361 3491
361 3526
361 4702
361 4892
362 1192
362 1341
362 1421
362 1798
362 1929
362 1956
362 2373
362 2565
362 3485
362 3488
362 3506
362 3509
362 3613
363 383
363 523
363 753
363 792
363 836
363 863
363 868
363 1453
363 1545
363 1548
363 1602
363 1825
363 1924
363 2091
363 2132
363 2400
363 2519
363 3135
363 3162
363 3227
363 3523
363 4495
363 4530
363 4548
363 4626
363 4721
363 4872
364 514
364 735
364 933
364 1005
364 1061
364 1248
364 1345
364 1636
364 1836
364 2026
364 2159
364 2962
364 3124
364 3674
364 3679
364 4228
364 4659
364 4812
365 521
365 662
365 1171
365 1312
365 1457
365 1539
365 1560
365 2159
365 2236
365 2409
365 2748
365 3566
365 3881
365 4571
365 4750
365 4757
365 4812
366 517
366 549
366 861
366 863
366 887
366 1097
366 1212
366 1551
366 1890
366 1904
366 2060
366 2233
366 2500
366 3443
366 3609
366 3700
366 3991
366 4046
366 4583
366 4789
367 523
367 863
367 883
367 1006
367 1126
367 1743
367 1845
367 2356
367 2565
367 2684
367 2799
367 2847
367 2943
367 3428
367 3453
367 3954
367 3995
367 4122
367 4166
367 4178
367 4448
367 4731
367 4962
368 441
368 552
368 638
368 755
368 844
368 1084
368 1589
368 1594
368 1842
368 1865
368 2030
368 2340
368 3051
368 4144
368 4192
368 4344
368 4356
368 4374
369 417
369 844
369 1087
369 1345
369 1446
369 1645
369 1659
369 2076
369 2185
369 2414
369 2449
369 3324
369 3349
369 3424
369 3429
369 3489
369 3679
369 4247
369 4598
369 4672
370 458
370 608
370 662
370 760
370 972
370 1055
370 1340
370 1436
370 1521
370 1635
370 1799
370 1807
370 2010
370 2499
370 2693
370 2793
370 2810
370 3038
370 3053
370 3084
370 3177
370 3202
370 3321
370 3361
370 3477
370 3540
370 3884
370 3909
370 3968
370 4221
370 4231
370 4542
370 4570
370 4727
370 4783
370 4788
370 4828
370 4874
370 4933
370 4946
370 4979
371 427
371 462
371 939
371 953
371 974
371 1073
371 1206
371 1246
371 1507
371 2059
371 2367
371 2441
371 2620
371 2943
371 2963
371 3117
371 3557
371 3570
371 3889
371 4180
371 4227
371 4228
371 4244
371 4493
371 4586
371 4615
371 4852
371 4895
371 4951
372 976
372 1014
372 1069
372 1086
372 1121
372 1204
372 1831
372 2575
372 2807
372 2820
372 2936
372 3022
372 3292
372 3316
372 3538
372 3753
372 3823
372 3848
372 3853
372 4017
372 4432
372 4805
373 771
373 1097
373 1098
373 1227
373 1632
373 1685
373 2263
373 3311
373 3668
373 3954
373 4084
373 4090
373 4920
374 399
374 503
374 527
374 805
374 863
374 891
374 935
374 1096
374 1342
374 1888
374 2015
374 2469
374 2495
374 2565
374 2627
374 2974
374 3135
374 3505
374 3595
374 3750
374 4037
374 4377
374 4620
374 4696
375 614
375 711
375 777
375 1152
375 1322
375 1534
375 1684
375 1895
375 2415
375 2584
375 2597
375 2949
375 3018
375 3065
375 3072
375 3848
375 3933
375 4551
375 4622
375 4851
376 431
376 554
376 1033
376 1099
376 1437
376 1619
376 1672
376 1813
376 2096
376 2402
376 2451
376 2493
376 2541
376 2697
376 2854
376 2916
376 3158
376 3453
376 3748
376 3749
376 3819
376 4097
376 4122
376 4198
376 4448
376 4462
376 4464
376 4528
376 4549
376 4714
377 1362
377 1489
377 1511
377 1512
377 1737
377 2137
377 2208
377 2761
377 2763
377 2965
377 3167
377 3285
377 3541
377 3841
377 3898
377 3934
377 4044
377 4113
377 4152
377 4817
378 464
378 1051
378 1394
378 1411
378 1582
378 1642
378 2043
378 2097
378 2546
378 2730
378 2758
378 2842
378 2876
378 2988
378 3422
378 3464
378 3667
378 4166
378 4329
378 4418
378 4452
378 4743
378 4794
379 1171
379 1512
379 1571
379 1855
379 2431
379 2465
379 2555
379 2598
379 2797
379 2975
379 2977
379 2982
379 2995
379 3382
379 3431
379 3621
379 3898
379 4152
379 4240
379 4416
379 4872
379 4969
380 477
380 500
380 622
380 862
380 1386
380 1571
380 1616
380 1623
380 1702
380 1887
380 2052
380 2269
380 2294
380 2669
380 2966
380 3397
380 3427
380 3557
380 3677
380 3727
380 3890
380 4613
380 4879
380 4953
380 4997
381 850
381 938
381 973
381 1155
381 1324
381 1354
381 1432
381 1842
381 2050
381 2291
381 2501
381 2798
381 2950
381 3071
381 3221
381 3387
381 3398
381 3587
381 3756
381 3776
381 3868
381 4033
381 4475
381 4862
382 450
382 506
382 517
382 523
382 534
382 618
382 1040
382 1195
382 1342
382 1464
382 1470
382 1575
382 1882
382 2030
382 2060
382 2218
382 2855
382 2943
382 2995
382 3112
382 3537
382 3568
382 3647
382 3748
382 4376
382 4982
383 523
383 609
383 676
383 710
383 719
383 883
383 943
383 1227
383 1248
383 1288
383 1399
383 1819
383 2003
383 2249
383 2565
383 2801
383 2858
383 2943
383 2954
383 3106
383 3170
383 3737
383 3749
383 3908
383 4048
383 4104
383 4337
383 4429
383 4448
384 422
384 456
384 661
384 684
384 1182
384 1425
384 1993
384 2049
384 2089
384 2099
384 2369
384 3212
384 3247
384 3952
384 4642
385 1024
385 1075
385 1361
385 1671
385 1786
385 2554
385 3135
385 3391
385 3555
385 3786
385 3895
385 3933
385 3969
385 4102
385 4584
385 4955
386 527
386 562
386 747
386 767
386 852
386 1174
386 1297
386 1323
386 1337
386 1354
386 1435
386 1725
386 1743
386 1787
386 1847
386 1886
386 1906
386 2015
386 2097
386 2278
386 2415
386 2876
386 2881
386 2993
386 3072
386 3206
386 3379
386 3423
386 3503
386 3606
386 3662
386 3666
386 3702
386 3743
386 3766
386 3869
386 4125
386 4191
386 4412
386 4724
386 4750
386 4887
387 712
387 1089
387 1251
387 1375
387 1489
387 1518
387 1858
387 2484
387 2509
387 2814
387 3072
387 3375
387 3536
387 3828
387 3885
387 4191
387 4867
387 4988
388 491
388 551
388 773
388 1178
388 1197
388 1285
388 1309
388 1364
388 1429
388 1512
388 1760
388 2108
388 2148
388 2427
388 2541
388 2746
388 3453
388 3588
388 3728
388 3863
388 4030
388 4268
388 4788
388 4816
388 4839
389 501
389 967
389 1179
389 1489
389 1526
389 2483
389 2713
389 2811
389 2926
389 3322
389 3429
389 4203
389 4287
389 4629
390 460
390 543
390 856
390 869
390 979
390 1069
390 1195
390 1394
390 1507
390 1625
390 1786
390 2211
390 2387
390 3006
390 3094
390 3408
390 3579
390 3766
390 3795
390 4101
390 4187
390 4222
390 4412
390 4865
391 443
391 454
391 808
391 947
391 1373
391 1646
391 1927
391 2030
391 2295
391 2409
391 2433
391 2563
391 2691
391 2778
391 2877
391 2959
391 3103
391 3222
391 3274
391 3398
391 3561
391 4038
391 4439
391 4467
391 4488
392 763
392 1053
392 1390
392 1483
392 1540
392 1561
392 1779
392 2545
392 4084
392 4930
392 4967
393 732
393 740
393 822
393 938
393 1505
393 1573
393 1659
393 1890
393 2117
393 2426
393 2873
393 3067
393 3315
393 3340
393 3390
393 3572
393 3585
393 4384
393 4411
393 4560
393 4724
393 4957
394 1046
394 2139
394 2144
394 2345
394 2835
394 3217
394 3423
394 4337
394 4504
394 4646
394 4688
394 4705
395 467
395 525
395 727
395 742
395 1150
395 1285
395 1374
395 1493
395 1555
395 1794
395 2067
395 2209
395 2328
395 2822
395 2931
395 3301
395 3446
395 3765
395 3789
395 3798
395 4142
395 4538
395 4787
396 458
396 465
396 540
396 662
396 695
396 735
396 760
396 771
396 927
396 1128
396 1314
396 1325
396 1330
396 1436
396 1446
396 1510
396 1578
396 1582
396 1700
396 1853
396 2136
396 2294
396 2335
396 2499
396 2509
396 2693
396 2985
396 3078
396 3101
396 3363
396 3470
396 3502
396 3514
396 3628
396 4026
396 4031
396 4046
396 4775
396 4985
397 1410
397 1860
397 2209
397 2469
397 2604
397 2763
397 3263
397 3376
397 3632
397 4342
397 4369
397 4476
397 4560
398 1238
398 1561
398 1625
398 1693
398 1772
398 1872
398 1947
398 2130
398 2185
398 2666
398 3080
398 3328
398 3402
398 3623
398 3717
398 3987
398 4717
399 863
399 885
399 890
399 1013
399 1393
399 1588
399 2019
399 2145
399 2879
399 3152
399 3537
399 4396
399 4405
400 511
400 887
400 1372
400 1534
400 1760
400 2080
400 2207
400 3178
400 4245
400 4353
400 4540
400 4786
401 426
401 599
401 727
401 730
401 851
401 1566
401 1675
401 1933
401 1939
401 2111
401 2271
401 2328
401 2441
401 2500
401 2563
401 2670
401 2698
401 2736
401 2950
401 3113
401 3211
401 3238
401 3250
401 3402
401 3441
401 3485
401 4209
401 4347
401 4941
402 405
402 416
402 496
402 613
402 618
402 627
402 645
402 729
402 1066
402 1138
402 1337
402 1360
402 1570
402 1578
402 1606
402 1616
402 1621
402 1651
402 1665
402 1731
402 1805
402 2012
402 2013
402 2107
402 2145
402 2179
402 2188
402 2317
402 2394
402 2407
402 2493
402 2559
402 2626
402 2647
402 2671
402 2861
402 3010
402 3141
402 3311
402 3401
402 3444
402 3595
402 3753
402 3775
402 3883
402 4134
402 4180
402 4183
402 4187
402 4228
402 4232
402 4248
402 4328
402 4477
402 4645
402 4706
402 4720
402 4744
403 490
403 745
403 924
403 1222
403 1849
403 1945
403 1982
403 2076
403 2415
403 2938
403 3034
403 3044
403 3129
403 3522
403 3712
403 3777
403 3780
403 4126
403 4629
403 4952
403 4993
403 4997
404 648
404 664
404 1507
404 1643
404 1911
404 1912
404 1969
404 1974
404 2070
404 2134
404 2622
404 3018
404 3632
404 3707
404 3842
404 4718
404 4766
404 4839
404 4993
405 425
405 446
405 451
405 477
405 747
405 812
405 877
405 1044
405 1327
405 1342
405 1991
405 2076
405 2382
405 2731
405 2742
405 2979
405 3663
405 3692
405 4098
405 4315
405 4325
405 4655
405 4708
405 4810
405 4956
406 429
406 538
406 795
406 1660
406 1791
406 2304
406 2566
406 2691
406 3299
406 3824
406 3859
406 3864
406 3975
406 4063
406 4595
406 4600
406 4745
407 438
407 453
407 811
407 1143
407 1231
407 1306
407 1999
407 2165
407 2371
407 3024
407 3200
407 3228
407 3325
407 3358
407 3579
407 3625
407 3895
407 3899
407 3927
407 4566
408 661
408 1904
408 2016
408 2226
408 2440
408 2444
408 2915
408 2926
408 3195
408 3424
408 3941
408 4212
408 4683
408 4851
409 451
409 550
409 642
409 681
409 857
409 862
409 886
409 906
409 907
409 947
409 1082
409 1099
409 1144
409 1160
409 1328
409 1574
409 1587
409 1863
409 2018
409 2079
409 2203
409 2260
409 2287
409 2326
409 2348
409 2356
409 2368
409 2503
409 2507
409 2585
409 2687
409 2767
409 2771
409 2866
409 2991
409 3047
409 3063
409 3117
409 3141
409 3204
409 3434
409 3485
409 3730
409 3821
409 3850
409 3863
409 4275
409 4351
409 4362
409 4471
409 4478
410 469
410 610
410 659
410 851
410 991
410 1096
410 1122
410 1248
410 1298
410 1309
410 1341
410 1828
410 2078
410 2096
410 2121
410 2149
410 2696
410 2820
410 2925
410 3095
410 3253
410 3314
410 3413
410 3555
410 3585
410 3706
410 4299
410 4360
410 4390
410 4844
410 4873
410 4964
411 446
411 728
411 800
411 996
411 1435
411 1560
411 1800
411 1877
411 3123
411 3515
411 3754
411 4084
411 4252
411 4276
411 4395
411 4499
411 4539
411 4723
412 435
412 978
412 1016
412 2019
412 2034
412 2584
412 2957
412 2973
412 3347
412 3807
412 3833
412 4119
412 4370
412 4994
413 951
413 1066
413 1160
413 1314
413 1625
413 1676
413 1776
413 1835
413 2453
413 2827
413 3114
413 3368
413 3384
413 3728
413 3755
413 4246
413 4518
413 4555
413 4810
414 571
414 755
414 774
414 1058
414 1751
414 2302
414 2413
414 2721
414 2783
414 3628
414 3792
414 3822
414 3824
414 4024
414 4085
414 4770
414 4850
414 4923
415 496
415 541
415 1312
415 1653
415 1956
415 2028
415 2161
415 2362
415 2422
415 3243
415 3592
415 3677
415 4231
415 4238
415 4295
415 4309
415 4529
415 4925
416 418
416 498
416 538
416 672
416 761
416 882
416 1251
416 1308
416 1362
416 1521
416 1615
416 1798
416 2111
416 2429
416 2474
416 2554
416 2984
416 3015
416 3081
416 3255
416 3411
416 3526
416 3559
416 3812
416 3854
416 3893
416 3961
416 4180
416 4435
416 4471
417 451
417 620
417 704
417 732
417 1028
417 1614
417 1654
417 1751
417 2104
417 2390
417 2443
417 2569
417 2815
417 2919
417 4614
417 4658
418 435
418 686
418 1078
418 1178
418 1646
418 1855
418 2527
418 2629
418 2732
418 2808
418 2872
418 2900
418 2905
418 3223
418 3497
418 3753
418 4283
418 4596
419 935
419 1154
419 1189
419 1760
419 2004
419 2048
419 2075
419 2161
419 2164
419 2859
419 2950
419 3372
419 3944
419 4171
419 4791
419 4819
419 4951
420 465
420 662
420 750
420 1160
420 1535
420 1558
420 1665
420 1670
420 1918
420 2245
420 2256
420 2287
420 2328
420 2863
420 2936
420 2966
420 3072
420 3202
420 3461
420 3497
420 3660
420 3893
420 4022
420 4202
420 4507
420 4662
420 4839
420 4852
420 4888
420 4922
421 785
421 1190
421 1476
421 1533
421 1543
421 1548
421 2296
421 2583
421 2627
421 2665
421 2738
421 2976
421 3079
421 3180
421 3242
421 3394
421 3397
421 3812
421 3903
421 4478
421 4548
421 4632
421 4737
421 4919
422 470
422 564
422 601
422 688
422 696
422 750
422 877
422 1079
422 1101
422 1106
422 1120
422 1163
422 1229
422 1255
422 1302
422 1469
422 1471
422 1474
422 1629
422 1665
422 1846
422 2101
422 2173
422 2455
422 2579
422 2607
422 2703
422 2859
422 2903
422 3014
422 3065
422 3110
422 3206
422 3232
422 3318
422 3351
422 3418
422 3560
422 3561
422 4090
422 4152
422 4159
422 4197
422 4233
422 4259
422 4303
422 4448
422 4498
422 4607
422 4746
422 4934
422 4990
423 529
423 608
423 935
423 1238
423 1261
423 1386
423 1496
423 1538
423 1720
423 1744
423 2049
423 2183
423 2225
423 2582
423 3222
423 3591
423 3668
423 4401
423 4509
423 4704
423 4720
423 4745
423 4797
424 668
424 870
424 937
424 1001
424 1034
424 1434
424 2045
424 2049
424 2058
424 2294
424 2455
424 2540
424 2837
424 2898
424 3864
424 4076
424 4163
424 4301
424 4323
424 4401
424 4953
425 456
425 810
425 834
425 869
425 1484
425 1874
425 1977
425 2286
425 2733
425 3040
425 3100
425 3462
425 3470
425 3652
425 4037
425 4096
425 4419
425 4438
425 4605
426 496
426 531
426 632
426 744
426 811
426 883
426 935
426 974
426 1026
426 1060
426 1241
426 1299
426 1439
426 1466
426 1499
426 1876
426 1877
426 2549
426 2840
426 2956
426 2975
426 3103
426 3141
426 3366
426 3398
426 3461
426 3547
426 3781
426 3812
426 3851
426 4316
426 4784
427 508
427 571
427 742
427 1118
427 1420
427 1504
427 1536
427 1751
427 1800
427 1983
427 2154
427 2328
427 2473
427 2721
427 2823
427 2982
427 3136
427 3379
427 3566
427 3712
427 3875
427 3910
427 4006
427 4277
427 4349
427 4808
428 876
428 924
428 1030
428 1033
428 1455
428 1524
428 1623
428 1635
428 1672
428 1890
428 2009
428 2101
428 2367
428 2409
428 2411
428 2491
428 2565
428 2622
428 2802
428 2927
428 2983
428 3084
428 3447
428 3570
428 3612
428 3748
428 4020
428 4117
428 4122
428 4245
428 4284
428 4403
428 4573
428 4737
428 4957
428 4985
429 569
429 656
429 711
429 720
429 845
429 936
429 990
429 1354
429 3296
429 3319
429 4035
429 4438
429 4664
429 4717
429 4894
429 4912
430 442
430 506
430 569
430 938
430 1274
430 1293
430 1503
430 1624
430 1856
430 1886
430 2049
430 2128
430 2229
430 2278
430 2289
430 2303
430 2386
430 2931
430 2989
430 3105
430 3259
430 3359
430 3447
430 3557
430 3706
430 3762
430 3781
430 3911
430 3960
430 4225
430 4249
430 4449
430 4578
430 4601
430 4898
431 809
431 1082
431 1192
431 1657
431 1760
431 1780
431 2094
431 3024
431 3092
431 3455
431 3482
431 3678
431 3792
431 4207
431 4751
431 4873
432 818
432 863
432 1135
432 1202
432 1453
432 1937
432 2024
432 2344
432 3051
432 3447
432 3455
432 3935
432 3954
432 3962
432 4180
432 4641
433 673
433 1167
433 1461
433 1814
433 2097
433 2105
433 2467
433 2784
433 2832
433 2948
433 3113
433 3377
433 3564
433 3569
433 3723
433 4290
433 4297
433 4748
433 4879
433 4913
433 4919
433 4955
434 733
434 839
434 1100
434 1489
434 2079
434 2120
434 2511
434 2914
434 3112
434 3834
434 4269
434 4275
434 4608
435 614
435 642
435 654
435 918
435 935
435 1010
435 1032
435 1037
435 1089
435 1121
435 1242
435 1530
435 1669
435 1782
435 1801
435 1889
435 1914
435 2011
435 2072
435 2148
435 2154
435 2189
435 2417
435 2483
435 2506
435 2515
435 2556
435 2608
435 2776
435 2862
435 2873
435 2906
435 2961
435 3046
435 3131
435 3164
435 3341
435 3398
435 3403
435 3420
435 3509
435 3561
435 3615
435 3674
435 3677
435 3788
435 3838
435 4068
435 4293
435 4562
435 4678
435 4690
435 4789
435 4937
435 4954
435 4959
436 486
436 774
436 1192
436 1369
436 1980
436 2328
436 2338
436 3411
436 3664
436 4156
436 4352
436 4403
436 4813
436 4840
437 449
437 531
437 583
437 1097
437 1407
437 1482
437 1589
437 2531
437 3152
437 3154
437 3310
437 3597
437 3882
437 3957
437 4067
437 4288
437 4302
437 4332
437 4546
437 4578
437 4924
438 443
438 700
438 1133
438 1362
438 1479
438 1575
438 1748
438 2127
438 2233
438 2300
438 2370
438 2623
438 2639
438 2716
438 3681
438 3726
438 4574
438 4714
438 4761
438 4792
439 506
439 617
439 673
439 848
439 922
439 1342
439 1430
439 1483
439 1554
439 1646
439 2177
439 2214
439 2496
439 2573
439 2834
439 3027
439 3193
439 3473
439 3917
439 4463
439 4714
439 4757
440 905
440 1408
440 2371
440 2636
440 3052
440 3189
440 3431
440 3495
440 3626
440 4087
440 4289
440 4616
440 4664
440 4950
441 456
441 745
441 858
441 866
441 1121
441 1358
441 1738
441 2339
441 2406
441 2734
441 2865
441 3186
441 3304
441 3328
441 3810
441 3966
441 4102
441 4947
442 572
442 1107
442 1300
442 1336
442 1355
442 1426
442 1573
442 1592
442 2040
442 2222
442 2262
442 2286
442 2559
442 2571
442 3488
442 3585
442 3969
442 4324
442 4560
442 4858
442 4895
443 545
443 661
443 700
443 730
443 869
443 887
443 1032
443 1212
443 1348
443 1362
443 1679
443 1692
443 1801
443 1883
443 1977
443 2105
443 2127
443 2138
443 2144
443 2233
443 2266
443 2370
443 2620
443 2627
443 3057
443 3134
443 3504
443 3552
443 3769
443 3821
443 3969
443 4028
443 4037
443 4044
443 4462
443 4961
443 4983
444 486
444 920
444 1188
444 1317
444 1451
444 1480
444 1510
444 1623
444 1671
444 2071
444 2086
444 2103
444 2143
444 2216
444 2620
444 3086
444 4381
444 4580
444 4642
444 4762
445 576
445 1107
445 1479
445 1729
445 2097
445 2593
445 3534
445 4152
445 4566
445 4623
445 4751
445 4998
446 643
446 717
446 836
446 936
446 1613
446 1736
446 2272
446 2934
446 3829
446 3988
446 4171
446 4201
446 4206
446 4482
446 4702
446 4989
447 836
447 1017
447 1391
447 1486
447 1662
447 1818
447 1884
447 2034
447 2555
447 3274
447 4075
447 4549
447 4780
447 4865
448 604
448 851
448 1290
448 1484
448 1611
448 1612
448 1710
448 1790
448 2526
448 2551
448 2669
448 2761
448 2844
448 2961
448 2999
448 3522
448 3561
448 3783
448 3844
448 3861
448 4085
448 4199
448 4295
448 4339
448 4348
448 4415
448 4421
448 4431
448 4475
448 4579
448 4628
448 4636
448 4642
448 4667
448 4754
448 4900
448 4990
449 734
449 747
449 778
449 983
449 1157
449 1465
449 1893
449 1924
449 1964
449 2685
449 2755
449 3000
449 3577
449 3597
449 3646
449 3656
449 4081
449 4104
449 4334
449 4492
449 4510
449 4993
450 480
450 489
450 579
450 1548
450 1642
450 1763
450 1862
450 1874
450 2166
450 2217
450 2442
450 2549
450 2943
450 3169
450 4178
450 4202
450 4290
450 4530
451 454
451 478
451 586
451 589
451 737
451 762
451 764
451 840
451 877
451 1120
451 1374
451 1398
451 1441
451 1581
451 1681
451 1734
451 1763
451 1802
451 1824
451 1853
451 1916
451 1921
451 1970
451 2021
451 2073
451 2152
451 2248
451 2338
451 2523
451 2581
451 2619
451 2795
451 3001
451 3100
451 3309
451 3344
451 3389
451 3466
451 3529
451 3561
451 3611
451 3704
451 3773
451 3794
451 3862
451 3969
451 3994
451 4073
451 4103
451 4134
451 4143
451 4148
451 4164
451 4186
451 4263
451 4346
451 4498
451 4631
451 4901
451 4907
451 4950
452 563
452 912
452 976
452 1068
452 1129
452 1210
452 1231
452 1373
452 1380
452 1451
452 2008
452 2010
452 2034
452 2256
452 2263
452 2528
452 2833
452 2934
452 3359
452 3404
452 3476
452 3631
452 3713
452 3816
452 4076
452 4123
452 4204
452 4349
452 4540
452 4660
453 854
453 938
453 1014
453 1158
453 1187
453 1194
453 1301
453 1734
453 2113
453 2373
453 2960
453 3107
453 3258
453 3384
453 3540
453 4110
453 4198
453 4213
453 4288
453 4395
453 4551
454 963
454 1032
454 1102
454 1192
454 1519
454 1546
454 1662
454 1792
454 2400
454 2741
454 3097
454 3196
454 4268
454 4905
455 564
455 643
455 663
455 1408
455 1796
455 2086
455 2480
455 2511
455 2527
455 3022
455 3186
455 4447
455 4551
455 4696
456 496
456 515
456 624
456 710
456 741
456 792
456 813
456 848
456 1179
456 1331
456 1347
456 1658
456 1660
456 1702
456 1713
456 1715
456 1750
456 1817
456 1855
456 2274
456 2453
456 2502
456 2634
456 2652
456 2698
456 2763
456 3330
456 3459
456 3597
456 3671
456 3719
456 3798
456 3807
456 3820
456 4061
456 4171
456 4352
456 4494
456 4964
457 849
457 1096
457 1517
457 1808
457 1904
457 1962
457 2076
457 2668
457 2720
457 2863
457 2919
457 2950
457 3487
457 3564
457 3581
457 3879
457 3990
457 4087
457 4619
457 4627
457 4819
458 1436
458 1728
458 1796
458 2046
458 2279
458 3166
458 3215
458 3404
458 3704
458 3893
458 4551
458 4610
458 4800
459 545
459 576
459 890
459 1667
459 1819
459 1920
459 2040
459 2224
459 2377
459 2515
459 2896
459 2976
459 3559
459 3607
459 3780
459 3806
459 4030
459 4034
459 4631
459 4857
460 798
460 1146
460 1218
460 1417
460 1682
460 2655
460 2901
460 3040
460 3408
460 4097
460 4224
460 4436
461 462
461 1013
461 1252
461 1464
461 1544
461 1556
461 1657
461 1693
461 1818
461 2127
461 2182
461 2547
461 2589
461 2731
461 2838
461 2880
461 2964
461 3072
461 3261
461 3462
461 3926
461 4042
461 4046
461 4144
461 4164
461 4288
461 4451
461 4631
461 4809
461 4843
462 497
462 1091
462 1541
462 1836
462 1916
462 1960
462 2108
462 2518
462 3038
462 3075
462 3180
462 3806
462 4070
462 4746
462 4906
462 4941
463 645
463 1549
463 2256
463 2459
463 2663
463 2974
463 3071
463 3090
463 3386
463 3442
463 3948
463 4105
463 4215
463 4633
463 4834
463 4933
463 4956
464 630
464 778
464 1014
464 1558
464 2314
464 2550
464 3323
464 3355
464 3448
464 3820
464 4009
464 4419
464 4539
464 4741
464 4799
465 679
465 922
465 1100
465 1436
465 1740
465 1799
465 2065
465 2389
465 3010
465 3227
465 3471
465 3750
465 4201
465 4222
465 4467
465 4551
466 616
466 751
466 1184
466 1310
466 1357
466 1483
466 1573
466 1674
466 1867
466 2199
466 2258
466 2540
466 2640
466 2695
466 2823
466 3110
466 3260
466 3264
466 3386
466 3555
466 3849
466 3937
466 3981
466 4270
466 4354
466 4510
466 4560
466 4617
466 4858
466 4924
467 475
467 650
467 773
467 1179
467 1265
467 1324
467 1551
467 1814
467 2108
467 2634
467 2874
467 3281
467 3559
467 3564
467 3611
467 3858
467 3888
467 4038
467 4141
467 4875
468 522
468 915
468 1073
468 1215
468 1836
468 2046
468 2282
468 2921
468 3055
468 3231
468 3870
468 4269
468 4275
468 4524
468 4600
469 726
469 823
469 1107
469 1439
469 1709
469 1786
469 1872
469 2095
469 2111
469 2315
469 2531
469 2612
469 2988
469 3012
469 3333
469 3531
469 3551
469 3892
469 4874
469 4985
470 515
470 966
470 1011
470 1029
470 1035
470 1272
470 1378
470 1776
470 2068
470 2355
470 2382
470 2505
470 2552
470 2702
470 2785
470 3020
470 3102
470 3402
470 3488
470 3709
470 4074
470 4169
470 4401
470 4446
470 4471
470 4648
470 4655
470 4835
471 634
471 1076
471 1327
471 1454
471 1481
471 1640
471 2218
471 2340
471 2948
471 3087
471 3338
471 3456
471 3715
471 3738
471 3771
471 3909
471 3950
471 3982
471 4152
471 4364
471 4494
471 4543
471 4547
471 4575
471 4841
472 1105
472 1628
472 1743
472 2140
472 2418
472 2543
472 2773
472 3116
472 3126
472 3257
472 3304
472 3600
472 3618
472 3845
472 3976
472 4097
472 4272
472 4311
472 4395
472 4401
472 4552
472 4686
473 568
473 1106
473 1469
473 1594
473 1767
473 2011
473 2233
473 2341
473 2446
473 2499
473 3167
473 3426
473 3574
473 3624
473 3638
473 3693
473 4626
474 493
474 700
474 776
474 897
474 906
474 922
474 932
474 1289
474 1328
474 1739
474 1761
474 2058
474 2134
474 2206
474 2441
474 2803
474 3335
474 3537
474 4559
474 4936
475 1144
475 1184
475 1421
475 1829
475 2771
475 2787
475 2871
475 3051
475 3097
475 3485
475 3621
475 4306
475 4309
475 4478
475 4978
476 508
476 896
476 1019
476 1093
476 1228
476 1265
476 1279
476 1354
476 1852
476 2534
476 2554
476 2569
476 2681
476 2906
476 2963
476 3084
476 3887
476 3950
476 4165
476 4319
476 4402
476 4627
476 4956
477 1184
477 1403
477 1616
477 2462
477 3591
477 3851
477 3980
477 4242
477 4400
477 4497
478 646
478 953
478 982
478 1118
478 1224
478 2182
478 2459
478 2470
478 2503
478 3097
478 3507
478 3947
478 3977
478 4477
478 4794
479 856
479 1427
479 1464
479 1534
479 1561
479 2097
479 2408
479 2502
479 2585
479 2917
479 2926
479 4342
479 4377
479 4595
479 4657
479 4831
479 4954
480 1356
480 1586
480 1665
480 1981
480 2056
480 2134
480 2408
480 2935
480 3228
480 4008
480 4129
480 4359
480 4533
480 4770
481 699
481 796
481 816
481 1266
481 1764
481 2143
481 2342
481 2549
481 2673
481 2778
481 3313
481 3964
481 4035
481 4145
481 4291
481 4542
481 4913
482 562
482 1106
482 1129
482 1347
482 1504
482 1559
482 1960
482 1984
482 2002
482 2682
482 2783
482 3040
482 3329
482 3607
482 3764
482 4101
482 4323
482 4599
482 4849
483 674
483 758
483 922
483 988
483 1413
483 1554
483 1820
483 1929
483 2030
483 2125
483 2213
483 2317
483 2411
483 2452
483 2704
483 2712
483 2834
483 2891
483 3198
483 3409
483 3536
483 3959
483 4068
483 4233
483 4397
483 4605
483 4985
484 913
484 1098
484 1345
484 2488
484 2741
484 3249
484 3364
484 3426
484 3968
484 4473
484 4602
484 4664
485 599
485 794
485 893
485 948
485 1640
485 1760
485 2053
485 2389
485 2413
485 2481
485 3069
485 3178
485 3189
485 3263
485 3574
485 3758
485 4027
485 4337
485 4485
485 4735
486 677
486 709
486 860
486 1332
486 1364
486 1421
486 1649
486 1902
486 1938
486 2145
486 2243
486 2696
486 3574
486 3607
486 3627
486 3825
486 4199
486 4219
487 1090
487 2046
487 2135
487 2731
487 2975
487 3181
487 3501
487 4072
487 4105
487 4244
487 4548
487 4719
487 4770
488 534
488 606
488 1115
488 1253
488 1807
488 1867
488 2034
488 2604
488 2820
488 3112
488 3257
488 3733
488 3850
488 4210
488 4236
488 4277
488 4347
488 4449
488 4491
488 4572
488 4949
489 523
489 556
489 561
489 840
489 1535
489 1596
489 1624
489 1657
489 1744
489 2011
489 2081
489 2210
489 2335
489 2461
489 2467
489 2834
489 2943
489 3096
489 3244
489 3376
489 3562
489 3580
489 3599
489 3950
489 4503
489 4777
490 885
490 1108
490 1579
490 1973
490 2099
490 2570
490 2834
490 2984
490 3110
490 3319
490 3342
490 3482
490 3871
490 4093
490 4477
490 4639
490 4891
490 4906
490 4919
490 4937
491 721
491 820
491 886
491 1194
491 1203
491 1512
491 1845
491 1936
491 2133
491 2185
491 2330
491 2606
491 2979
491 3413
491 3440
491 3609
491 3748
491 4051
491 4106
491 4152
491 4587
491 4882
491 4908
492 921
492 1140
492 1973
492 2156
492 2161
492 2166
492 2368
492 2449
492 2948
492 3382
492 3592
492 3641
492 3667
492 3714
492 3818
492 4193
492 4257
492 4364
492 4552
493 1318
493 1757
493 2175
493 2570
493 2600
493 2634
493 2777
493 2980
493 3016
493 3048
493 3063
493 3121
493 3758
493 3825
493 3850
493 3934
493 4566
494 638
494 1024
494 1298
494 2387
494 2542
494 2818
494 2906
494 3306
494 3553
494 3621
494 3871
494 4230
494 4281
495 810
495 854
495 889
495 1041
495 1053
495 1201
495 1206
495 1317
495 1332
495 1515
495 1537
495 1651
495 1659
495 1787
495 2103
495 2216
495 2278
495 2344
495 2506
495 2549
495 2574
495 2625
495 2832
495 2876
495 3057
495 3160
495 3285
495 3304
495 3396
495 3420
495 3603
495 3655
495 3758
495 4202
495 4286
495 4440
495 4486
495 4578
495 4588
495 4669
495 4707
495 4795
495 4923
495 4965
496 581
496 700
496 873
496 903
496 1193
496 1222
496 1419
496 1522
496 1699
496 1815
496 2052
496 2111
496 2576
496 2726
496 2797
496 2886
496 2932
496 3062
496 3144
496 3280
496 3420
496 3588
496 3620
496 3638
496 3639
496 3822
496 3886
496 4012
496 4019
496 4064
496 4202
496 4268
496 4287
496 4303
496 4337
496 4626
496 4721
496 4902
497 576
497 584
497 1181
497 1258
497 1861
497 2118
497 2463
497 2503
497 2634
497 2721
497 3167
497 3199
497 3441
497 4043
498 869
498 1057
498 1137
498 1332
498 1362
498 2037
498 2089
498 2116
498 2186
498 2581
498 2653
498 2800
498 3065
498 3127
498 3462
498 4634
498 4652
498 4690
499 660
499 1654
499 1782
499 2123
499 2429
499 2597
499 2979
499 3077
499 3099
499 3178
499 3368
499 3420
499 4215
499 4509
499 4646
499 4724
499 4790
500 613
500 632
500 718
500 730
500 997
500 1000
500 1019
500 1128
500 1427
500 1543
500 1599
500 1658
500 1659
500 1679
500 1816
500 1888
500 2062
500 2174
500 2222
500 2467
500 2514
500 2535
500 2876
500 2993
500 3110
500 3237
500 3354
500 3453
500 3792
500 3851
500 3991
500 4059
500 4076
500 4167
500 4190
500 4226
500 4279
500 4290
500 4388
500 4531
500 4621
500 4640
500 4728
500 4832
500 4847
500 4857
500 4892
500 4896
500 4952
501 561
501 583
501 636
501 744
501 886
501 906
501 918
501 1144
501 1256
501 1338
501 1477
501 1484
501 1538
501 1660
501 1812
501 2055
501 2077
501 2097
501 2170
501 2287
501 2456
501 2585
501 2637
501 2652
501 2692
501 2703
501 2891
501 2895
501 2896
501 2926
501 3032
501 3043
501 3081
501 3126
501 3215
501 3247
501 3265
501 3291
501 3300
501 3319
501 3526
501 3567
501 3846
501 3906
501 3936
501 3957
501 4050
501 4095
501 4112
501 4150
501 4348
501 4386
501 4553
501 4715
501 4729
501 4929
502 538
502 645
502 837
502 1101
502 1333
502 2458
502 2525
502 2739
502 2855
502 2979
502 3193
502 3307
502 4467
502 4733
502 4925
503 1507
503 2064
503 2095
503 2999
503 3702
503 3800
503 4321
503 4495
503 4586
504 595
504 604
504 1165
504 1295
504 1296
504 1567
504 2202
504 2975
504 3332
504 3669
504 3680
504 4414
504 4418
504 4931
504 4986
505 1351
505 1564
505 1721
505 1725
505 1859
505 2398
505 2833
505 2960
505 3063
505 3239
505 3435
505 3650
505 4168
505 4507
505 4622
505 4806
505 4919
506 517
506 545
506 564
506 660
506 883
506 884
506 927
506 1160
506 1468
506 1619
506 1666
506 1704
506 2011
506 2060
506 2126
506 2200
506 2461
506 2773
506 2804
506 2919
506 3135
506 3946
506 4075
506 4122
506 4527
506 4546
506 4560
506 4851
507 512
507 587
507 639
507 707
507 709
507 819
507 1271
507 1350
507 1438
507 1512
507 2200
507 2291
507 2299
507 2382
507 2531
507 2998
507 3076
507 3440
507 3596
507 3788
507 3944
507 4237
507 4353
507 4520
507 4802
508 534
508 883
508 1092
508 1354
508 1908
508 1935
508 2095
508 2387
508 2495
508 2663
508 3056
508 3267
508 3373
508 3976
508 4379
508 4470
508 4555
508 4963
509 579
509 1147
509 1778
509 2035
509 2074
509 2095
509 2399
509 2974
509 3280
509 3375
509 3463
509 3668
509 4362
510 971
510 994
510 1233
510 1305
510 2216
510 2406
510 2926
510 3065
510 3231
510 3308
510 3574
510 3987
510 4200
510 4275
510 4303
510 4721
510 4918
511 659
511 747
511 750
511 1502
511 1686
511 1746
511 1796
511 2012
511 2054
511 2166
511 3002
511 3074
511 3091
511 3266
511 3289
511 3380
511 3465
511 3561
511 3729
511 4242
511 4609
511 4620
511 4821
511 4858
511 4921
512 563
512 1025
512 1176
512 1194
512 1271
512 1542
512 1788
512 2506
512 2563
512 3083
512 3503
512 3701
512 4560
512 4733
513 863
513 1231
513 1485
513 1531
513 1965
513 2505
513 2629
513 2708
513 2853
513 3144
513 4186
514 624
514 1015
514 1308
514 1317
514 1639
514 1893
514 1927
514 1990
514 2371
514 2641
514 2693
514 2822
514 3056
514 3070
514 3196
514 3389
514 3477
514 3718
514 3800
514 3838
514 3887
514 4283
514 4296
514 4590
514 4636
514 4655
514 4717
515 801
515 889
515 1031
515 1653
515 1717
515 1766
515 1782
515 1818
515 1829
515 1861
515 1957
515 2083
515 2371
515 2646
515 2704
515 2727
515 2797
515 2890
515 3684
515 3787
515 4117
515 4147
515 4169
515 4270
515 4912
516 576
516 720
516 999
516 1093
516 1097
516 1172
516 1236
516 1239
516 1506
516 1831
516 2458
516 2566
516 2853
516 3030
516 3087
516 3210
516 3549
516 4288
516 4313
516 4455
516 4646
516 4647
516 4744
517 606
517 995
517 1030
517 1080
517 1167
517 1417
517 1622
517 2060
517 2095
517 2409
517 2449
517 2455
517 2678
517 2824
517 2943
517 3437
517 4166
517 4178
517 4423
517 4908
518 565
518 719
518 1133
518 1904
518 1972
518 2489
518 2842
518 2913
518 3145
518 3308
518 3514
518 3709
518 3750
518 3813
518 4475
518 4834
519 571
519 763
519 1306
519 1443
519 2138
519 2243
519 2473
519 2492
519 2599
519 2648
519 2658
519 2721
519 2747
519 3546
519 3683
519 3818
519 3890
519 3985
519 4024
519 4514
519 4858
520 577
520 680
520 883
520 917
520 932
520 1275
520 1295
520 1689
520 1892
520 2065
520 2254
520 2315
520 2573
520 2701
520 2847
520 2909
520 2952
520 3042
520 3381
520 3487
520 3511
520 3561
520 3808
520 4644
520 4875
521 569
521 590
521 865
521 1285
521 1649
521 1654
521 1761
521 1954
521 2082
521 2395
521 2603
521 2933
521 3006
521 3189
521 3422
521 3556
521 4874
522 544
522 590
522 610
522 750
522 1148
522 1569
522 1777
522 2052
522 2111
522 2346
522 2361
522 2561
522 2570
522 2574
522 2998
522 3171
522 3201
522 3240
522 3371
522 3539
522 3568
522 3685
522 3700
522 4187
523 556
523 604
523 606
523 628
523 666
523 690
523 703
523 707
523 1000
523 1123
523 1247
523 1259
523 1471
523 1516
523 1539
523 1882
523 1992
523 2011
523 2029
523 2334
523 2354
523 2446
523 2451
523 2461
523 2565
523 2750
523 2938
523 2995
523 3024
523 3096
523 3117
523 3155
523 3170
523 3372
523 3447
523 3850
523 3870
523 3904
523 4166
523 4410
523 4448
523 4557
523 4887
523 4988
524 1681
524 1958
524 2052
524 2344
524 2891
524 3197
524 3552
524 3741
524 3913
524 4016
524 4237
524 4470
525 856
525 979
525 1107
525 1287
525 1548
525 1579
525 1678
525 1801
525 1879
525 2326
525 2729
525 2751
525 3190
525 3449
525 3717
525 3984
525 4043
525 4160
525 4225
525 4230
525 4254
525 4332
525 4555
525 4722
525 4729
525 4770
526 603
526 650
526 734
526 898
526 1068
526 1332
526 1341
526 1573
526 2373
526 2582
526 2784
526 3564
526 3669
526 4152
526 4249
526 4578
526 4976
527 627
527 662
527 674
527 942
527 1005
527 1114
527 1132
527 2364
527 2958
527 3172
527 3332
527 3902
527 4311
527 4884
527 4943
527 4969
528 695
528 998
528 1084
528 1569
528 1654
528 1951
528 2415
528 2479
528 2897
528 3143
528 3822
528 3978
528 4699
529 633
529 1267
529 2054
529 2074
529 2157
529 2460
529 2563
529 2802
529 2846
529 3240
529 3425
529 3791
529 4405
530 616
530 694
530 1170
530 1206
530 1433
530 1716
530 2008
530 2250
530 2352
530 2602
530 2860
530 3450
530 3462
530 3706
530 3937
530 4200
530 4357
530 4441
530 4482
530 4486
530 4786
531 804
531 810
531 1006
531 1112
531 1413
531 1441
531 1459
531 1585
531 1593
531 1708
531 1782
531 1799
531 1819
531 2279
531 2515
531 2648
531 2678
531 2981
531 3103
531 3499
531 3731
531 3762
531 4023
531 4378
531 4382
531 4439
531 4857
531 4871
532 704
532 1113
532 1483
532 2084
532 2271
532 2725
532 2863
532 2892
532 2976
532 3368
532 3614
532 3633
532 3796
532 3839
532 3941
532 4165
532 4186
532 4241
532 4488
532 4878
533 579
533 1739
533 2286
533 2418
533 3262
533 3574
533 3647
533 3739
533 3755
533 3935
533 4185
533 4614
534 655
534 667
534 760
534 843
534 1425
534 1517
534 1536
534 1551
534 1646
534 1728
534 1775
534 1861
534 1974
534 2039
534 2061
534 2139
534 2355
534 2590
534 2728
534 2755
534 2991
534 3014
534 3553
534 3621
534 3706
534 3787
534 3862
534 4349
534 4384
534 4896
534 4983
535 537
535 655
535 667
535 744
535 898
535 983
535 1888
535 2061
535 2107
535 2276
535 2583
535 2590
535 2866
535 3397
535 3806
535 3914
535 4274
535 4281
536 735
536 745
536 1306
536 1540
536 1855
536 1933
536 2211
536 2409
536 3309
536 3642
536 3771
536 4067
537 614
537 774
537 1121
537 2161
537 2176
537 2430
537 2545
537 2703
537 2771
537 3224
537 3385
537 3553
537 3621
537 3941
537 3976
537 3977
537 4156
537 4178
537 4393
537 4636
537 4846
537 4956
537 4978
538 605
538 1128
538 1289
538 1363
538 1423
538 1608
538 2103
538 2161
538 2196
538 2398
538 2462
538 2474
538 2534
538 2949
538 3116
538 3424
538 3658
538 3879
538 3907
538 3920
538 4209
538 4212
538 4269
538 4442
538 4495
538 4556
539 688
539 945
539 1040
539 1251
539 1567
539 2073
539 2075
539 2445
539 2566
539 2630
539 2811
539 2908
539 3096
539 3227
539 3477
539 3655
539 3669
539 3696
539 3796
539 4634
539 4754
539 4894
540 758
540 796
540 806
540 2530
540 2694
540 2804
540 2832
540 2942
540 2990
540 3176
540 3575
540 3893
540 4127
540 4352
540 4367
540 4551
540 4610
540 4662
540 4713
540 4915
541 819
541 871
541 1115
541 1130
541 1254
541 1489
541 1530
541 1924
541 2398
541 2885
541 2890
541 2993
541 3481
541 3490
541 4084
541 4364
541 4572
541 4909
542 642
542 694
542 936
542 1125
542 1203
542 1262
542 1320
542 1549
542 1759
542 1957
542 2286
542 2542
542 3124
542 3322
542 4680
542 4773
542 4777
543 804
543 1178
543 2036
543 2130
543 2218
543 2328
543 2551
543 2652
543 2725
543 2761
543 2931
543 3074
543 3408
543 3636
543 4412
543 4650
544 674
544 1113
544 1184
544 1311
544 1536
544 1852
544 1892
544 2095
544 2108
544 2535
544 2637
544 2846
544 2913
544 3121
544 4981
545 667
545 835
545 947
545 1148
545 1189
545 1925
545 2232
545 2363
545 2450
545 3015
545 3242
545 3379
545 3734
545 4999
546 848
546 887
546 1248
546 1476
546 1562
546 2014
546 2250
546 2753
546 3072
546 4525
546 4570
546 4682
547 996
547 1120
547 1339
547 1789
547 2114
547 2603
547 2658
547 2837
547 3180
547 3755
547 3767
547 3952
547 4314
547 4651
547 4853
548 898
548 945
548 1193
548 1371
548 1612
548 1662
548 2225
548 2548
548 2644
548 3427
548 3441
548 3485
548 3662
548 3678
548 3894
548 4277
548 4493
548 4752
548 4812
549 863
549 883
549 950
549 1033
549 1340
549 1452
549 1455
549 1458
549 1471
549 1672
549 1728
549 2060
549 2318
549 2541
549 3002
549 3170
549 3187
549 3225
549 3332
549 3402
549 3934
549 3935
549 3968
549 4290
549 4421
549 4721
549 4728
549 4839
549 4947
549 4967
550 685
550 1011
550 1153
550 1177
550 1346
550 1625
550 1965
550 3119
550 3608
550 3647
550 4052
550 4351
550 4717
550 4943
551 552
551 625
551 1162
551 1408
551 1625
551 1698
551 1740
551 1957
551 2929
551 2931
551 3004
551 3124
551 3306
551 4246
551 4359
551 4646
552 596
552 770
552 891
552 975
552 1547
552 1572
552 1587
552 1613
552 1812
552 1962
552 2057
552 2224
552 2291
552 2440
552 2589
552 3193
552 3277
552 3484
552 3724
552 3756
552 3817
552 3900
552 4306
552 4351
552 4352
552 4536
552 4634
552 4726
552 4932
552 4933
553 817
553 1003
553 1031
553 1473
553 1487
553 2318
553 2593
553 2756
553 3332
553 3483
553 3636
553 3812
553 4053
553 4130
553 4545
553 4604
554 838
554 898
554 1431
554 1520
554 2408
554 3341
554 3349
554 3487
554 3581
554 3839
554 4114
554 4442
554 4617
554 4728
554 4956
555 674
555 692
555 1238
555 1450
555 1471
555 2254
555 2431
555 2628
555 2640
555 2715
555 3066
555 3146
555 3452
555 3504
555 3964
555 4368
555 4623
556 720
556 876
556 896
556 1067
556 1392
556 1469
556 1548
556 1588
556 1858
556 2218
556 2508
556 2640
556 2758
556 2770
556 2900
556 2943
556 3641
556 3780
556 3968
556 4152
556 4839
556 4943
557 642
557 1231
557 1306
557 2058
557 2395
557 2576
557 2746
557 2817
557 3353
557 3372
557 3834
557 3987
557 4244
557 4328
558 1200
558 2648
558 2913
558 3325
558 3416
558 3485
558 3928
558 4335
558 4556
558 4621
558 4782
559 903
559 1097
559 1192
559 1635
559 1753
559 2626
559 2801
559 4007
559 4102
559 4141
559 4177
559 4194
559 4999
560 655
560 750
560 1299
560 1770
560 1794
560 1833
560 2542
560 2799
560 3024
560 3245
560 3384
560 3511
560 3594
560 3723
560 4109
560 4199
560 4274
560 4420
560 4450
560 4475
560 4786
560 4963
561 766
561 772
561 993
561 1303
561 1592
561 1649
561 1817
561 1884
561 1936
561 2036
561 2113
561 2362
561 2368
561 2622
561 2637
561 2891
561 2967
561 3040
561 3063
561 3117
561 3148
561 3406
561 3586
561 3638
561 3640
561 4073
561 4338
561 4588
561 4613
562 684
562 1757
562 1960
562 2019
562 2510
562 2572
562 2589
562 2648
562 2676
562 2993
562 3065
562 3633
562 3754
562 3885
562 4043
562 4097
562 4163
562 4416
562 4562
562 4767
562 4887
563 632
563 871
563 896
563 1728
563 2357
563 2435
563 3370
563 3730
563 3748
563 4234
563 4244
563 4835
563 4930
564 825
564 999
564 1034
564 1540
564 1564
564 1666
564 1768
564 2099
564 2122
564 2245
564 2485
564 2530
564 2745
564 3064
564 3222
564 3714
564 3817
564 4209
564 4609
564 4732
564 4737
565 867
565 1282
565 1479
565 1591
565 1647
565 2114
565 2511
565 2858
565 2869
565 2912
565 2921
565 3075
565 3374
565 3936
565 4073
565 4110
565 4466
565 4572
565 4918
566 744
566 1217
566 1476
566 1549
566 1851
566 2414
566 2564
566 2627
566 2742
566 2943
566 3355
566 4068
566 4096
566 4286
567 768
567 939
567 1675
567 1677
567 1831
567 2704
567 2853
567 3117
567 3136
567 3147
567 3259
567 3622
567 3870
567 4465
567 4552
568 608
568 735
568 750
568 806
568 1093
568 1153
568 1665
568 1687
568 2068
568 2191
568 2193
568 3321
568 3671
568 4414
568 4533
568 4551
568 4850
568 4893
568 4944
569 713
569 780
569 895
569 1031
569 1100
569 1192
569 1219
569 1618
569 1671
569 1870
569 2113
569 2148
569 2740
569 2776
569 2846
569 2922
569 2946
569 3347
569 3672
569 3850
569 3944
569 4095
569 4638
570 577
570 788
570 926
570 967
570 1119
570 1614
570 1843
570 2141
570 2410
570 3165
570 3188
570 3243
570 3402
570 3662
570 3729
570 4242
570 4267
570 4711
570 4921
571 572
571 763
571 784
571 802
571 876
571 925
571 1063
571 1100
571 1159
571 1181
571 1469
571 1701
571 1749
571 1751
571 2200
571 2365
571 2473
571 2492
571 2520
571 2571
571 2642
571 2706
571 2721
571 2747
571 2823
571 2871
571 3153
571 3198
571 3554
571 3572
571 3700
571 3724
571 3782
571 3818
571 4024
571 4475
571 4492
571 4607
571 4768
571 4909
572 831
572 1000
572 1283
572 1309
572 1414
572 1749
572 1751
572 1971
572 2114
572 2211
572 2302
572 2306
572 2473
572 2492
572 3020
572 3080
572 3572
572 3660
572 3782
572 4006
572 4093
572 4274
572 4277
572 4532
572 4607
572 4655
572 4916
573 805
573 927
573 2167
573 2540
573 2834
573 3101
573 3766
573 3864
573 3924
573 3930
573 4137
573 4206
573 4290
573 4315
573 4496
573 4850
574 806
574 1192
574 1373
574 1725
574 1744
574 2010
574 2047
574 2795
574 2905
574 3054
574 3228
574 3445
574 3516
574 3870
574 4660
575 785
575 932
575 1197
575 1471
575 1782
575 2236
575 2523
575 2535
575 2607
575 2732
575 2994
575 3390
575 3714
575 4246
575 4403
575 4496
575 4788
575 4857
576 599
576 768
576 850
576 935
576 1037
576 1049
576 1382
576 1671
576 1933
576 1967
576 2222
576 2281
576 2364
576 2385
576 2417
576 2506
576 2557
576 2656
576 2842
576 2867
576 2924
576 3187
576 3347
576 3381
576 3669
576 4016
576 4025
576 4050
576 4242
576 4289
576 4454
576 4520
576 4687
576 4762
576 4860
576 4875
576 4968
577 1298
577 1538
577 1849
577 2028
577 2050
577 2231
577 2592
577 2860
577 3045
577 3112
577 3521
577 3923
577 4079
577 4165
578 800
578 1121
578 1146
578 2135
578 2796
578 2974
578 3117
578 3339
578 3402
578 3540
578 3691
578 3834
578 3997
578 4913
579 586
579 1630
579 1728
579 2076
579 2203
579 2415
579 3271
579 3371
579 3483
579 3518
579 3793
579 4019
579 4257
579 4550
579 4623
579 4971
580 1099
580 1448
580 1972
580 2102
580 2337
580 2738
580 2912
580 2986
580 3143
580 3273
580 3302
580 3457
580 3481
580 3637
580 4090
581 681
581 860
581 964
581 1785
581 1883
581 2365
581 3002
581 3308
581 3641
581 3976
581 4007
581 4102
581 4797
581 4884
581 4953
582 584
582 779
582 909
582 924
582 1011
582 1048
582 1165
582 1170
582 1495
582 1565
582 1934
582 2168
582 2460
582 2482
582 2499
582 2634
582 2638
582 2926
582 2938
582 3531
582 3532
582 3611
582 3637
582 3721
582 3794
582 3964
582 4067
582 4117
582 4151
582 4185
582 4189
582 4305
582 4469
582 4855
583 607
583 1068
583 1070
583 1288
583 1353
583 1458
583 1594
583 1673
583 1717
583 1858
583 1973
583 2104
583 2119
583 2208
583 2445
583 2828
583 2847
583 2969
583 3054
583 3159
583 3804
583 3935
583 4140
583 4270
583 4715
583 4927
584 941
584 1187
584 1617
584 1631
584 1901
584 2947
584 3069
584 3322
584 3968
584 3990
584 4067
584 4821
584 4973
585 998
585 1786
585 2115
585 2225
585 2676
585 3759
585 3898
585 3916
585 4003
585 4279
585 4344
585 4392
585 4613
585 4655
585 4714
585 4937
585 4958
586 766
586 962
586 1136
586 1179
586 1376
586 1378
586 1739
586 1762
586 2278
586 2371
586 2398
586 2642
586 2656
586 2743
586 2954
586 3191
586 3290
586 3509
586 4254
586 4378
586 4395
586 4484
586 4655
586 4754
586 4774
587 721
587 789
587 1159
587 1645
587 1921
587 2440
587 2855
587 2922
587 2995
587 3170
587 3191
587 3195
587 3940
587 3950
587 4197
587 4378
587 4431
587 4726
588 757
588 963
588 968
588 1251
588 1291
588 1612
588 1635
588 1769
588 1770
588 1782
588 1916
588 1944
588 2622
588 2900
588 4503
588 4822
589 698
589 889
589 896
589 917
589 1032
589 1337
589 1693
589 1873
589 2235
589 2575
589 2667
589 3021
589 3370
589 3452
589 3825
589 4251
589 4321
589 4464
589 4555
589 4623
589 4629
589 4686
589 4757
589 4767
589 4863
589 4993
590 612
590 822
590 949
590 1136
590 1175
590 1290
590 1825
590 2165
590 2214
590 2379
590 2580
590 3085
590 3243
590 3339
590 3542
590 3583
590 3826
590 4210
590 4628
590 4759
590 4875
591 736
591 812
591 1135
591 1179
591 1524
591 2053
591 2382
591 2547
591 2604
591 2874
591 2926
591 3194
591 3618
591 3708
591 4321
592 1026
592 1146
592 1616
592 2079
592 2132
592 2725
592 3585
592 3621
592 3753
592 3984
592 4455
592 4702
592 4805
593 867
593 1180
593 1532
593 1731
593 1917
593 1971
593 2002
593 2453
593 2510
593 2850
593 3153
593 3273
593 3318
593 4399
593 4656
593 4923
594 870
594 933
594 1080
594 1360
594 1401
594 1648
594 1957
594 2159
594 2318
594 2438
594 2511
594 2919
594 3167
594 3634
594 3760
594 4148
594 4259
594 4410
594 4717
594 4974
595 910
595 1122
595 1165
595 2474
595 2685
595 3958
595 4070
595 4199
595 4270
595 4302
595 4342
595 4555
595 4808
595 4959
596 909
596 1251
596 1324
596 2273
596 2474
596 2899
596 3889
596 3939
596 4170
596 4234
596 4318
596 4584
596 4717
596 4939
597 770
597 1868
597 2872
597 2979
597 3042
597 3046
597 3229
597 3840
597 3844
597 3893
597 4427
597 4763
597 4870
598 626
598 644
598 713
598 845
598 938
598 1017
598 1292
598 1301
598 1341
598 1358
598 1586
598 1595
598 1683
598 2119
598 2128
598 2215
598 2443
598 2643
598 3036
598 3114
598 3265
598 3467
598 3485
598 3564
598 3632
598 3942
598 4031
598 4055
598 4175
598 4285
598 4692
598 4732
598 4772
598 4792
599 670
599 677
599 869
599 907
599 1299
599 1331
599 1552
599 1941
599 2134
599 2471
599 2603
599 2636
599 2836
599 4096
599 4478
599 4691
600 851
600 1295
600 2120
600 2698
600 2711
600 2733
600 3106
600 3109
600 3382
600 3613
600 3823
600 3894
600 3929
600 4277
600 4688
600 4987
601 605
601 758
601 1094
601 1222
601 1406
601 1532
601 1599
601 1740
601 1863
601 2044
601 2372
601 3293
601 3994
601 4178
601 4234
601 4237
601 4460
601 4584
602 635
602 689
602 928
602 1289
602 1322
602 1572
602 1621
602 1817
602 1822
602 2179
602 2382
602 2637
602 3230
602 3629
602 3982
602 4133
602 4180
602 4228
602 4273
602 4310
602 4328
602 4347
602 4360
602 4426
602 4488
602 4664
602 4871
603 721
603 964
603 1251
603 2179
603 2254
603 2330
603 2478
603 3098
603 3387
603 3453
603 3473
603 3639
603 3721
603 4616
604 619
604 1771
604 1790
604 1814
604 1958
604 2023
604 2395
604 2585
604 2656
604 2686
604 2922
604 3359
604 3642
604 3909
604 3941
604 4283
604 4494
604 4507
604 4727
604 4904
605 1307
605 1385
605 1431
605 1554
605 1765
605 1771
605 1904
605 2009
605 2103
605 2236
605 2868
605 3460
605 4315
605 4442
606 776
606 863
606 1036
606 1619
606 2186
606 2223
606 2328
606 2475
606 2542
606 2651
606 2905
606 2943
606 3051
606 3135
606 3743
606 3883
606 4245
606 4621
606 4795
606 4947
607 920
607 1428
607 2261
607 2329
607 2351
607 2397
607 2478
607 2676
607 2741
607 2799
607 2826
607 3167
607 3178
607 3601
607 4251
607 4313
608 663
608 1173
608 1309
608 1456
608 1724
608 1957
608 2286
608 2402
608 2446
608 2485
608 2864
608 2911
608 3178
608 3266
608 3273
608 3284
608 3381
608 3418
608 3539
608 4026
608 4185
608 4385
608 4551
608 4565
608 4738
608 4783
609 1338
609 1665
609 1763
609 1805
609 2179
609 2998
609 3027
609 3170
609 3212
609 3383
609 3526
609 3626
609 3636
609 3820
609 3844
609 3940
609 4132
609 4143
609 4180
609 4185
609 4328
609 4572
610 1028
610 1529
610 1699
610 1814
610 2069
610 2125
610 2200
610 2315
610 2369
610 2408
610 2475
610 3244
610 3433
610 3591
610 3632
610 3867
610 4642
611 684
611 865
611 1202
611 1321
611 1617
611 2030
611 2226
611 2914
611 3568
611 3708
611 3838
611 3937
611 3979
611 4036
611 4321
611 4327
611 4732
611 4931
612 662
612 1290
612 1455
612 1470
612 1762
612 1796
612 2123
612 2132
612 2379
612 2719
612 2763
612 2883
612 3308
612 3351
612 3465
612 4004
612 4254
612 4321
612 4568
612 4795
612 4802
613 704
613 980
613 1037
613 1393
613 1427
613 1488
613 1631
613 2485
613 2630
613 2647
613 2962
613 3332
613 3361
613 3379
613 3518
613 3564
613 3761
613 3828
613 3960
613 4000
613 4143
613 4228
613 4232
613 4446
613 4730
613 4906
614 914
614 1118
614 1242
614 1573
614 1659
614 1890
614 1986
614 2408
614 2567
614 2725
614 3113
614 3157
614 3185
614 3274
614 3403
614 3472
614 4310
614 4374
614 4705
615 863
615 904
615 983
615 1092
615 1464
615 1690
615 1777
615 2083
615 2092
615 2108
615 2155
615 2340
615 2342
615 2784
615 2950
615 2997
615 3124
615 3207
615 3334
615 3563
615 3630
615 3741
615 3819
615 3840
615 4056
615 4057
615 4882
616 698
616 804
616 1405
616 1453
616 1941
616 2305
616 2482
616 2631
616 2893
616 3054
616 3364
616 3665
616 3728
616 3801
616 4284
616 4305
616 4455
616 4878
616 4930
617 845
617 1490
617 1562
617 1658
617 1740
617 2032
617 2137
617 2367
617 2796
617 3402
617 3558
617 4152
617 4882
618 719
618 750
618 1114
618 1115
618 1331
618 1483
618 2226
618 2591
618 2703
618 3254
618 3284
618 3883
618 4009
618 4857
618 4930
618 4981
619 831
619 895
619 948
619 1100
619 1378
619 1752
619 1762
619 2390
619 2771
619 2999
619 3075
619 3191
619 3427
619 3489
619 4254
619 4383
619 4415
619 4754
619 4794
620 796
620 1315
620 1355
620 1808
620 1923
620 1979
620 2266
620 2298
620 2397
620 2505
620 2837
620 4010
620 4043
620 4108
620 4176
620 4366
620 4739
620 4847
620 4920
620 4930
621 758
621 875
621 934
621 992
621 1351
621 1361
621 1418
621 1580
621 1597
621 1604
621 1605
621 1615
621 1649
621 1945
621 1946
621 2135
621 2451
621 2492
621 2566
621 2619
621 2998
621 3387
621 3423
621 3598
621 3605
621 3648
621 3712
621 3929
621 4056
621 4097
621 4284
621 4491
621 4850
621 4952
621 4997
622 720
622 1294
622 1425
622 1432
622 1625
622 1635
622 1850
622 1882
622 3229
622 4185
622 4369
622 4402
622 4463
622 4844
623 858
623 1150
623 1341
623 2398
623 2448
623 2620
623 3507
623 3606
623 3659
623 3697
623 4079
623 4085
623 4538
623 4914
623 4937
623 4947
624 1000
624 1060
624 1099
624 1241
624 1264
624 1318
624 1359
624 1779
624 1901
624 1944
624 2261
624 2319
624 2486
624 2515
624 2721
624 3490
624 3690
624 3755
624 3809
624 3851
624 4088
624 4246
624 4270
624 4562
624 4581
624 4811
625 1135
625 1325
625 1345
625 1910
625 2424
625 2794
625 3540
625 3631
625 3672
625 3762
625 4679
625 4717
626 1117
626 1436
626 2052
626 2145
626 2233
626 2361
626 2455
626 2863
626 2909
626 3002
626 3347
626 3632
626 4238
626 4644
627 631
627 662
627 740
627 749
627 935
627 983
627 1238
627 1320
627 1542
627 1725
627 1819
627 2158
627 2461
627 2531
627 2751
627 2775
627 3021
627 3113
627 3178
627 3311
627 3313
627 3584
627 4054
627 4187
627 4449
627 4881
627 4966
628 646
628 685
628 843
628 1197
628 1643
628 2129
628 2885
628 3063
628 3504
628 3959
628 4214
629 706
629 1420
629 1705
629 2629
629 2824
629 2966
629 2979
629 3100
629 3402
629 3546
629 3736
629 4048
629 4616
629 4653
630 1097
630 1350
630 1479
630 1507
630 1582
630 1995
630 2004
630 2458
630 2988
630 3696
630 4052
630 4104
630 4118
630 4575
630 4732
630 4807
631 727
631 766
631 869
631 1075
631 1531
631 1570
631 2032
631 2357
631 2363
631 2412
631 2485
631 2722
631 3123
631 3390
631 3602
631 4199
631 4434
632 790
632 1377
632 1492
632 1741
632 1963
632 1988
632 2222
632 2535
632 2640
632 3070
632 4178
632 4253
632 4375
632 4675
632 4805
632 4866
633 654
633 1160
633 1964
633 1996
633 2124
633 2561
633 2611
633 2939
633 4030
633 4397
633 4413
633 4556
633 4601
633 4673
633 4854
634 738
634 960
634 1095
634 1173
634 1413
634 1729
634 1785
634 1945
634 1985
634 2261
634 3117
634 3189
634 3357
634 3481
634 3879
634 4172
634 4699
634 4857
635 696
635 699
635 803
635 855
635 948
635 1002
635 1037
635 1066
635 1145
635 1651
635 1665
635 1919
635 2107
635 2234
635 2358
635 2625
635 2785
635 2841
635 2886
635 3222
635 3332
635 3518
635 3580
635 3582
635 3636
635 3707
635 3764
635 3805
635 4122
635 4134
635 4332
635 4477
635 4627
635 4703
635 4708
635 4880
635 4909
635 4958
636 1404
636 1886
636 2074
636 2223
636 2242
636 2350
636 2440
636 2479
636 2687
636 2796
636 3128
636 3238
636 3642
636 4509
637 1442
637 1651
637 2523
637 2653
637 2890
637 3045
637 3791
637 3887
637 4102
637 4253
637 4254
637 4448
637 4656
637 4751
638 751
638 851
638 985
638 1013
638 1114
638 1157
638 1192
638 1379
638 1443
638 1630
638 1850
638 1904
638 2033
638 2046
638 2158
638 2231
638 2357
638 2544
638 2702
638 2792
638 3150
638 3183
638 3456
638 3955
638 3997
638 4331
638 4530
638 4806
638 4879
638 4947
638 4972
639 693
639 1089
639 1235
639 1473
639 1595
639 1760
639 1878
639 2189
639 2515
639 2535
639 2563
639 2570
639 2721
639 2746
639 2815
639 3113
639 3118
639 3157
639 3302
639 3327
639 3673
639 3711
639 3843
639 4541
639 4581
639 4701
639 4957
640 766
640 1455
640 1664
640 1688
640 2028
640 2267
640 2395
640 2407
640 3163
640 3438
640 3510
640 3834
640 4011
640 4188
640 4327
640 4465
641 779
641 781
641 830
641 862
641 1267
641 1338
641 1720
641 2062
641 2140
641 3042
641 3117
641 3196
641 3873
641 3953
641 4327
641 4470
641 4814
641 4948
641 4959
642 643
642 867
642 974
642 1025
642 1183
642 1259
642 1563
642 1666
642 2102
642 2232
642 2279
642 2328
642 2670
642 2680
642 2783
642 2845
642 3172
642 3594
642 3762
642 3851
642 4456
642 4611
642 4687
642 4789
642 4847
642 4928
642 4936
642 4993
643 657
643 910
643 931
643 1238
643 1592
643 2460
643 2521
643 2526
643 2636
643 2672
643 2823
643 3494
643 3891
643 3920
643 4639
643 4713
644 673
644 791
644 839
644 960
644 1015
644 1034
644 1269
644 1289
644 1334
644 1845
644 2019
644 2113
644 2230
644 2982
644 4178
644 4647
645 1026
645 1178
645 1570
645 1737
645 2119
645 2230
645 2532
645 2707
645 2735
645 2831
645 3116
645 3176
645 3502
645 3587
645 3754
645 3758
645 4018
645 4019
645 4163
645 4442
645 4819
645 4970
646 933
646 1318
646 1418
646 1653
646 1726
646 1891
646 1929
646 1976
646 2196
646 2249
646 2300
646 2624
646 2730
646 2803
646 2954
646 3042
646 3436
646 3580
646 3861
646 3969
646 4125
646 4176
646 4188
646 4442
646 4755
646 4969
647 960
647 1231
647 1349
647 1670
647 1707
647 1892
647 2293
647 2416
647 2641
647 3480
647 3674
647 4050
647 4118
647 4283
648 674
648 972
648 1033
648 1068
648 1233
648 1248
648 1534
648 1810
648 2218
648 2357
648 2393
648 2427
648 2711
648 2959
648 3046
648 3254
648 3397
648 4461
648 4508
649 968
649 1237
649 1266
649 1795
649 1880
649 2221
649 2414
649 2421
649 2809
649 2981
649 2997
649 3287
649 3301
649 4007
649 4708
649 4785
649 4875
650 1026
650 1115
650 1172
650 1194
650 1272
650 1312
650 1560
650 1579
650 1582
650 1699
650 1786
650 1800
650 1922
650 2036
650 2229
650 2281
650 2285
650 2312
650 2396
650 2419
650 2423
650 2464
650 2566
650 2570
650 2646
650 2948
650 3166
650 3182
650 3265
650 3485
650 4137
650 4144
650 4181
650 4194
650 4237
650 4369
650 4497
650 4522
650 4603
650 4614
650 4619
650 4672
650 4690
650 4874
650 4878
651 683
651 1189
651 1385
651 1847
651 2345
651 2548
651 3095
651 3167
651 3515
651 3590
651 3624
651 3814
651 3868
651 4021
651 4199
651 4367
652 785
652 1083
652 1285
652 1341
652 2974
652 2978
652 3053
652 3377
652 3485
652 3530
652 3625
652 4067
652 4505
652 4626
653 774
653 1234
653 1376
653 1684
653 1888
653 2151
653 2245
653 2335
653 2506
653 2642
653 2644
653 2961
653 2979
653 3195
653 3220
653 3627
653 3811
653 4167
653 4309
653 4358
653 4364
653 4487
653 4494
653 4550
653 4829
653 4880
653 4949
653 4962
653 4986
654 1262
654 2015
654 2111
654 2124
654 2315
654 3245
654 3372
654 3889
654 4078
654 4290
654 4505
655 987
655 1354
655 1468
655 1536
655 1677
655 1799
655 1900
655 2000
655 2330
655 2408
655 2582
655 2765
655 2906
655 2974
655 3114
655 4123
655 4771
655 4993
656 1226
656 1343
656 1897
656 1976
656 1983
656 2045
656 2172
656 2316
656 2464
656 2483
656 2668
656 2714
656 2934
656 3042
656 3124
656 3319
656 3374
656 4093
656 4120
656 4419
657 850
657 1104
657 1143
657 1289
657 1597
657 1609
657 2229
657 2279
657 2380
657 2724
657 2730
657 2746
657 3123
657 3296
657 3341
657 3670
657 3725
657 3781
657 3940
657 4355
657 4595
657 4655
657 4740
658 682
658 694
658 1148
658 1184
658 1220
658 1256
658 1498
658 1992
658 2438
658 2462
658 2606
658 2720
658 2828
658 3067
658 3389
658 3646
658 4509
658 4700
658 4744
658 4841
659 813
659 938
659 1347
659 1571
659 1630
659 2513
659 2641
659 2736
659 2920
659 2972
659 3317
659 3328
659 3674
659 3708
659 3796
659 3943
659 4274
659 4479
659 4535
659 4802
659 4810
659 4929
660 977
660 1084
660 1087
660 1169
660 1230
660 1739
660 1884
660 1896
660 2306
660 2428
660 2480
660 2680
660 2716
660 2811
660 2976
660 3324
660 3585
660 3697
660 3807
660 4107
660 4114
660 4318
660 4450
660 4653
660 4881
660 4925
660 4988
661 691
661 911
661 953
661 1478
661 2459
661 2546
661 3132
661 3155
661 3360
661 3386
661 4267
661 4805
661 4962
662 809
662 1050
662 1249
662 1340
662 1436
662 1470
662 1487
662 1563
662 1571
662 1673
662 1730
662 1897
662 1970
662 2061
662 2092
662 2446
662 2499
662 2587
662 2607
662 2716
662 2779
662 2793
662 3006
662 3200
662 3321
662 3354
662 3361
662 3490
662 3781
662 3893
662 3985
662 4026
662 4221
662 4540
662 4610
662 4692
662 4775
662 4888
662 4894
662 4970
663 723
663 771
663 1296
663 1325
663 1389
663 1671
663 1795
663 1799
663 2096
663 2196
663 2256
663 2530
663 2693
663 2739
663 2825
663 3202
663 3616
663 4173
663 4203
663 4207
663 4461
663 4499
663 4502
663 4551
663 4563
663 4610
664 863
664 1266
664 1417
664 1453
664 1574
664 1640
664 1870
664 1923
664 1928
664 2036
664 2409
664 2486
664 2723
664 2943
664 3135
664 3222
664 3410
664 3588
664 4325
664 4562
664 4765
664 4851
665 922
665 965
665 1081
665 1660
665 1960
665 2139
665 2834
665 3043
665 3100
665 3342
665 3524
665 3541
665 4233
666 863
666 984
666 988
666 1018
666 1033
666 1226
666 1259
666 1602
666 2011
666 2153
666 2389
666 2943
666 2953
666 3091
666 3210
666 3749
666 4149
666 4422
666 4448
666 4623
666 4758
667 670
667 812
667 880
667 898
667 906
667 1185
667 1309
667 1498
667 1583
667 1754
667 1788
667 2135
667 2237
667 2246
667 2312
667 2330
667 2387
667 2401
667 2625
667 2903
667 3373
667 3528
667 3661
667 3675
667 3714
667 3726
667 3950
667 4281
667 4593
667 4663
667 4978
668 2351
668 2363
668 2451
668 2928
668 2946
668 3052
668 3339
668 3540
668 3594
668 4136
668 4217
668 4480
669 745
669 899
669 1093
669 1115
669 1625
669 1645
669 1664
669 2060
669 2096
669 2461
669 2542
669 2583
669 2775
669 2861
669 3565
669 3985
669 4714
669 4832
669 4853
670 858
670 1937
670 2033
670 2201
670 2462
670 2524
670 2572
670 3057
670 3123
670 3202
670 3596
670 3829
670 4205
670 4589
670 4812
670 4871
671 930
671 960
671 1042
671 1046
671 1078
671 1141
671 1190
671 1230
671 1785
671 2224
671 2327
671 2532
671 2747
671 3023
671 3365
671 3597
671 3800
671 3826
671 3860
671 4169
671 4536
671 4682
671 4699
671 4775
671 4962
672 689
672 806
672 1888
672 1930
672 2120
672 2837
672 3201
672 3234
672 3912
672 4422
672 4541
672 4717
672 4984
673 718
673 897
673 1319
673 1554
673 1644
673 1681
673 1732
673 2048
673 2054
673 2496
673 2506
673 2834
673 2940
673 3294
673 3939
673 4046
673 4194
673 4233
673 4365
673 4744
673 4824
673 4958
674 1467
674 1529
674 1930
674 2003
674 2222
674 2851
674 3022
674 3325
674 3806
674 3945
674 4275
674 4539
675 753
675 1320
675 1348
675 1591
675 2016
675 2493
675 2975
675 3851
675 4021
675 4416
675 4779
676 682
676 851
676 1039
676 1735
676 2039
676 2082
676 2464
676 2592
676 2885
676 2903
676 3977
676 4084
676 4309
676 4425
676 4993
676 4996
677 919
677 1295
677 1375
677 1506
677 1907
677 3159
677 3728
677 4067
677 4225
677 4608
678 825
678 922
678 1120
678 1252
678 1586
678 1722
678 2040
678 2834
678 3027
678 3536
678 3540
678 4092
678 4645
679 1086
679 1156
679 1623
679 1771
679 2301
679 2446
679 2609
679 3571
679 3893
679 4095
679 4276
679 4551
679 4937
680 1403
680 1880
680 2451
680 2505
680 2687
680 3191
680 3244
680 3402
680 3688
680 4233
680 4306
680 4377
680 4632
681 803
681 866
681 1014
681 1569
681 1678
681 2237
681 2752
681 2922
681 2949
681 2980
681 2993
681 3044
681 3403
681 3666
681 3684
681 3931
681 3932
681 4035
681 4613
681 4851
682 1039
682 1085
682 1167
682 1374
682 1849
682 1936
682 2112
682 2185
682 2222
682 2282
682 2601
682 2685
682 2779
682 2883
682 3051
682 3074
682 3112
682 3168
682 3389
682 3439
682 3558
682 3718
682 3824
682 3950
682 3965
682 4165
682 4258
682 4523
683 1144
683 1491
683 2482
683 2525
683 3575
683 3953
683 4053
683 4157
683 4268
683 4387
683 4414
683 4739
683 4954
684 1265
684 1332
684 1397
684 1424
684 1760
684 2418
684 2558
684 3181
684 3375
684 3485
684 3717
684 4283
685 748
685 888
685 901
685 1100
685 1196
685 1250
685 1270
685 1279
685 1345
685 1441
685 1560
685 1601
685 1992
685 2082
685 2374
685 2718
685 2960
685 2983
685 3039
685 3385
685 3471
685 3538
685 3608
685 3868
685 3940
685 3996
685 4108
685 4154
685 4263
685 4319
685 4374
685 4539
685 4816
685 4910
685 4919
685 4950
685 4999
686 1144
686 1592
686 1625
686 2056
686 2134
686 2138
686 2534
686 2640
686 2649
686 2694
686 2901
686 2928
686 2988
686 3853
686 4011
686 4178
686 4414
686 4999
687 703
687 707
687 736
687 1160
687 1184
687 1536
687 1591
687 1654
687 1685
687 1780
687 1844
687 2145
687 2315
687 2500
687 2778
687 2797
687 3822
687 4105
687 4601
687 4875
687 4937
688 893
688 954
688 1014
688 1305
688 1447
688 1664
688 1690
688 1719
688 2021
688 2211
688 2432
688 2837
688 2958
688 3159
688 3399
688 3485
688 3611
688 3705
688 3854
688 4265
688 4482
688 4913
689 1298
689 1367
689 1420
689 1491
689 1694
689 2095
689 2201
689 2583
689 2965
689 3158
689 3312
689 3361
689 4789
689 4842
690 879
690 1081
690 1363
690 1598
690 1646
690 1981
690 2234
690 2432
690 2503
690 2695
690 2984
690 3085
690 3198
690 3833
690 4279
690 4288
690 4359
690 4476
690 4533
691 1068
691 1317
691 1354
691 1599
691 1879
691 3124
691 3132
691 3481
691 4328
691 4370
691 4425
691 4642
692 745
692 809
692 1614
692 1725
692 1841
692 2220
692 2462
692 2771
692 2839
692 2946
692 3128
692 3486
692 3655
692 4139
693 906
693 1020
693 1115
693 1140
693 1323
693 1528
693 1804
693 1863
693 1939
693 2279
693 2553
693 2747
693 2925
693 3617
693 4551
693 4562
693 4788
693 4999
694 962
694 1186
694 1338
694 1549
694 1896
694 2037
694 2116
694 2122
694 2602
694 2795
694 3067
694 3146
694 3179
694 3252
694 3578
694 3728
694 4121
694 4123
694 4131
694 4205
694 4242
694 4346
694 4444
694 4611
694 4646
694 4777
695 744
695 833
695 1226
695 1553
695 1690
695 1701
695 2057
695 2268
695 2580
695 2602
695 2611
695 2738
695 2778
695 2797
695 2926
695 2995
695 3072
695 3229
695 4010
695 4287
695 4313
695 4601
695 4603
696 743
696 1100
696 1229
696 1320
696 1824
696 2049
696 2318
696 2327
696 2380
696 2417
696 2527
696 2947
696 2967
696 3086
696 3404
696 3825
696 3874
696 4018
696 4052
696 4323
696 4401
696 4866
697 760
697 1211
697 1657
697 1795
697 1843
697 1944
697 2343
697 2591
697 2640
697 2726
697 2890
697 2975
697 3123
697 3751
697 3854
697 4514
697 4723
697 4979
698 899
698 1200
698 1304
698 1337
698 1391
698 1506
698 1518
698 1843
698 1847
698 2294
698 2433
698 2627
698 2700
698 3086
698 3618
698 4096
698 4465
698 4787
698 4937
699 704
699 1471
699 1483
699 1586
699 1812
699 2058
699 2107
699 2116
699 2179
699 2268
699 2317
699 2658
699 3293
699 3636
699 3820
699 4180
699 4307
699 4621
699 4624
699 4731
700 1208
700 1559
700 1696
700 1705
700 1883
700 2105
700 2144
700 2300
700 2943
700 3233
700 3347
700 4113
700 4164
700 4369
700 4390
700 4462
700 4623
701 908
701 1478
701 2148
701 2320
701 2325
701 3340
701 3624
701 4118
701 4155
701 4900
702 720
702 784
702 1253
702 1377
702 1501
702 1992
702 2145
702 2306
702 2540
702 2591
702 2650
702 2697
702 2952
702 3098
702 3428
702 3642
702 4605
703 912
703 1438
703 1475
703 1666
703 2069
703 2101
703 2123
703 2294
703 2315
703 2908
703 3564
703 3601
703 4161
703 4243
703 4680
703 4878
704 715
704 784
704 1115
704 1134
704 1343
704 1427
704 1480
704 1584
704 1601
704 1846
704 1917
704 1954
704 2107
704 2451
704 2626
704 2951
704 3211
704 3636
704 3696
704 3734
704 3769
704 3820
704 3917
704 3918
704 4180
704 4248
704 4347
704 4371
704 4513
704 4554
704 4573
704 4728
704 4757
704 4825
705 996
705 1000
705 1315
705 1515
705 1573
705 1751
705 1856
705 2404
705 2438
705 2462
705 2766
705 2890
705 3067
705 3302
705 3365
705 3406
705 3417
705 3858
705 4029
705 4135
705 4142
705 4558
705 4560
705 4837
706 1123
706 1218
706 1823
706 2248
706 2440
706 2514
706 2700
706 2913
706 3004
706 3364
706 3427
706 3449
706 3821
706 3909
706 4044
706 4046
706 4264
706 4454
706 4488
706 4946
707 725
707 735
707 1053
707 1141
707 1223
707 1584
707 1656
707 1689
707 2774
707 2798
707 3005
707 3103
707 3212
707 3222
707 3229
707 3635
707 3657
707 3729
707 4071
707 4237
707 4313
707 4858
707 4931
707 4934
708 906
708 960
708 2030
708 2249
708 2712
708 2869
708 2945
708 3081
708 3087
708 3893
708 3960
708 4728
709 830
709 1363
709 1592
709 2237
709 2587
709 3308
709 3475
709 3943
709 4196
709 4234
710 992
710 1368
710 1495
710 1681
710 1710
710 1744
710 1792
710 2517
710 2576
710 2664
710 2807
710 3066
710 3230
710 3398
710 3504
710 3636
710 3648
710 4217
710 4224
710 4245
710 4421
710 4723
710 4869
710 4967
710 4998
711 756
711 1380
711 1402
711 1661
711 1692
711 1794
711 1973
711 2182
711 2373
711 2495
711 2563
711 2682
711 2695
711 2833
711 2941
711 2960
711 3020
711 3346
711 3749
711 3799
711 3840
711 4207
711 4225
711 4518
711 4764
711 4767
712 770
712 823
712 1097
712 1566
712 1859
712 1945
712 2298
712 2500
712 2668
712 2741
712 3035
712 3347
712 3490
712 3653
712 3714
712 3841
712 3894
712 4264
712 4767
712 4886
713 970
713 1039
713 1189
713 1210
713 1363
713 1505
713 2310
713 2503
713 2635
713 2941
713 3034
713 3044
713 3155
713 3933
713 4171
713 4278
713 4279
713 4307
713 4359
713 4561
713 4569
713 4743
713 4914
714 1090
714 1127
714 1231
714 1985
714 2073
714 2588
714 2602
714 2974
714 3679
714 3706
714 3731
714 3802
714 3923
714 4263
714 4660
714 4664
714 4972
715 1106
715 1223
715 1322
715 1443
715 1616
715 1651
715 2179
715 2448
715 2449
715 2551
715 2578
715 3263
715 3636
715 3711
715 3820
715 4077
715 4752
716 1476
716 1748
716 1893
716 2088
716 2363
716 2405
716 2697
716 2943
716 3083
716 3173
716 3792
716 3868
716 4114
716 4531
716 4607
716 4934
717 1248
717 1573
717 1736
717 2185
717 2653
717 2747
717 3939
717 4206
718 1067
718 1741
718 1986
718 2076
718 2092
718 3061
718 3226
718 3339
718 3385
718 3420
718 3465
718 4019
718 4184
718 4858
719 1518
719 1657
719 1734
719 1922
719 2095
719 2472
719 2721
719 3167
719 3765
719 3966
719 4021
719 4237
719 4337
719 4430
719 4834
719 4934
720 828
720 914
720 984
720 1102
720 1152
720 1317
720 1469
720 1668
720 1684
720 1789
720 1926
720 2069
720 2342
720 2560
720 2761
720 3278
720 3353
720 3707
720 3799
720 4642
720 4824
721 909
721 1844
721 1874
721 2521
721 2640
721 3020
721 3097
721 3256
721 4026
721 4081
721 4104
721 4745
722 883
722 1453
722 1725
722 2042
722 2113
722 2405
722 2424
722 2548
722 2854
722 4348
723 782
723 1177
723 1327
723 1415
723 2032
723 2057
723 2491
723 2960
723 2992
723 3121
723 3174
723 3985
723 4148
723 4538
723 4858
723 4888
724 1115
724 1319
724 1690
724 1720
724 2035
724 2091
724 2142
724 2410
724 2873
724 3234
724 3462
724 3793
724 3823
724 3851
724 4010
724 4258
724 4588
724 4678
724 4781
725 824
725 938
725 1834
725 2169
725 2181
725 2720
725 3007
725 3609
725 3714
725 3795
725 4363
725 4851
725 4866
726 1160
726 1243
726 1654
726 1984
726 2052
726 2088
726 2721
726 3189
726 3222
726 4025
726 4313
726 4401
726 4431
726 4644
726 4665
727 767
727 808
727 869
727 887
727 979
727 1070
727 1076
727 1190
727 1352
727 1410
727 1488
727 1559
727 2363
727 2611
727 2660
727 2756
727 2775
727 3017
727 3046
727 3066
727 3097
727 3162
727 3402
727 3544
727 3761
727 3825
727 3974
727 4224
727 4255
728 815
728 897
728 1053
728 1097
728 1227
728 2121
728 2265
728 2358
728 2364
728 2490
728 2501
728 2584
728 2645
728 2661
728 2804
728 3010
728 3485
728 3520
728 3706
728 3744
728 3790
728 3798
728 3981
728 4084
728 4717
728 4732
728 4976
729 1061
729 1250
729 1651
729 1833
729 2480
729 2578
729 2790
729 3067
729 3282
729 3573
729 3882
729 4129
729 4180
729 4228
729 4232
730 1040
730 1200
730 1268
730 1324
730 1574
730 1645
730 2478
730 2544
730 2835
730 3086
730 3157
730 3188
730 3574
730 3708
730 3729
730 3762
730 3872
730 3907
730 3911
730 3916
730 4956
731 856
731 1935
731 1946
731 2405
731 2566
731 2604
731 2651
731 2697
731 2843
731 3008
731 3429
731 3771
731 4152
731 4238
732 744
732 1305
732 1891
732 1988
732 2144
732 2152
732 2306
732 2385
732 2484
732 2605
732 2640
732 2921
732 3363
732 3411
732 3488
732 3513
732 3585
732 3609
732 4313
732 4539
732 4724
732 4850
732 4858
732 4882
733 894
733 1165
733 1206
733 1643
733 1649
733 1883
733 2172
733 2726
733 3310
733 3452
733 3465
733 4293
733 4882
734 761
734 1109
734 1254
734 1558
734 1614
734 1648
734 1823
734 1925
734 2144
734 2302
734 2843
734 2999
734 3143
734 3646
734 3652
734 4570
735 872
735 1002
735 1209
735 1323
735 1328
735 1356
735 1730
735 1779
735 1902
735 1976
735 2045
735 2236
735 2269
735 2508
735 2725
735 2799
735 2885
735 3013
735 3043
735 3198
735 3292
735 3293
735 3405
735 3596
735 3770
735 3863
735 3901
735 4115
735 4153
735 4223
735 4285
735 4319
735 4374
735 4907
736 773
736 820
736 930
736 1073
736 1469
736 1957
736 2530
736 2599
736 3009
736 3409
736 3900
736 4367
736 4410
737 744
737 1348
737 2142
737 2969
737 3366
737 3567
737 3684
737 3854
737 4193
737 4692
738 829
738 1449
738 3028
738 3055
738 3399
738 3521
738 3663
738 3900
738 4132
738 4189
738 4448
738 4531
739 923
739 1086
739 1374
739 1916
739 2095
739 2153
739 2566
739 2809
739 3008
739 3258
739 3274
739 3487
739 3565
739 3789
739 3839
739 4340
739 4538
739 4541
739 4934
740 766
740 1115
740 1256
740 1656
740 1688
740 2230
740 2307
740 2388
740 2648
740 2723
740 2935
740 3000
740 3254
740 3286
740 3398
740 3482
740 3762
740 4243
740 4367
740 4590
740 4784
740 4857
741 819
741 1649
741 2064
741 2136
741 2261
741 3030
741 3076
741 3196
741 3379
741 3798
741 4028
741 4428
741 4767
741 4816
742 761
742 957
742 991
742 1037
742 1050
742 1140
742 1421
742 1429
742 1599
742 1804
742 1925
742 2097
742 2391
742 2454
742 2684
742 2738
742 3004
742 3789
742 3970
742 4460
742 4832
743 1105
743 1510
743 1523
743 1568
743 1812
743 1902
743 2595
743 2602
743 2661
743 2943
743 3419
743 4057
743 4678
743 4875
744 1115
744 1322
744 1371
744 1674
744 2141
744 2258
744 2260
744 2286
744 2321
744 2322
744 2396
744 2841
744 3318
744 3332
744 3443
744 3998
744 4159
744 4474
744 4511
744 4560
744 4724
744 4858
745 756
745 889
745 917
745 969
745 1004
745 1053
745 1057
745 1159
745 1622
745 1626
745 2003
745 2315
745 2405
745 2459
745 2603
745 2705
745 2783
745 2818
745 2920
745 3118
745 3173
745 3214
745 3240
745 3293
745 3313
745 3333
745 3361
745 3529
745 3555
745 3643
745 3790
745 3806
745 3973
745 4059
745 4082
745 4133
745 4202
745 4216
745 4362
745 4513
745 4555
745 4731
745 4770
745 4817
745 4826
745 4887
745 4938
746 1302
746 1881
746 2011
746 2578
746 2889
746 2975
746 3191
746 3365
746 3824
746 3838
746 4250
746 4318
746 4568
746 4832
747 1615
747 2051
747 2117
747 2355
747 2467
747 2471
747 2788
747 2858
747 2997
747 3087
747 3789
747 3825
747 3873
747 4375
747 4478
747 4979
748 1991
748 2015
748 2072
748 2102
748 2234
748 2639
748 2722
748 2778
748 2797
748 2976
748 3307
748 3727
748 4163
748 4546
748 4601
749 884
749 897
749 914
749 1060
749 1190
749 1289
749 1300
749 1447
749 1827
749 1987
749 2781
749 2827
749 2903
749 3244
749 3325
749 3699
749 3858
749 3956
749 4071
749 4152
749 4324
749 4363
749 4409
749 4578
749 4842
749 4858
749 4997
750 762
750 916
750 1132
750 1156
750 1340
750 1436
750 1456
750 1568
750 1584
750 1614
750 1905
750 2049
750 2150
750 2152
750 2233
750 2493
750 2499
750 2514
750 2678
750 2680
750 3007
750 3335
750 3387
750 3470
750 3485
750 3514
750 3703
750 3893
750 3910
750 4276
750 4551
750 4610
750 4783
750 4993
751 907
751 1174
751 1489
751 1825
751 1931
751 1936
751 2420
751 2492
751 2884
751 2926
751 2995
751 3063
751 3095
751 3553
751 3617
751 3627
751 4073
751 4123
751 4239
751 4307
751 4359
751 4419
751 4539
751 4943
752 815
752 931
752 1108
752 1238
752 1435
752 1628
752 1672
752 1816
752 1827
752 3942
752 4107
752 4661
753 1015
753 1055
753 1082
753 1167
753 1287
753 1340
753 1411
753 1500
753 1608
753 1623
753 1955
753 2234
753 2381
753 2600
753 2607
753 2634
753 2816
753 2996
753 3135
753 3147
753 3153
753 3196
753 3297
753 3321
753 3338
753 3367
753 3394
753 3602
753 3711
753 4524
753 4742
753 4907
754 1460
754 1464
754 1639
754 1919
754 3013
754 3202
754 3342
754 3629
754 3650
754 3725
754 4092
754 4143
754 4164
755 1130
755 1137
755 1144
755 1442
755 1483
755 1729
755 1775
755 2387
755 2553
755 2602
755 2754
755 2770
755 3142
755 3244
755 4128
756 800
756 1132
756 1815
756 1924
756 2165
756 2833
756 3043
756 3519
756 3527
756 3569
756 3950
756 4088
756 4207
757 764
757 829
757 877
757 911
757 930
757 992
757 1149
757 1214
757 1306
757 1620
757 1894
757 1915
757 2165
757 2326
757 2344
757 2391
757 2808
757 2868
757 2890
757 2939
757 3134
757 3445
757 3740
757 3964
757 4142
757 4303
757 4627
757 4676
758 938
758 975
758 989
758 1115
758 1362
758 1390
758 1540
758 1631
758 1771
758 2015
758 2318
758 2754
758 3475
758 3813
758 4407
758 4583
758 4702
758 4861
759 1489
759 1680
759 2036
759 2089
759 2711
759 3023
759 3398
759 3860
759 3930
759 4010
759 4241
759 4348
759 4354
759 4447
759 4494
759 4954
760 1258
760 1497
760 1563
760 2074
760 2318
760 2994
760 3051
760 3170
760 3482
760 3771
760 3868
760 3893
760 4551
760 4910
761 948
761 994
761 1109
761 1144
761 1157
761 1283
761 1455
761 1740
761 1997
761 2469
761 3022
761 3402
761 3495
761 3505
761 3932
761 4104
761 4327
761 4426
761 4481
761 4769
762 774
762 873
762 1090
762 1535
762 1949
762 2096
762 2436
762 2873
762 3433
762 4090
762 4191
762 4408
762 4559
762 4600
762 4607
762 4646
762 4736
762 4812
762 4988
763 1011
763 2135
763 2445
763 2451
763 2453
763 2512
763 2706
763 2721
763 3694
763 3950
763 4178
763 4422
763 4619
764 807
764 829
764 1279
764 1662
764 1945
764 2088
764 2627
764 2872
764 2919
764 3031
764 3054
764 3749
764 4342
764 4470
764 4493
764 4674
764 4768
765 940
765 1025
765 1464
765 1552
765 1853
765 2027
765 2029
765 2108
765 2118
765 2141
765 2326
765 2388
765 2390
765 2536
765 2830
765 3093
765 3653
765 3675
765 3816
765 4587
765 4897
766 776
766 802
766 843
766 1067
766 1327
766 1464
766 1685
766 1750
766 1815
766 1837
766 1948
766 2130
766 2270
766 2466
766 2631
766 2669
766 2819
766 2990
766 3020
766 3053
766 3386
766 3417
766 3661
766 3726
766 3801
766 3857
766 3954
766 3963
766 3997
766 4073
766 4255
766 4269
766 4395
766 4510
766 4558
766 4570
766 4800
766 4939
766 4940
766 4955
766 4995
767 984
767 1047
767 1065
767 1087
767 1232
767 1332
767 1476
767 1653
767 1664
767 2010
767 2299
767 2401
767 2759
767 3066
767 3332
767 3365
767 3917
767 4079
767 4164
767 4360
767 4448
767 4607
767 4938
768 1008
768 1017
768 1069
768 1630
768 1982
768 2095
768 2211
768 2306
768 2556
768 2751
768 2882
768 3332
768 3400
768 3631
768 3666
768 3676
768 3845
768 4055
768 4204
768 4255
768 4533
768 4650
769 1257
769 1519
769 1552
769 1631
769 1965
769 2117
769 2471
769 2515
769 2743
769 3159
769 3345
769 3441
769 3571
769 3737
769 3827
769 3952
769 4120
769 4148
769 4691
769 4806
769 4869
769 4966
770 987
770 1197
770 1337
770 1842
770 3080
770 3137
770 3526
770 4090
770 4097
770 4191
770 4555
771 1327
771 1355
771 1519
771 1548
771 1594
771 1841
771 2051
771 2301
771 2418
771 2471
771 2530
771 2643
771 2958
771 3026
771 3066
771 3538
771 3857
771 3864
771 4210
771 4780
772 848
772 1447
772 1464
772 1551
772 1572
772 2122
772 2134
772 2392
772 2633
772 3332
772 3532
772 3555
772 3631
772 3822
772 4209
772 4387
772 4731
772 4762
772 4780
772 4945
773 867
773 916
773 1098
773 1237
773 1285
773 1286
773 1292
773 1362
773 1374
773 1383
773 1421
773 1527
773 1794
773 1896
773 1898
773 1918
773 1919
773 2049
773 2313
773 2414
773 2445
773 2507
773 2630
773 2820
773 3010
773 3018
773 3045
773 3109
773 3301
773 3446
773 3741
773 3789
773 3800
773 3897
773 3957
773 3972
773 3982
773 4005
773 4014
773 4148
773 4280
773 4295
773 4340
773 4456
773 4541
773 4549
773 4662
773 4794
773 4812
773 4829
774 860
774 865
774 938
774 1209
774 1223
774 1401
774 1533
774 1698
774 1902
774 1938
774 2079
774 2133
774 2159
774 2373
774 2393
774 2572
774 2655
774 2708
774 2935
774 3179
774 3198
774 3234
774 3293
774 3510
774 3691
774 3824
774 3863
774 4031
774 4058
774 4265
774 4457
774 4836
774 4873
774 4946
775 1062
775 1063
775 1255
775 1268
775 1327
775 1942
775 2074
775 2270
775 2285
775 2301
775 2481
775 2655
775 2853
775 2880
775 3176
775 3856
775 3868
775 4003
775 4060
775 4502
775 4511
775 4666
775 4850
776 778
776 829
776 870
776 879
776 898
776 1426
776 1657
776 1815
776 2064
776 2081
776 2144
776 2145
776 2387
776 2569
776 2574
776 2733
776 2963
776 3340
776 3390
776 3567
776 3600
776 3810
776 4109
776 4165
776 4199
776 4275
776 4627
777 793
777 980
777 996
777 1019
777 1174
777 1203
777 1342
777 1428
777 1704
777 1856
777 1931
777 1968
777 2081
777 2336
777 2462
777 2592
777 2640
777 2665
777 2742
777 2758
777 2834
777 2869
777 2983
777 3148
777 3204
777 3321
777 3369
777 3531
777 3961
777 3998
777 4043
777 4224
777 4275
777 4526
777 4609
777 4637
777 4661
777 4670
777 4770
777 4815
777 4851
777 4998
778 794
778 874
778 1408
778 1852
778 2013
778 2190
778 2660
778 2703
778 2988
778 3002
778 3218
778 3324
778 3810
778 3939
778 4547
778 4575
778 4960
779 927
779 1177
779 1199
779 1237
779 1265
779 1389
779 1777
779 2095
779 2134
779 2266
779 2302
779 2374
779 2561
779 2814
779 3018
779 3043
779 3672
779 3937
779 4022
779 4208
779 4273
779 4314
779 4478
779 4528
780 834
780 931
780 1024
780 1090
780 1135
780 1189
780 1343
780 1398
780 1429
780 1725
780 1896
780 2274
780 2295
780 2754
780 2994
780 3277
780 3313
780 3315
780 3707
780 3923
780 3969
780 3973
780 4140
780 4572
780 4898
781 1014
781 1267
781 1796
781 1994
781 2020
781 2382
781 2412
781 2509
781 2538
781 3219
781 3766
781 4067
781 4563
781 4943
782 1461
782 1489
782 1707
782 1732
782 2097
782 2162
782 2637
782 2892
782 3345
782 3976
782 4026
782 4565
782 4639
782 4657
783 2046
783 2110
783 2312
783 2577
783 2864
783 3420
783 3688
783 3776
783 3851
783 4019
783 4145
783 4438
783 4595
783 4733
783 4940
784 1081
784 1501
784 1659
784 2365
784 2386
784 2570
784 2573
784 2834
784 2846
784 2893
784 2969
784 3027
784 3053
784 3300
784 3624
784 3717
784 4053
784 4149
784 4372
784 4824
784 4941
785 810
785 1299
785 1484
785 1533
785 1587
785 1647
785 2036
785 2738
785 3115
785 3180
785 3209
785 3226
785 3420
785 3460
785 3486
785 3496
785 3590
785 3750
785 3823
785 4101
785 4332
785 4532
785 4604
785 4632
785 4681
785 4713
785 4737
785 4919
786 1185
786 1202
786 1841
786 1906
786 1911
786 2063
786 2312
786 2471
786 2527
786 2933
786 3113
786 3465
786 3527
786 4020
786 4035
786 4291
787 939
787 1013
787 1272
787 1287
787 1439
787 1504
787 1589
787 1841
787 1987
787 2288
787 2308
787 2538
787 3315
787 3381
787 3417
787 3868
787 3912
787 4075
787 4224
787 4241
787 4311
787 4323
787 4346
787 4737
787 4798
788 1144
788 1480
788 1840
788 2097
788 2969
788 3005
788 3023
788 3265
788 3473
788 3662
788 4488
789 823
789 844
789 866
789 876
789 1192
789 1248
789 1342
789 1404
789 1738
789 1860
789 2227
789 2377
789 2428
789 2622
789 2849
789 2865
789 2974
789 3627
789 3642
789 3809
789 4161
789 4206
789 4256
789 4359
789 4398
789 4446
789 4622
789 4649
790 958
790 1247
790 1307
790 1490
790 1748
790 1802
790 1924
790 2035
790 2131
790 2462
790 2494
790 2845
790 3420
790 3624
790 3757
790 4023
790 4082
790 4553
790 4921
791 880
791 887
791 1015
791 1093
791 1130
791 1267
791 1646
791 1702
791 1788
791 2139
791 2319
791 2542
791 2552
791 3415
791 3645
791 3699
791 3789
791 3952
791 4282
791 4283
791 4329
791 4344
791 4628
791 4645
791 4669
791 4749
791 4923
792 1327
792 1677
792 1837
792 1957
792 2903
792 3167
792 4189
792 4451
792 4531
792 4989
793 801
793 918
793 1067
793 1304
793 1374
793 1845
793 1882
793 2024
793 2087
793 2094
793 2158
793 2218
793 2319
793 2330
793 2451
793 2519
793 2943
793 3192
793 3534
793 3701
793 4233
793 4418
793 4461
793 4546
793 4857
793 4968
794 964
794 1205
794 1499
794 1730
794 1980
794 2123
794 2263
794 2672
794 2705
794 2820
794 2877
794 3080
794 3401
794 3759
794 3943
794 3970
794 4206
794 4428
794 4576
794 4580
794 4664
794 4711
794 4813
795 1184
795 1277
795 1626
795 1842
795 2159
795 2199
795 2405
795 2610
795 3624
795 3850
795 4077
795 4556
795 4672
795 4992
796 1068
796 1340
796 1559
796 1600
796 1604
796 1740
796 1979
796 2074
796 2301
796 2588
796 2913
796 3156
796 3352
796 4012
796 4048
796 4244
796 4474
796 4510
796 4543
796 4739
796 4884
797 904
797 981
797 1042
797 1519
797 1541
797 2167
797 2494
797 3104
797 3206
797 3297
797 3341
797 3624
797 4001
797 4061
797 4436
797 4771
797 4857
797 4929
798 850
798 950
798 973
798 1198
798 1219
798 1935
798 2082
798 2282
798 2291
798 2320
798 2354
798 2438
798 2445
798 2630
798 2819
798 2831
798 2906
798 2926
798 3004
798 3150
798 3491
798 3913
798 3927
798 3936
798 4019
798 4439
798 4561
798 4629
798 4885
798 4999
799 1140
799 1243
799 1261
799 1442
799 1449
799 1789
799 1929
799 1941
799 1956
799 2004
799 2673
799 2867
799 3379
799 3540
799 3555
799 3653
799 4239
799 4637
799 4653
800 867
800 978
800 1165
800 1293
800 1301
800 1445
800 1474
800 1874
800 2048
800 2147
800 2234
800 2324
800 2793
800 3157
800 3467
800 3583
800 3788
800 4302
800 4578
800 4682
800 4849
801 1001
801 1021
801 1047
801 1048
801 1102
801 1214
801 1265
801 1483
801 1673
801 1762
801 2167
801 2375
801 2714
801 2999
801 3011
801 3042
801 3196
801 3374
801 3432
801 3505
801 3707
801 3752
801 3779
801 4116
801 4188
801 4238
801 4278
801 4399
801 4447
801 4456
801 4499
801 4525
801 4583
801 4714
801 4760
801 4776
801 4908
801 4948
801 4951
801 4999
802 928
802 1062
802 1073
802 1838
802 1979
802 2074
802 2413
802 3301
802 3459
802 3868
802 3942
802 4106
802 4237
802 4477
802 4641
802 4851
802 4930
803 851
803 936
803 1039
803 1189
803 1207
803 1345
803 1407
803 1539
803 1643
803 1823
803 1862
803 2187
803 2450
803 2509
803 2567
803 2724
803 2751
803 2900
803 2928
803 3013
803 3103
803 3364
803 3448
803 3680
803 3705
803 3962
803 4011
803 4038
803 4066
803 4094
803 4110
803 4264
803 4325
803 4388
803 4498
803 4545
803 4688
803 4761
803 4885
803 4898
803 4937
803 4976
804 811
804 885
804 965
804 1365
804 1541
804 1837
804 1866
804 2030
804 2247
804 2863
804 3062
804 3429
804 3868
804 3956
804 4555
804 4689
805 1808
805 1815
805 1899
805 2117
805 2305
805 2532
805 2562
805 3785
805 3824
805 3936
805 4477
805 4631
805 4809
805 4916
805 4973
806 1016
806 1486
806 1550
806 1615
806 1675
806 1808
806 1898
806 1944
806 2094
806 2285
806 2309
806 2405
806 2754
806 2768
806 2896
806 3176
806 3186
806 3209
806 3265
806 3867
806 4137
806 4241
806 4440
806 4481
806 4865
807 1196
807 1319
807 1527
807 1665
807 1913
807 1927
807 2015
807 2143
807 2180
807 2416
807 2900
807 3053
807 3111
807 3535
807 3652
807 3757
807 3878
807 4011
807 4144
807 4285
807 4888
808 884
808 893
808 1220
808 1306
808 1404
808 1566
808 1685
808 1728
808 1923
808 2436
808 2636
808 2686
808 2711
808 2756
808 3020
808 3144
808 3890
808 4025
808 4230
808 4311
808 4404
808 4655
808 4694
809 862
809 1488
809 1718
809 1971
809 2521
809 2588
809 2691
809 3010
809 3048
809 3289
809 3398
809 3555
809 3660
809 3678
809 3829
809 3910
809 4138
809 4233
810 850
810 890
810 938
810 1017
810 1204
810 1358
810 1573
810 1782
810 1830
810 2049
810 2085
810 2187
810 2196
810 2247
810 2328
810 2342
810 2372
810 2380
810 2385
810 2423
810 2448
810 2494
810 2692
810 2743
810 2930
810 3044
810 3058
810 3432
810 3439
810 3660
810 3701
810 3750
810 3813
810 4025
810 4050
810 4059
810 4062
810 4099
810 4130
810 4316
810 4324
810 4563
810 4599
810 4817
810 4912
811 1120
811 1222
811 1252
811 1366
811 1371
811 1675
811 1999
811 2142
811 2411
811 2444
811 2682
811 2858
811 3019
811 3095
811 3143
811 3243
811 3388
811 3883
811 4168
811 4353
812 898
812 1250
812 1354
812 1551
812 1659
812 2030
812 2190
812 2400
812 2590
812 2605
812 2641
812 3040
812 3621
812 3685
812 3701
812 3738
812 4409
812 4495
812 4539
812 4756
812 4782
813 1728
813 2429
813 2694
813 2873
813 3004
813 3264
813 3404
813 3470
813 3821
813 4373
813 4395
813 4471
813 4540
813 4780
813 4872
814 1397
814 1424
814 1505
814 1787
814 2073
814 2120
814 2408
814 2659
814 2869
814 3769
814 4164
814 4376
814 4487
814 4664
814 4831
815 1039
815 1306
815 1361
815 1440
815 1614
815 1638
815 2128
815 2149
815 2323
815 2925
815 3401
815 3613
815 3736
815 4006
815 4544
816 966
816 1883
816 2011
816 2116
816 2133
816 2352
816 2697
816 2806
816 2948
816 3000
816 3608
816 4245
816 4308
816 4391
816 4803
817 1848
817 1969
817 2085
817 2554
817 3214
817 3353
817 3421
817 3542
817 3817
817 4786
817 4930
817 4933
818 844
818 1517
818 1524
818 1543
818 1656
818 1808
818 2289
818 2430
818 2569
818 2590
818 2845
818 2967
818 2999
818 4230
818 4386
818 4963
818 4989
819 873
819 1031
819 1518
819 1812
819 1938
819 2330
819 2412
819 3244
819 3347
819 3418
819 3587
819 3964
819 4138
819 4214
819 4366
819 4442
819 4664
819 4700
819 4813
819 4840
819 4923
820 1027
820 1173
820 1292
820 1573
820 1696
820 1906
820 2540
820 3127
820 3381
820 3555
820 4444
820 4861
820 4895
821 1270
821 1335
821 1421
821 1840
821 1841
821 2262
821 2471
821 2486
821 2560
821 2744
821 3609
821 3779
821 4261
821 4328
821 4472
821 4495
821 4704
821 4722
822 863
822 1119
822 1192
822 1691
822 1812
822 2024
822 2423
822 2500
822 2647
822 2829
822 2993
822 3046
822 3127
822 3217
822 3512
822 3724
822 3897
822 4131
822 4796
822 4903
823 868
823 1064
823 1149
823 1340
823 1559
823 1724
823 2073
823 2208
823 2215
823 2253
823 2274
823 2463
823 2662
823 3076
823 3147
823 3164
823 3177
823 3193
823 3214
823 3426
823 3549
823 3590
823 3971
823 4085
823 4283
823 4308
823 4742
823 4890
823 4942
824 964
824 1332
824 2341
824 2604
824 2656
824 2725
824 2787
824 3477
824 3579
824 3830
824 4056
824 4241
824 4337
825 840
825 883
825 996
825 1111
825 1133
825 2515
825 2613
825 2661
825 2950
825 3050
825 3799
825 3860
825 4261
825 4332
825 4396
825 4796
825 4833
825 4926
826 944
826 1835
826 2008
826 2284
826 2592
826 2739
826 3367
826 4436
826 4464
826 4772
826 4855
827 860
827 1270
827 1277
827 1524
827 1739
827 2125
827 2221
827 2275
827 2380
827 3028
827 3208
827 3442
827 3995
827 4003
827 4350
827 4368
827 4485
827 4556
827 4690
827 4756
827 4860
828 938
828 960
828 1034
828 1295
828 1327
828 1383
828 1625
828 1848
828 1895
828 2000
828 2278
828 3231
828 3241
828 4178
828 4202
828 4225
828 4229
828 4381
829 877
829 903
829 954
829 960
829 1192
829 1312
829 1427
829 1916
829 1935
829 2043
829 2091
829 2248
829 2521
829 2885
829 3043
829 3488
829 3762
829 4150
829 4382
830 902
830 960
830 972
830 1610
830 1611
830 1970
830 1992
830 2689
830 3080
830 3413
830 3753
830 3958
830 3992
830 4117
830 4145
830 4238
830 4539
830 4544
830 4819
830 4843
831 1174
831 1409
831 1561
831 1599
831 1604
831 1678
831 1740
831 1847
831 2027
831 2081
831 2363
831 2365
831 2373
831 2871
831 2920
831 2953
831 3044
831 3072
831 3112
831 3193
831 3223
831 3328
831 3386
831 4109
831 4348
831 4399
832 1712
832 1815
832 2863
832 3139
832 3323
832 3868
832 3988
832 4016
832 4267
832 4461
832 4570
832 4718
832 4934
832 4970
833 955
833 1498
833 1549
833 1714
833 1818
833 2046
833 2097
833 2312
833 2577
833 2608
833 2914
833 3066
833 3196
833 3367
833 3471
833 3735
833 4156
833 4269
833 4428
833 4691
833 4931
834 914
834 1038
834 1046
834 1276
834 1282
834 1396
834 1753
834 1926
834 1930
834 1976
834 2371
834 2613
834 2710
834 2727
834 3060
834 3196
834 3391
834 3432
834 3508
834 3751
834 3826
834 3904
834 3928
834 4271
834 4326
835 1255
835 1270
835 1753
835 2096
835 2709
835 2772
835 3596
835 3644
835 3909
835 4019
835 4344
836 1238
836 2049
836 2357
836 2473
836 2646
836 2727
836 2847
836 2988
836 3544
836 3796
836 3985
836 4070
836 4666
836 4690
836 4893
836 4930
837 1144
837 1270
837 1321
837 1338
837 1526
837 1783
837 2284
837 2542
837 2745
837 3383
837 3387
837 3600
837 4515
837 4910
837 4951
838 1035
838 1062
838 1072
838 1204
838 1307
838 1614
838 1959
838 1970
838 1987
838 2311
838 2381
838 2434
838 2542
838 2653
838 2852
838 2992
838 3479
838 3553
838 3787
838 3810
838 3952
838 4110
838 4434
839 875
839 938
839 1162
839 1484
839 1496
839 1775
839 1794
839 1846
839 1902
839 1967
839 2250
839 2449
839 2666
839 2895
839 2960
839 2978
839 3011
839 3041
839 3092
839 3487
839 3638
839 4428
839 4468
839 4774
840 1115
840 1624
840 1655
840 1925
840 2797
840 2901
840 2949
840 3071
840 3087
840 3339
840 3598
840 3606
840 3654
840 3863
840 4183
840 4312
841 948
841 1198
841 1243
841 1536
841 1797
841 2533
841 2657
841 2743
841 3143
841 3158
841 3418
841 3496
841 3595
841 3816
841 3841
841 3886
841 4045
841 4566
841 4709
841 4910
842 891
842 1073
842 2064
842 2223
842 2374
842 3024
842 3231
842 3252
842 3638
842 3862
842 4019
842 4104
842 4121
842 4251
842 4533
842 4826
843 986
843 1495
843 1736
843 1910
843 1977
843 2252
843 2678
843 3054
843 3085
843 3208
843 3841
843 3965
843 4121
843 4551
843 4725
843 4792
843 4859
844 1412
844 1488
844 1577
844 2035
844 2050
844 2349
844 2357
844 2419
844 2738
844 3157
844 4067
844 4275
844 4404
844 4600
844 4681
844 4892
844 4962
844 4967
845 1031
845 1064
845 1417
845 2115
845 2125
845 2134
845 2675
845 2819
845 2932
845 2945
845 3069
845 3245
845 3284
845 3631
845 3647
845 3703
845 3913
845 3972
845 3989
845 4082
845 4660
845 4770
845 4943
846 1109
846 1202
846 1378
846 2376
846 2467
846 2485
846 2695
846 2697
846 2780
846 2855
846 2935
846 2940
846 3471
846 3846
847 1698
847 1943
847 2016
847 2383
847 3058
847 3218
847 3751
847 4035
847 4068
847 4342
847 4470
847 4575
848 864
848 1014
848 1043
848 1122
848 1125
848 1211
848 1304
848 1471
848 1649
848 2097
848 2230
848 2352
848 2386
848 2621
848 3097
848 3276
848 3314
848 3465
848 3525
848 4435
848 4514
848 4525
848 4536
848 4592
848 4649
848 4690
848 4841
848 4984
849 863
849 1432
849 1479
849 1748
849 2100
849 2486
849 2676
849 2858
849 3097
849 4917
850 999
850 1211
850 1355
850 1720
850 1875
850 2055
850 2284
850 2354
850 2563
850 2972
850 3742
850 3883
850 4001
850 4462
850 4628
850 4675
850 4953
851 879
851 901
851 1122
851 1161
851 1309
851 1742
851 1851
851 2120
851 2149
851 2203
851 3314
851 3341
851 3481
851 4015
851 4098
851 4196
851 4223
851 4557
851 4911
852 960
852 1193
852 1357
852 1462
852 1568
852 2210
852 2252
852 2348
852 2716
852 4217
852 4384
853 974
853 1131
853 1183
853 1473
853 1999
853 2055
853 2072
853 2494
853 2615
853 2763
853 2832
853 2873
853 2937
853 2945
853 3011
853 3429
853 3608
853 3772
853 3851
853 4150
853 4652
853 4859
853 4945
854 960
854 1083
854 1159
854 1557
854 2780
854 2871
854 2982
854 3119
854 3164
854 3201
854 3241
854 3331
854 3574
854 3636
854 4244
854 4470
854 4692
855 869
855 965
855 1290
855 1572
855 1656
855 2031
855 2119
855 2149
855 2343
855 2606
855 2752
855 2799
855 2850
855 2997
855 3126
855 3544
855 3620
855 3636
855 3820
855 3855
855 4097
855 4207
855 4250
855 4723
856 900
856 1136
856 1198
856 1370
856 1382
856 1440
856 1548
856 1597
856 1790
856 1829
856 1896
856 2040
856 2317
856 2370
856 2562
856 2687
856 2742
856 3031
856 3144
856 3219
856 3333
856 3352
856 4122
856 4174
856 4182
856 4252
856 4320
856 4351
856 4773
856 4777
857 1053
857 1701
857 1728
857 1787
857 1812
857 1981
857 2697
857 2770
857 3353
857 3555
857 3888
857 4364
857 4835
858 935
858 1064
858 1184
858 1255
858 1258
858 1353
858 1479
858 1597
858 1731
858 1748
858 1821
858 2444
858 2634
858 2776
858 2816
858 2895
858 3360
858 3849
858 3854
858 3892
858 3913
858 4001
858 4169
858 4172
858 4324
858 4465
858 4701
858 4768
858 4785
858 4820
858 4930
858 4996
859 907
859 1115
859 1184
859 1408
859 1469
859 1632
859 2088
859 3147
859 3536
859 3953
859 4433
859 4849
860 985
860 1259
860 1419
860 1982
860 2063
860 2625
860 2863
860 2916
860 2943
860 3054
860 3875
860 4542
860 4755
861 873
861 1036
861 1193
861 1345
861 1464
861 1791
861 2357
861 2385
861 2567
861 3367
861 3415
861 4261
861 4577
861 4655
861 4743
861 4894
861 4969
862 966
862 1064
862 1121
862 1321
862 1670
862 2580
862 3147
862 3310
862 3747
862 3814
862 3909
862 3958
862 4046
862 4239
862 4373
862 4437
862 4717
862 4937
863 876
863 910
863 1033
863 1045
863 1153
863 1390
863 1403
863 1417
863 1598
863 1602
863 1628
863 1941
863 2029
863 2057
863 2218
863 2305
863 2321
863 2393
863 2409
863 2461
863 2480
863 2493
863 2529
863 2622
863 2693
863 2753
863 2959
863 3051
863 3074
863 3135
863 3243
863 3255
863 3447
863 3767
863 3770
863 4020
863 4034
863 4035
863 4159
863 4196
863 4310
863 4358
863 4428
863 4470
863 4487
863 4657
863 4663
863 4976
863 4985
864 937
864 1093
864 1670
864 1772
864 2319
864 2344
864 2538
864 2692
864 2712
864 3049
864 3165
864 3281
864 3320
864 3618
864 3759
864 3983
864 4524
864 4797
865 1152
865 1247
865 1783
865 2948
865 3102
865 3512
865 4319
865 4546
865 4856
866 1547
866 1638
866 1816
866 2064
866 2220
866 2304
866 3095
866 3131
866 3677
866 4106
866 4632
866 4885
867 1596
867 1625
867 2068
867 2262
867 2338
867 2485
867 2515
867 2563
867 2588
867 2707
867 3055
867 3272
867 3769
867 3851
867 4082
867 4441
867 4728
867 4860
867 4882
867 4959
868 1075
868 1123
868 1707
868 1772
868 2232
868 2307
868 2666
868 2706
868 2856
868 3041
868 3255
868 3533
868 3752
868 4188
868 4396
868 4721
868 4766
868 4919
869 1099
869 1120
869 1292
869 1352
869 1461
869 1484
869 1497
869 1552
869 1740
869 1809
869 1826
869 1841
869 1956
869 1960
869 2289
869 2293
869 2590
869 2668
869 2766
869 2775
869 2943
869 3066
869 3105
869 3128
869 3137
869 3200
869 3243
869 3277
869 3319
869 3322
869 3472
869 3636
869 3824
869 3854
869 3957
869 3960
869 3988
869 3994
869 4066
869 4104
869 4267
869 4291
870 912
870 934
870 1093
870 1099
870 1615
870 2074
870 2422
870 2556
870 2706
870 3101
870 3112
870 3905
870 4165
870 4250
870 4333
870 4539
870 4821
870 4915
871 916
871 953
871 1009
871 1193
871 1479
871 1487
871 1549
871 1622
871 1927
871 2048
871 2053
871 2055
871 2305
871 2327
871 2406
871 2728
871 3054
871 3103
871 3193
871 3208
871 3238
871 3261
871 3763
871 3925
871 3958
871 4129
871 4487
871 4721
871 4892
871 4967
872 1073
872 1231
872 1591
872 1932
872 2084
872 2087
872 2258
872 2662
872 2728
872 3407
872 3602
872 3700
872 3868
872 4232
873 1002
873 1075
873 1134
873 1178
873 1279
873 1446
873 1541
873 2212
873 2377
873 2454
873 2462
873 2962
873 3041
873 3263
873 3441
873 3596
873 3753
873 3875
873 3948
873 3951
873 3996
873 4256
873 4393
873 4442
873 4559
873 4767
874 1203
874 1615
874 2229
874 2284
874 2473
874 2652
874 2901
874 3245
874 3311
874 3590
874 3716
874 4079
874 4384
874 4717
875 933
875 1247
875 1446
875 1979
875 2004
875 2658
875 2909
875 2941
875 2949
875 3195
875 3516
875 3856
875 3892
875 4001
875 4666
876 909
876 1033
876 1084
876 1538
876 1561
876 1852
876 1917
876 2029
876 2658
876 2686
876 2789
876 3097
876 3374
876 3601
876 4307
876 4540
876 4721
876 4772
876 4804
877 960
877 1400
877 1530
877 1549
877 2649
877 2731
877 2866
877 3113
877 4450
877 4989
878 1310
878 1507
878 1815
878 2120
878 2258
878 2479
878 2616
878 2631
878 2863
878 2992
878 3049
878 3569
878 4218
878 4252
878 4720
879 979
879 1003
879 1122
879 1159
879 1161
879 1358
879 1544
879 1603
879 1647
879 1774
879 2189
879 2191
879 2547
879 2820
879 2957
879 2966
879 3547
879 4018
879 4390
879 4600
879 4690
879 4721
880 961
880 1504
880 1517
880 1838
880 1909
880 1935
880 2134
880 2534
880 2943
880 3112
880 3563
880 3621
880 3903
880 3923
880 3950
880 4165
880 4189
880 4222
881 1016
881 1093
881 1356
881 1782
881 1921
881 2248
881 2677
881 2800
881 3375
881 4327
881 4521
882 982
882 1051
882 1131
882 1173
882 1248
882 1314
882 1438
882 1448
882 1740
882 1884
882 1923
882 2408
882 3644
882 4067
882 4164
882 4228
882 4382
882 4538
882 4604
882 4667
882 4893
883 892
883 1033
883 1313
883 1668
883 2158
883 2261
883 2371
883 2398
883 2461
883 3021
883 3051
883 3170
883 3347
883 3493
883 3708
883 3879
883 4017
883 4020
883 4122
883 4149
883 4212
883 4526
883 4546
883 4792
883 4850
884 1024
884 1207
884 1311
884 1464
884 1726
884 2111
884 2592
884 2757
884 3114
884 3356
884 3838
884 4035
885 970
885 1493
885 1644
885 1864
885 2139
885 2174
885 2421
885 2774
885 3606
885 3657
885 3732
885 3737
885 3761
885 4214
886 965
886 1437
886 1574
886 2094
886 2099
886 2106
886 2315
886 2440
886 2555
886 2771
886 3653
886 3744
886 4115
886 4208
886 4398
887 928
887 996
887 1035
887 1137
887 1292
887 1366
887 1671
887 1831
887 1858
887 1956
887 1959
887 2109
887 2242
887 2295
887 2613
887 2647
887 2714
887 3110
887 3172
887 3263
887 3280
887 3383
887 3387
887 3791
887 3896
887 3953
887 4116
887 4176
887 4208
887 4803
887 4809
887 4979
888 1615
888 1675
888 1686
888 1694
888 1932
888 2028
888 2080
888 2985
888 3054
888 3147
888 3190
888 3708
888 4097
889 924
889 1102
889 1201
889 1405
889 1805
889 1853
889 2248
889 2796
889 2829
889 2919
889 2992
889 3077
889 3095
889 3177
889 3213
889 3497
889 3632
889 3948
889 4136
889 4666
890 937
890 968
890 1036
890 1089
890 1596
890 1662
890 1745
890 1765
890 1803
890 1979
890 2417
890 2491
890 2531
890 3246
890 3526
890 3761
890 3857
890 3868
890 4357
890 4669
891 1037
891 1044
891 1336
891 1440
891 1449
891 1459
891 1644
891 1941
891 2060
891 2089
891 2134
891 2442
891 2530
891 2565
891 2579
891 2657
891 2704
891 2787
891 3081
891 3160
891 3189
891 3233
891 3254
891 3479
891 3581
891 3611
891 3684
891 3831
891 3894
891 3989
891 4021
891 4067
891 4073
891 4194
891 4330
891 4404
891 4448
891 4772
891 4805
892 1364
892 1619
892 1821
892 1987
892 2043
892 2198
892 2357
892 3096
892 3107
892 3170
892 3217
892 3283
892 3473
892 3868
892 4020
892 4391
892 4428
892 4485
892 4675
892 4690
892 4782
892 4826
892 4958
893 1023
893 1192
893 1461
893 1464
893 1488
893 1768
893 1840
893 2214
893 2355
893 2498
893 3097
893 3183
893 3919
893 4063
893 4288
893 4342
893 4450
893 4599
893 4662
894 1074
894 1093
894 1208
894 1306
894 1363
894 1532
894 1839
894 2322
894 2436
894 2866
894 3010
894 3233
894 3258
894 4090
894 4107
895 992
895 1140
895 1545
895 1567
895 1782
895 2213
895 2216
895 2413
895 2443
895 2823
895 2897
895 3346
895 3850
895 3960
895 3965
895 3977
895 4461
895 4519
895 4857
896 1104
896 1449
896 1681
896 2015
896 2300
896 2423
896 2731
896 2933
896 3574
896 4390
896 4520
896 4708
896 4745
896 4790
897 1780
897 2109
897 2139
897 2227
897 2371
897 2558
897 2664
897 2847
897 2959
897 3102
897 3385
897 3748
897 4033
897 4089
897 4116
897 4122
897 4217
897 4896
897 4962
898 1113
898 1177
898 1281
898 1446
898 1905
898 1935
898 1936
898 2028
898 2033
898 2521
898 2616
898 2906
898 2924
898 2951
898 2971
898 3101
898 3579
898 3636
898 3668
898 3676
898 3810
898 3883
898 3894
898 3950
898 4109
898 4130
898 4170
898 4339
898 4869
899 1207
899 1464
899 2030
899 2403
899 2752
899 2819
899 3078
899 3690
899 4144
899 4169
899 4512
900 1722
900 2015
900 2134
900 2330
900 2529
900 3075
900 4104
900 4449
900 4493
900 4498
900 4653
900 4656
900 4914
901 1162
901 1179
901 2032
901 2107
901 2363
901 2382
901 2569
901 2666
901 2817
901 3044
901 3072
901 3266
901 3482
901 3626
901 4019
901 4084
901 4278
901 4411
901 4430
901 4449
901 4461
901 4480
901 4620
901 4733
901 4863
902 1128
902 1205
902 1318
902 1489
902 2579
902 3178
902 3196
902 3432
902 3552
902 3608
902 3641
902 3821
902 3864
902 4020
902 4100
902 4116
902 4262
902 4539
902 4929
903 1018
903 1094
903 1351
903 1504
903 1952
903 2285
903 2693
903 2911
903 3061
903 3465
903 3555
903 4371
903 4525
903 4600
904 938
904 1051
904 1110
904 1328
904 1342
904 1806
904 2116
904 2123
904 2174
904 2547
904 3232
904 3844
904 3868
904 4017
904 4656
904 4840
904 4964
905 1066
905 2553
905 2717
905 2790
905 2856
905 3054
905 3061
905 4296
905 4857
906 1725
906 2083
906 2291
906 2324
906 2527
906 2851
906 3113
906 3241
906 3244
906 3647
906 3951
906 4099
906 4279
906 4392
906 4657
906 4991
906 4996
907 1493
907 1506
907 1662
907 2486
907 4275
907 4600
907 4692
907 4834
908 993
908 1147
908 1231
908 1870
908 2023
908 2161
908 2284
908 2551
908 2558
908 2641
908 2662
908 2990
908 3365
908 3397
908 3564
908 4050
908 4155
908 4542
908 4785
908 4957
909 935
909 1298
909 1316
909 1805
909 2284
909 2624
909 2976
909 3265
909 3345
909 3683
909 3771
909 3827
909 3877
909 3914
909 3978
909 4109
909 4214
909 4283
909 4418
909 4424
909 4569
909 4585
909 4676
909 4758
909 4818
910 1456
910 1506
910 1767
910 2174
910 2226
910 3335
910 3407
910 3933
910 4300
910 4312
910 4672
910 4689
910 4768
911 1530
911 1681
911 1969
911 2027
911 2108
911 2181
911 2479
911 2483
911 2523
911 3376
911 4473
911 4637
911 4941
912 1215
912 1326
912 1373
912 2010
912 2719
912 2890
912 3289
912 3372
912 3415
912 3447
912 3553
912 3895
912 3926
912 3964
912 3969
912 4097
912 4268
912 4315
912 4731
913 975
913 1373
913 1386
913 2061
913 2942
913 3020
913 3066
913 3142
913 3755
913 3847
913 3936
913 3938
913 3972
913 4241
913 4275
913 4430
913 4855
913 4961
913 4997
914 982
914 1102
914 1497
914 1630
914 1820
914 2329
914 2371
914 2954
914 2995
914 3067
914 3315
914 3995
914 4022
914 4117
914 4532
915 1149
915 1350
915 1658
915 2128
915 2221
915 2365
915 2519
915 2739
915 2935
915 3085
915 3182
915 3537
915 4084
915 4217
915 4443
915 4477
915 4983
916 1359
916 1824
916 1950
916 1964
916 2004
916 2233
916 3392
916 3695
916 4145
916 4237
917 1165
917 1183
917 1901
917 1973
917 3137
917 3174
917 3446
917 4178
917 4419
917 4478
917 4670
917 4742
917 4835
917 4840
918 1817
918 1891
918 2089
918 2174
918 2272
918 2323
918 2466
918 2865
918 2921
918 3226
918 3508
918 3619
918 3782
918 3987
918 4244
918 4266
918 4556
918 4714
918 4897
919 1194
919 1244
919 1451
919 1615
919 1652
919 1659
919 1725
919 1779
919 1805
919 2108
919 2111
919 2131
919 2348
919 2621
919 2889
919 3020
919 3554
919 3629
919 3636
919 3967
919 4096
919 4370
919 4417
919 4598
919 4656
919 4935
920 1375
920 1586
920 1592
920 1595
920 1689
920 2110
920 2216
920 2612
920 3297
920 3414
920 3820
920 4424
920 4480
920 4642
920 4897
921 1060
921 1307
921 1431
921 1907
921 2781
921 3071
921 3191
921 3387
921 3669
921 4209
921 4240
921 4355
921 4615
921 4739
921 4827
921 4984
922 1246
922 1279
922 1282
922 1348
922 1392
922 1413
922 1492
922 1519
922 1540
922 1606
922 1653
922 1664
922 1832
922 2085
922 2208
922 2376
922 2487
922 2570
922 2623
922 3099
922 3252
922 3326
922 3536
922 3552
922 3745
922 3880
922 4092
922 4233
922 4303
922 4461
922 4481
922 4498
922 4894
922 4980
923 981
923 1229
923 1239
923 1474
923 1779
923 1861
923 2001
923 2509
923 2676
923 3024
923 3325
923 3457
923 3762
923 4036
923 4069
923 4916
923 4924
924 1218
924 1413
924 1724
924 1846
924 2408
924 2754
924 3032
924 3241
924 3336
924 3500
924 3548
924 3587
924 3631
924 3763
924 3883
924 4196
924 4206
924 4295
924 4353
924 4646
924 4717
924 4841
924 4902
925 1085
925 1131
925 1356
925 2001
925 2108
925 2248
925 2629
925 3174
925 3405
925 3550
925 4418
925 4520
925 4557
925 4639
925 4651
926 1113
926 1153
926 1164
926 1439
926 1589
926 1756
926 1842
926 2513
926 2552
926 2557
926 2811
926 3273
926 3276
926 3377
926 3435
926 3587
926 3624
926 3668
926 3773
926 4023
926 4076
926 4283
926 4373
926 4454
926 4480
926 4524
926 4700
926 4835
927 1413
927 1807
927 1822
927 2010
927 2307
927 2516
927 2815
927 2834
927 2892
927 3815
927 4233
928 1369
928 1976
928 1987
928 1997
928 2343
928 2834
928 3167
928 3849
928 4104
928 4229
928 4551
928 4731
928 4830
929 1123
929 1131
929 1165
929 1197
929 1270
929 2096
929 3326
929 3335
929 3424
929 3627
929 3863
929 3903
929 4178
929 4319
929 4555
929 4645
929 4959
930 960
930 1021
930 1955
930 2155
930 2220
930 2297
930 2483
930 2613
930 2685
930 2926
930 3041
930 3843
930 3988
930 4270
930 4429
930 4494
930 4509
930 4682
930 4714
930 4797
930 4843
930 4924
930 4950
930 4955
931 1424
931 1499
931 1570
931 1739
931 1744
931 1839
931 2706
931 3078
931 3281
931 3628
931 4019
931 4214
931 4276
931 4524
931 4635
932 966
932 1479
932 1483
932 1719
932 2222
932 2523
932 2645
932 2785
932 2929
932 3014
932 3473
932 4342
933 960
933 1028
933 1217
933 1296
933 1378
933 1428
933 1624
933 1832
933 1931
933 1956
933 2083
933 2109
933 2259
933 2295
933 2458
933 2483
933 2777
933 2916
933 3041
933 3105
933 3206
933 3338
933 3556
933 3953
933 4022
933 4188
933 4233
933 4892
933 4897
933 4933
934 1036
934 1077
934 1272
934 2019
934 2429
934 2522
934 2761
934 2843
934 2879
934 2884
934 2919
934 3083
934 3336
934 3375
934 3661
934 4308
934 4600
934 4851
935 1109
935 1217
935 1259
935 1313
935 1333
935 1678
935 1700
935 1785
935 2050
935 2181
935 2186
935 2232
935 2257
935 2279
935 2420
935 2459
935 2473
935 2485
935 2718
935 2760
935 2783
935 2832
935 2876
935 3005
935 3157
935 3285
935 3481
935 3571
935 3574
935 3581
935 3594
935 3607
935 3725
935 3772
935 3834
935 3876
935 3926
935 4131
935 4290
935 4325
935 4359
935 4417
935 4879
935 4885
935 4886
936 1092
936 1123
936 1168
936 1258
936 1351
936 1472
936 1488
936 1656
936 1866
936 2103
936 2294
936 2450
936 2842
936 2876
936 3168
936 3371
936 3489
936 3731
936 3953
936 3989
936 4099
936 4189
936 4249
936 4300
936 4346
936 4424
936 4439
936 4454
936 4490
937 1097
937 1114
937 1130
937 1637
937 1677
937 1765
937 1780
937 1829
937 2187
937 2238
937 2467
937 2494
937 2533
937 2873
937 3082
937 3415
937 3851
937 4003
937 4244
937 4297
937 4486
937 4818
937 4831
937 4982
938 1097
938 1194
938 1260
938 1334
938 1506
938 1739
938 1815
938 1919
938 2026
938 2050
938 2131
938 2147
938 2358
938 2412
938 2539
938 2543
938 2856
938 3016
938 3128
938 3154
938 3199
938 3265
938 3273
938 3281
938 3467
938 3485
938 3547
938 3870
938 4090
938 4198
938 4264
938 4319
938 4334
938 4395
938 4454
938 4578
938 4611
938 4732
938 4849
938 4975
939 1074
939 1376
939 1561
939 1936
939 1986
939 2043
939 2382
939 2483
939 2982
939 3000
939 3041
939 3306
939 4344
939 4438
939 4493
939 4585
939 4828
939 4962
939 4979
940 1155
940 1342
940 1466
940 1840
940 2010
940 2056
940 2154
940 2353
940 2476
940 2540
940 2653
940 2778
940 2984
940 3108
940 3328
940 3751
940 3834
940 4015
940 4306
940 4376
940 4676
940 4901
940 4937
940 4938
941 1539
941 1671
941 1716
941 1846
941 2097
941 2257
941 2398
941 2681
941 2782
941 3266
941 3442
941 3520
941 4368
941 4754
942 955
942 1172
942 1659
942 1765
942 1924
942 2401
942 3072
942 3103
942 3345
942 3636
942 3862
942 3981
942 4021
942 4332
942 4370
942 4483
942 4909
943 1069
943 1486
943 1815
943 1937
943 1979
943 2024
943 2049
943 2522
943 2538
943 2647
943 2903
943 3186
943 3208
943 3468
943 3939
943 4910
944 1506
944 1530
944 1604
944 1670
944 1932
944 2045
944 2192
944 2415
944 3042
944 3518
944 3803
944 3808
944 4571
945 969
945 976
945 985
945 1004
945 1250
945 1514
945 1583
945 1777
945 1833
945 1875
945 1989
945 2338
945 2403
945 2418
945 2832
945 2844
945 2879
945 3095
945 3290
945 3346
945 3439
945 3474
945 3503
945 3541
945 3555
945 3704
945 3833
945 4341
945 4378
945 4539
945 4917
946 1136
946 1569
946 1872
946 2080
946 2291
946 2298
946 2319
946 2612
946 2747
946 3679
946 4176
946 4946
947 1056
947 1069
947 1113
947 1231
947 1438
947 1769
947 2032
947 2036
947 2206
947 2988
947 3080
947 3233
947 3339
947 3912
947 4241
947 4291
947 4937
948 1175
948 1366
948 1922
948 2257
948 2479
948 2515
948 3188
948 3646
948 3655
948 4051
948 4104
948 4182
948 4911
949 1342
949 1376
949 1511
949 1672
949 2027
949 2097
949 2292
949 2418
949 2508
949 2656
949 2669
949 2680
949 2807
949 2961
949 2999
949 3092
949 3312
949 3467
949 3764
949 4186
949 4400
949 4628
949 4754
949 4774
950 991
950 1307
950 1538
950 1570
950 1685
950 2161
950 2162
950 2714
950 2837
950 2925
950 3370
950 3379
950 3756
950 3879
950 4011
950 4097
950 4417
950 4872
950 4951
951 1194
951 1969
951 2185
951 2820
951 3462
951 3824
951 3962
951 4115
951 4172
951 4244
951 4261
951 4293
952 1874
952 2029
952 2145
952 2166
952 2631
952 2829
952 3137
952 3395
952 3415
952 3544
952 4135
952 4435
953 2038
953 2255
953 2366
953 2470
953 2651
953 2669
953 2696
953 2863
953 3002
953 3357
953 3868
953 4255
953 4321
953 4442
953 4961
954 1533
954 2000
954 2216
954 2288
954 2483
954 2968
954 3005
954 3308
954 3417
954 3624
954 3968
954 3976
954 4579
954 4762
955 959
955 1106
955 1224
955 2315
955 2340
955 3133
955 3226
955 3459
955 3892
955 3939
955 4264
955 4519
955 4922
956 2120
956 2426
956 2894
956 2919
956 2957
956 3222
956 4223
956 4668
956 4915
957 999
957 1317
957 1504
957 1573
957 2049
957 2114
957 2192
957 2467
957 2827
957 3714
957 3844
957 3959
957 4093
958 1032
958 1077
958 1274
958 1655
958 1729
958 2132
958 2220
958 2517
958 2938
958 2949
958 3790
958 4071
958 4110
958 4268
958 4364
958 4368
958 4517
958 4600
958 4767
958 4917
959 1101
959 1246
959 1261
959 1452
959 1522
959 1780
959 1785
959 2049
959 2068
959 2074
959 2196
959 2543
959 2640
959 3288
959 3492
959 3521
959 4639
960 1048
960 1082
960 1088
960 1127
960 1143
960 1149
960 1223
960 1229
960 1235
960 1522
960 1566
960 1626
960 1643
960 1858
960 1913
960 1927
960 2003
960 2053
960 2172
960 2175
960 2229
960 2242
960 2295
960 2319
960 2349
960 2448
960 2483
960 2502
960 2615
960 2660
960 2683
960 2697
960 2916
960 3008
960 3023
960 3043
960 3080
960 3196
960 3239
960 3378
960 3399
960 3494
960 3495
960 3559
960 3709
960 3800
960 3959
960 4036
960 4037
960 4062
960 4108
960 4117
960 4118
960 4195
960 4270
960 4278
960 4438
960 4447
960 4470
960 4514
960 4537
960 4690
960 4755
960 4771
960 4797
961 1080
961 1647
961 1729
961 2096
961 2110
961 2336
961 2630
961 2637
961 3117
961 3314
961 4000
961 4408
961 4762
961 4831
962 990
962 1100
962 1252
962 1390
962 1402
962 2004
962 2304
962 3330
962 3360
962 3447
962 4010
962 4039
962 4080
962 4290
963 982
963 1421
963 1496
963 1765
963 2151
963 2540
963 2556
963 2575
963 3186
963 3289
963 3717
963 3838
963 4428
963 4664
964 1031
964 1264
964 1288
964 1432
964 1487
964 1615
964 1994
964 2055
964 2074
964 2136
964 2301
964 2807
964 2969
964 2992
964 3036
964 3208
964 3225
964 3260
964 3322
964 3463
964 3978
964 4048
964 4061
964 4127
964 4134
964 4218
964 4254
964 4267
964 4445
964 4514
964 4542
964 4689
964 4889
965 1089
965 1093
965 1655
965 1888
965 1991
965 2334
965 2343
965 2769
965 2934
965 3904
965 3917
965 4233
965 4626
965 4688
965 4858
966 982
966 1231
966 1553
966 1611
966 1646
966 1701
966 1864
966 1885
966 2521
966 2551
966 2557
966 2691
966 2737
966 2832
966 2963
966 3071
966 3114
966 3505
966 3573
966 3670
966 3801
966 3805
966 3848
966 3938
966 4159
966 4306
966 4309
966 4387
966 4428
967 1001
967 1034
967 1109
967 1291
967 1445
967 1518
967 1605
967 1816
967 1955
967 2022
967 2192
967 2322
967 3060
967 3335
967 3634
967 3650
967 4065
967 4096
968 1017
968 1420
968 1748
968 1856
968 1925
968 2044
968 2155
968 2292
968 2299
968 2320
968 2483
968 2665
968 2736
968 3013
968 3160
968 3211
968 3295
968 3579
968 3866
968 3896
968 4041
968 4162
968 4733
968 4795
968 4845
968 4876
969 1199
969 1202
969 1248
969 2046
969 2423
969 2585
969 3055
969 3423
969 3532
970 979
970 1013
970 1019
970 2021
970 2155
970 2166
970 2274
970 2415
970 2707
970 2772
970 3082
970 3362
970 3572
970 3631
970 3717
970 3840
970 3984
970 4269
970 4449
970 4462
970 4472
970 4515
970 4596
970 4830
971 984
971 985
971 1343
971 1625
971 1713
971 2055
971 2138
971 2221
971 2301
971 2367
971 2466
971 2538
971 2890
971 3860
971 3877
971 4396
971 4876
971 4905
971 4934
972 1059
972 1270
972 1665
972 2027
972 2547
972 2604
972 3385
972 3513
972 3546
972 3644
972 4186
972 4789
972 4962
973 1120
973 1166
973 1175
973 1376
973 1485
973 1843
973 1902
973 2235
973 3170
973 3371
973 3622
973 3902
973 4264
973 4550
973 4759
973 4774
974 1041
974 1289
974 1390
974 1751
974 1765
974 1874
974 1924
974 2169
974 2189
974 2365
974 2506
974 2587
974 3066
974 3143
974 3159
974 3250
974 3672
974 3990
974 4061
974 4392
974 4450
974 4581
974 4587
974 4593
975 2171
975 2267
975 2575
975 2591
975 2601
975 2685
975 2906
975 3113
975 3711
975 4638
975 4669
975 4978
976 1053
976 1149
976 1446
976 1489
976 1864
976 2095
976 2399
976 2882
976 3042
976 3189
976 4204
976 4889
977 2381
977 2741
977 2809
977 3003
977 3226
977 3339
977 3463
977 3506
977 3614
977 3637
977 3957
977 4291
977 4582
977 4632
978 1086
978 1120
978 1557
978 1819
978 2086
978 2198
978 2916
978 2953
978 2999
978 3159
978 3888
978 4297
978 4605
979 1343
979 1565
979 1715
979 2635
979 3566
979 3712
979 3805
979 4093
979 4160
979 4190
979 4257
980 1280
980 1329
980 2160
980 2191
980 2458
980 2920
980 2949
980 2998
980 3322
980 3326
980 3568
980 4067
980 4191
980 4210
980 4585
981 1547
981 2426
981 2634
981 2693
981 2975
981 3372
981 3402
981 3731
981 4083
981 4716
981 4812
982 1010
982 1051
982 1241
982 1281
982 1382
982 1530
982 1620
982 1635
982 1686
982 1860
982 1921
982 1971
982 2233
982 2558
982 2598
982 2821
982 3156
982 3351
982 3438
982 3546
982 3706
982 3741
982 4194
982 4238
982 4391
982 4540
982 4656
982 4941
982 4952
983 1093
983 1515
983 1518
983 1536
983 1715
983 1764
983 1961
983 2006
983 2115
983 2400
983 2479
983 2665
983 2868
983 3319
983 3360
983 3473
983 3511
983 3723
983 3763
983 3854
983 3996
983 4213
983 4459
983 4679
983 4730
984 1054
984 1249
984 1641
984 1722
984 2020
984 2849
984 2880
984 2944
984 3022
984 3082
984 3176
984 3192
984 3261
984 3303
984 3882
984 3928
984 4030
984 4227
984 4431
984 4883
984 4884
984 4905
984 4952
985 1324
985 1377
985 1414
985 1475
985 1932
985 1979
985 2052
985 2055
985 3291
985 3425
985 3682
985 4137
985 4208
985 4366
985 4596
986 1126
986 1248
986 1278
986 1281
986 1417
986 1574
986 1608
986 1694
986 1808
986 1977
986 2021
986 2074
986 2570
986 2767
986 2847
986 2863
986 2994
986 3582
986 3956
986 4106
986 4267
986 4275
986 4820
986 4925
987 1167
987 1662
987 1876
987 2148
987 2538
987 2820
987 2821
987 2941
987 3328
987 3595
987 3838
987 4656
988 1091
988 1593
988 2972
988 3043
988 3360
988 3555
988 4097
988 4468
988 4682
988 4806
989 1094
989 1816
989 2163
989 2300
989 2367
989 2438
989 2470
989 2946
989 2967
989 3379
989 3893
989 4600
989 4643
990 1107
990 1289
990 1435
990 1615
990 1730
990 1760
990 2055
990 2301
990 2351
990 2406
990 2697
990 2989
990 3208
990 3868
990 3923
990 3980
990 4052
990 4585
990 4629
990 4772
991 1122
991 1309
991 1443
991 1716
991 1742
991 1818
991 2538
991 2659
991 2798
991 3314
991 3720
991 3765
991 4146
991 4181
991 4299
991 4383
991 4603
992 1097
992 2245
992 2453
992 3157
992 3632
992 3711
992 4144
993 995
993 1388
993 1413
993 2217
993 2408
993 2691
993 2759
993 2966
993 3666
993 3710
993 3717
993 3779
993 4048
993 4097
993 4160
993 4163
993 4600
994 1100
994 1240
994 1245
994 1293
994 1466
994 1561
994 1578
994 2130
994 2312
994 2681
994 2937
994 3110
994 3471
994 4065
994 4275
994 4448
994 4539
994 4962
995 1553
995 1569
995 1729
995 1990
995 2088
995 2299
995 2512
995 2521
995 2797
995 2805
995 3081
995 3251
995 3698
995 3768
995 4138
995 4398
995 4573
995 4717
995 4725
996 1007
996 1047
996 1078
996 1128
996 1204
996 1225
996 1245
996 1490
996 1689
996 1795
996 1854
996 1920
996 2018
996 2140
996 2295
996 2395
996 2437
996 2466
996 2689
996 2693
996 2714
996 2882
996 3041
996 3609
996 3626
996 3791
996 3896
996 3953
996 4108
996 4299
996 4342
996 4464
996 4516
996 4755
996 4843
996 4958
996 4979
997 1641
997 1853
997 2132
997 2245
997 2796
997 3085
997 3095
997 3342
997 3646
997 3898
997 4395
997 4437
998 1223
998 1354
998 1451
998 1528
998 1531
998 1673
998 1693
998 1700
998 1717
998 1731
998 1776
998 1800
998 1804
998 1813
998 2065
998 2177
998 2412
998 2457
998 2539
998 2578
998 2843
998 2986
998 3302
998 3328
998 3375
998 3474
998 3541
998 3570
998 3775
998 3897
998 4113
998 4158
998 4234
998 4266
998 4329
998 4363
998 4389
998 4489
998 4550
998 4833
998 4928
999 1000
999 1097
999 1229
999 1259
999 1272
999 1372
999 1412
999 1560
999 2100
999 2147
999 2173
999 2219
999 2303
999 2509
999 2905
999 3225
999 3470
999 3702
999 3767
999 3826
999 3868
999 4003
999 4031
999 4094
999 4272
999 4582
999 4599
999 4604
999 4843
999 4994
1000 1045
1000 1099
1000 1105
1000 1268
1000 1419
1000 1479
1000 1635
1000 1759
1000 1901
1000 1965
1000 2096
1000 2317
1000 2380
1000 2469
1000 2567
1000 2750
1000 2968
1000 3446
1000 3569
1000 3730
1000 4221
1000 4370
1000 4522
1000 4985
1001 1039
1001 1516
1001 1731
1001 1813
1001 1935
1001 2028
1001 2394
1001 2400
1001 2534
1001 2910
1001 3042
1001 3274
1001 3711
1001 3877
1001 4203
1001 4366
1001 4975
1002 1917
1002 1975
1002 2133
1002 3530
1002 3893
1002 4091
1002 4338
1003 1048
1003 1051
1003 1372
1003 1536
1003 1748
1003 1840
1003 1964
1003 2049
1003 2979
1003 3016
1003 3018
1003 3206
1003 3304
1003 3947
1003 4186
1003 4272
1003 4612
1003 4633
1003 4672
1003 4848
1004 1258
1004 1420
1004 1517
1004 1730
1004 1812
1004 1896
1004 2585
1004 3312
1004 3313
1004 3916
1004 4183
1004 4530
1004 4767
1004 4990
1005 1147
1005 2049
1005 2095
1005 2306
1005 2328
1005 2913
1005 3121
1005 3312
1005 3715
1005 4206
1005 4496
1005 4745
1005 4994
1006 1218
1006 1460
1006 2451
1006 2511
1006 2808
1006 2933
1006 3226
1006 4000
1006 4413
1006 4745
1007 1013
1007 1144
1007 1599
1007 1857
1007 1862
1007 1926
1007 2229
1007 2466
1007 2471
1007 2590
1007 2846
1007 2902
1007 2954
1007 3283
1007 3313
1007 3762
1007 4834
1007 4941
1008 1113
1008 2095
1008 2130
1008 2834
1008 2913
1008 3121
1008 4255
1008 4788
1009 1355
1009 1420
1009 1489
1009 1599
1009 2201
1009 2295
1009 2444
1009 3127
1009 3402
1009 3804
1009 3953
1009 4037
1009 4094
1009 4328
1009 4356
1009 4767
1009 4858
1010 1544
1010 1692
1010 2034
1010 2483
1010 2641
1010 2801
1010 2862
1010 2979
1010 3214
1010 3226
1010 3541
1010 3829
1010 4653
1010 4978
1011 1055
1011 1764
1011 1786
1011 1841
1011 2018
1011 2442
1011 2742
1011 2969
1011 3084
1011 3166
1011 3210
1011 3535
1011 3557
1011 3702
1011 4052
1011 4086
1011 4112
1011 4517
1011 4930
1012 1120
1012 1129
1012 1464
1012 1750
1012 2070
1012 2409
1012 2602
1012 2851
1012 2931
1012 3488
1012 3733
1012 3888
1012 4057
1012 4242
1012 4353
1012 4726
1012 4757
1013 1192
1013 1221
1013 1461
1013 1530
1013 1811
1013 1884
1013 2017
1013 2474
1013 2736
1013 2766
1013 2801
1013 2808
1013 2889
1013 3212
1013 3318
1013 4270
1013 4283
1013 4291
1013 4412
1013 4682
1013 4779
1014 1207
1014 1463
1014 1582
1014 1990
1014 2133
1014 2161
1014 2209
1014 2418
1014 2638
1014 2722
1014 2798
1014 3004
1014 3338
1014 3342
1014 3356
1014 3357
1014 3554
1014 3663
1014 3855
1014 3866
1014 3882
1014 4240
1014 4330
1014 4395
1014 4416
1014 4420
1014 4459
1014 4690
1014 4726
1014 4993
1015 1080
1015 1155
1015 1302
1015 1446
1015 1898
1015 2085
1015 2205
1015 2221
1015 2425
1015 2620
1015 2771
1015 2818
1015 3274
1015 3328
1015 3432
1015 4150
1016 1145
1016 1629
1016 1932
1016 1938
1016 1990
1016 2397
1016 2469
1016 2536
1016 2706
1016 3018
1016 3104
1016 3417
1016 3485
1016 3644
1016 3662
1016 4826
1016 4857
1017 1037
1017 1051
1017 1053
1017 1790
1017 1880
1017 2405
1017 2588
1017 2643
1017 2742
1017 3167
1017 3653
1017 3908
1017 4642
1017 4796
1018 1714
1018 1879
1018 2093
1018 2519
1018 2537
1018 2609
1018 2726
1018 2977
1018 2980
1018 3104
1018 3221
1018 3409
1018 3465
1018 4019
1018 4256
1018 4524
1018 4562
1018 4818
1019 1203
1019 1383
1019 1501
1019 1552
1019 1973
1019 2045
1019 2070
1019 2346
1019 2471
1019 2646
1019 2885
1019 4157
1019 4268
1019 4600
1020 1115
1020 1532
1020 1631
1020 2533
1020 2538
1020 2640
1020 2882
1020 2912
1020 2976
1020 3074
1020 3132
1020 3611
1020 3729
1020 3930
1020 4112
1020 4296
1020 4335
1020 4365
1020 4442
1020 4893
1021 1202
1021 1406
1021 1409
1021 1765
1021 1967
1021 2483
1021 2602
1021 2969
1021 2986
1021 2987
1021 3336
1021 3693
1021 3799
1021 3846
1021 3878
1021 3916
1021 3920
1021 3992
1021 4494
1021 4586
1021 4756
1021 4912
1022 1071
1022 1133
1022 1601
1022 1790
1022 1933
1022 1956
1022 2446
1022 2460
1022 3105
1022 3546
1022 3941
1022 4605
1022 4647
1022 4737
1022 4776
1022 4941
1023 1060
1023 1065
1023 1336
1023 1915
1023 2027
1023 2221
1023 2391
1023 2546
1023 2658
1023 2979
1023 3309
1023 3548
1023 3593
1023 3782
1023 4119
1023 4180
1023 4186
1023 4632
1023 4652
1023 4891
1024 1151
1024 1421
1024 1501
1024 1765
1024 1844
1024 2128
1024 2171
1024 2260
1024 2368
1024 2422
1024 2434
1024 2444
1024 2504
1024 2505
1024 2523
1024 2577
1024 2584
1024 2709
1024 2791
1024 2847
1024 2981
1024 3471
1024 3537
1024 3951
1024 4102
1024 4118
1024 4304
1024 4377
1024 4520
1024 4530
1024 4618
1024 4867
1024 4886
1024 4955
1025 1172
1025 1486
1025 1819
1025 2187
1025 2505
1025 2691
1025 3020
1025 3831
1025 3922
1025 4044
1025 4050
1025 4554
1025 4713
1026 1078
1026 1239
1026 1276
1026 1595
1026 2055
1026 2409
1026 2421
1026 2686
1026 2795
1026 2800
1026 2832
1026 3312
1026 3617
1026 3753
1026 4187
1026 4595
1026 4689
1026 4739
1027 1654
1027 2302
1027 2805
1027 3321
1027 3326
1027 3413
1027 4008
1027 4149
1027 4556
1027 4884
1027 4953
1028 1264
1028 1925
1028 2139
1028 2175
1028 2590
1028 2772
1028 3009
1028 3090
1028 3776
1028 3796
1028 3824
1028 4021
1028 4217
1028 4609
1028 4649
1028 4973
1029 1113
1029 1773
1029 2438
1029 2510
1029 2640
1029 2733
1029 3308
1029 3381
1029 3537
1029 3552
1029 3608
1029 3625
1029 4000
1029 4178
1029 4355
1029 4560
1029 4934
1029 4941
1030 1045
1030 1548
1030 1723
1030 1820
1030 1855
1030 1956
1030 2565
1030 3076
1030 3753
1030 3808
1030 3878
1030 3934
1030 3955
1030 3968
1030 4034
1030 4120
1030 4309
1030 4448
1030 4449
1030 4491
1030 4839
1030 4919
1031 1364
1031 2433
1031 2458
1031 3095
1031 3106
1031 3178
1031 3277
1031 3536
1031 3555
1031 3655
1031 3942
1031 4157
1031 4254
1031 4304
1032 1506
1032 1849
1032 1994
1032 2316
1032 2415
1032 2627
1032 2665
1032 2715
1032 2805
1032 2898
1032 3153
1032 3182
1032 3591
1032 3633
1032 3778
1032 4002
1032 4097
1032 4137
1032 4141
1032 4214
1032 4252
1032 4402
1032 4600
1032 4731
1032 4749
1032 4877
1033 1157
1033 1283
1033 1602
1033 2159
1033 2186
1033 2334
1033 2943
1033 3170
1033 3196
1033 3360
1033 3714
1033 3925
1033 3968
1033 4036
1033 4818
1033 4839
1034 1140
1034 1458
1034 1469
1034 1811
1034 1828
1034 1886
1034 2173
1034 2256
1034 2299
1034 2331
1034 2479
1034 2527
1034 2543
1034 2578
1034 2941
1034 3024
1034 3119
1034 3126
1034 3226
1034 3232
1034 3310
1034 3492
1034 3893
1034 4041
1034 4070
1034 4323
1035 1038
1035 1042
1035 1245
1035 1322
1035 1489
1035 1780
1035 1929
1035 2140
1035 2248
1035 2466
1035 2629
1035 2687
1035 2746
1035 2757
1035 2772
1035 3124
1035 3693
1035 3718
1035 3969
1035 4238
1035 4419
1035 4861
1036 1400
1036 1897
1036 1921
1036 2364
1036 2373
1036 2628
1036 3204
1036 3550
1036 3588
1036 4091
1036 4194
1036 4444
1036 4445
1036 4795
1037 1071
1037 1115
1037 1212
1037 1513
1037 2089
1037 2335
1037 2425
1037 2433
1037 2692
1037 2976
1037 3611
1037 3731
1037 3762
1037 3984
1037 4048
1037 4529
1037 4563
1037 4603
1037 4655
1037 4718
1037 4785
1037 4960
1038 1082
1038 1458
1038 1601
1038 1614
1038 1673
1038 1999
1038 2090
1038 2111
1038 2115
1038 2168
1038 2334
1038 2395
1038 2525
1038 2722
1038 2821
1038 2854
1038 3023
1038 3464
1038 3953
1038 4048
1038 4097
1038 4176
1038 4393
1038 4430
1038 4950
1038 4996
1039 1043
1039 1269
1039 1541
1039 1608
1039 1728
1039 2070
1039 2542
1039 2855
1039 2906
1039 2971
1039 2978
1039 3026
1039 3101
1039 3545
1039 3556
1039 3965
1039 3977
1039 4156
1039 4314
1039 4514
1039 4755
1039 4958
1040 1045
1040 1284
1040 1570
1040 1659
1040 1716
1040 1734
1040 2209
1040 2763
1040 3268
1040 3550
1040 3580
1040 3712
1040 3846
1040 4251
1040 4439
1040 4466
1040 4736
1040 4847
1041 1094
1041 1431
1041 1961
1041 2340
1041 2681
1041 3042
1041 3081
1041 4179
1041 4198
1041 4409
1041 4510
1042 1439
1042 1567
1042 1601
1042 1926
1042 1956
1042 1999
1042 2140
1042 2466
1042 2473
1042 2532
1042 2561
1042 2590
1042 2954
1042 3196
1042 3220
1042 3896
1042 4103
1042 4615
1042 4755
1042 4855
1043 1377
1043 1394
1043 1443
1043 1494
1043 1674
1043 2637
1043 2820
1043 2864
1043 3821
1043 3897
1043 4490
1043 4893
1044 1444
1044 1946
1044 3101
1044 3181
1044 3193
1044 3244
1044 3254
1044 3597
1044 4275
1044 4690
1044 4997
1045 1115
1045 1366
1045 1782
1045 2079
1045 2618
1045 3212
1045 3360
1045 3391
1045 3553
1045 3583
1045 4517
1045 4590
1045 4606
1045 4648
1045 4694
1045 4837
1046 1112
1046 1390
1046 1464
1046 1489
1046 1612
1046 1759
1046 1855
1046 2231
1046 2471
1046 2523
1046 2836
1046 2890
1046 3054
1046 3235
1046 3596
1046 3762
1046 4012
1046 4083
1046 4107
1046 4152
1046 4428
1047 1128
1047 1405
1047 1459
1047 1565
1047 2129
1047 2246
1047 2949
1047 3144
1047 3432
1047 3460
1047 3676
1047 3707
1047 3714
1047 3896
1047 4456
1047 4470
1047 4664
1047 4828
1047 4962
1048 1119
1048 1226
1048 1372
1048 1654
1048 1751
1048 2083
1048 2213
1048 2344
1048 2371
1048 3023
1048 3042
1048 3102
1048 3157
1048 3196
1048 3457
1048 3636
1048 3693
1048 4140
1048 4176
1048 4516
1048 4927
1048 4950
1049 1093
1049 1168
1049 1549
1049 1779
1049 2009
1049 2039
1049 2139
1049 2392
1049 2556
1049 2611
1049 2677
1049 2870
1049 2998
1049 3101
1049 3221
1049 3404
1049 3544
1049 3621
1049 3893
1049 3977
1049 4045
1049 4109
1049 4203
1049 4275
1049 4778
1050 1069
1050 1179
1050 1197
1050 1277
1050 1555
1050 1604
1050 1969
1050 1981
1050 2123
1050 2368
1050 2372
1050 2469
1050 2604
1050 2782
1050 3476
1050 3626
1050 3645
1050 3734
1050 4158
1050 4286
1050 4449
1050 4511
1050 4796
1050 4933
1050 4990
1051 1156
1051 1176
1051 1328
1051 1541
1051 1557
1051 1774
1051 1900
1051 2653
1051 2824
1051 2841
1051 2978
1051 3188
1051 3197
1051 3308
1051 3321
1051 3601
1051 3636
1051 3955
1051 4086
1051 4139
1051 4153
1051 4568
1051 4604
1051 4790
1052 1168
1052 1519
1052 1606
1052 1740
1052 2312
1052 2534
1052 2542
1052 2682
1052 2885
1052 3165
1052 3609
1052 3797
1052 3919
1052 4179
1052 4214
1052 4266
1052 4269
1052 4517
1052 4867
1053 1074
1053 1115
1053 1345
1053 1348
1053 1609
1053 2459
1053 2539
1053 2937
1053 2969
1053 3032
1053 3119
1053 3166
1053 3499
1053 4079
1053 4083
1053 4338
1053 4684
1053 4795
1053 4953
1054 1070
1054 1282
1054 1409
1054 1458
1054 1488
1054 1615
1054 1662
1054 1675
1054 2327
1054 2632
1054 2762
1054 2768
1054 2828
1054 2837
1054 2863
1054 2912
1054 2933
1054 3046
1054 3335
1054 3794
1054 3868
1054 3890
1054 4325
1054 4472
1054 4549
1054 4591
1054 4710
1054 4876
1055 1205
1055 1623
1055 1842
1055 1885
1055 2006
1055 2036
1055 2954
1055 3266
1055 3291
1055 3352
1055 3618
1055 3820
1055 4415
1055 4770
1056 1178
1056 1322
1056 1557
1056 1643
1056 2096
1056 2178
1056 2372
1056 2554
1056 3098
1056 3158
1056 3235
1056 3670
1056 3885
1056 4002
1056 4723
1056 4778
1057 1405
1057 1487
1057 1692
1057 2022
1057 2399
1057 2574
1057 2584
1057 2879
1057 3537
1057 3739
1057 4491
1057 4909
1057 4954
1058 1538
1058 2049
1058 2416
1058 2492
1058 2721
1058 2822
1058 3042
1058 3483
1058 3610
1058 3672
1058 4143
1058 4672
1058 4768
1058 4789
1058 4845
1059 1875
1059 2446
1059 2459
1059 2508
1059 2724
1059 2740
1059 2957
1059 4149
1059 4292
1060 1127
1060 1511
1060 1779
1060 1786
1060 1828
1060 2025
1060 2238
1060 2254
1060 2260
1060 2412
1060 2420
1060 2423
1060 2445
1060 2607
1060 2968
1060 3092
1060 3099
1060 3157
1060 3366
1060 3395
1060 3403
1060 3469
1060 3617
1060 3653
1060 3851
1060 3967
1060 4260
1060 4365
1060 4389
1060 4428
1060 4588
1060 4655
1060 4738
1061 1365
1061 1393
1061 1616
1061 1646
1061 2467
1061 2574
1061 3141
1061 3253
1061 3636
1061 3821
1061 4232
1061 4406
1061 4492
1061 4710
1061 4958
1062 1373
1062 1659
1062 1864
1062 2010
1062 2200
1062 2402
1062 2476
1062 2566
1062 3065
1062 3098
1062 3315
1062 3832
1062 4584
1062 4600
1062 4606
1062 4609
1063 1221
1063 1243
1063 1541
1063 1560
1063 1608
1063 1815
1063 1941
1063 1954
1063 1968
1063 1979
1063 2301
1063 2349
1063 2362
1063 2921
1063 2959
1063 3013
1063 3250
1063 3698
1063 3875
1063 3940
1063 3963
1063 3982
1063 3995
1063 4178
1063 4328
1063 4458
1063 4537
1063 4554
1063 4610
1063 4666
1064 1205
1064 1279
1064 1759
1064 1767
1064 2036
1064 2095
1064 2296
1064 2478
1064 2726
1064 2796
1064 3176
1064 3256
1064 3300
1064 3401
1064 3462
1064 3485
1064 3843
1064 3968
1064 4318
1064 4710
1064 4856
1064 4866
1064 4909
1065 1349
1065 1424
1065 1919
1065 2028
1065 2179
1065 2685
1065 2721
1065 2801
1065 3379
1065 3439
1065 3879
1065 3940
1065 4743
1065 4994
1066 1150
1066 1276
1066 1427
1066 1556
1066 1559
1066 1616
1066 1665
1066 1796
1066 1904
1066 2482
1066 2969
1066 2974
1066 3121
1066 3635
1066 3636
1066 3749
1066 3805
1066 3820
1066 3972
1066 4980
1067 1259
1067 1265
1067 1272
1067 1454
1067 1603
1067 1667
1067 1882
1067 2043
1067 2348
1067 2451
1067 2493
1067 2565
1067 2705
1067 2885
1067 3280
1067 3506
1067 3748
1067 3785
1067 3854
1067 3872
1067 4209
1067 4245
1067 4413
1067 4512
1067 4721
1067 4869
1067 4972
1068 1098
1068 1718
1068 1728
1068 1812
1068 1842
1068 2102
1068 2122
1068 2167
1068 2201
1068 2219
1068 2272
1068 2419
1068 2481
1068 2530
1068 3144
1068 3167
1068 3182
1068 3308
1068 3460
1068 3475
1068 3738
1068 4198
1068 4250
1068 4406
1068 4962
1069 1302
1069 2123
1069 2127
1069 2382
1069 2541
1069 2547
1069 3070
1069 3135
1069 3149
1069 3250
1069 4363
1069 4675
1070 1419
1070 1486
1070 1979
1070 2298
1070 2600
1070 2837
1070 2986
1070 2990
1070 3169
1070 3241
1070 3389
1070 3602
1070 3659
1070 3956
1070 4055
1070 4101
1070 4438
1070 4543
1070 4739
1070 4801
1071 1108
1071 1183
1071 1375
1071 1450
1071 2251
1071 2298
1071 2328
1071 2424
1071 2660
1071 3113
1071 3208
1071 3398
1071 3517
1071 3652
1071 3720
1071 3788
1071 3852
1071 4002
1071 4038
1071 4189
1071 4292
1071 4443
1071 4447
1071 4572
1071 4669
1071 4733
1071 4754
1072 1480
1072 1541
1072 1678
1072 1755
1072 2925
1072 2953
1072 3191
1072 3913
1072 3916
1072 4822
1072 4935
1073 1272
1073 1437
1073 1559
1073 1825
1073 2511
1073 2670
1073 2748
1073 3113
1073 3117
1073 3602
1073 3673
1073 4253
1073 4472
1073 4716
1073 4940
1074 1309
1074 1464
1074 1510
1074 1755
1074 2478
1074 2602
1074 2718
1074 2869
1074 3103
1074 3555
1074 3999
1074 4674
1074 4771
1074 4915
1075 1685
1075 2318
1075 2624
1075 2690
1075 2782
1075 2811
1075 3104
1075 3334
1075 4080
1075 4356
1075 4539
1075 4591
1075 4762
1075 4919
1076 1184
1076 1204
1076 1343
1076 2177
1076 2218
1076 2478
1076 2611
1076 2707
1076 2921
1076 3540
1076 3712
1076 3825
1076 3842
1077 1710
1077 1783
1077 2143
1077 2172
1077 2192
1077 2522
1077 2791
1077 2881
1077 3015
1077 3376
1077 3452
1077 3536
1077 3574
1077 3659
1077 3724
1077 4636
1078 1212
1078 1248
1078 1446
1078 1547
1078 2058
1078 2301
1078 2770
1078 2785
1078 2979
1078 3191
1078 3328
1078 3336
1078 4152
1078 4221
1079 1107
1079 1202
1079 1575
1079 1628
1079 1720
1079 1753
1079 2002
1079 2082
1079 2106
1079 2192
1079 2501
1079 2639
1079 3114
1079 3377
1079 3492
1079 4679
1080 1127
1080 1271
1080 1393
1080 1567
1080 1771
1080 1878
1080 2249
1080 2363
1080 2836
1080 3281
1080 3381
1080 3450
1080 4387
1080 4414
1080 4962
1081 1295
1081 1554
1081 1639
1081 1725
1081 2055
1081 2263
1081 2472
1081 2500
1081 3198
1081 3300
1081 3622
1081 3868
1081 4144
1081 4448
1081 4498
1081 4831
1082 1240
1082 1392
1082 2172
1082 2252
1082 2329
1082 2413
1082 2869
1082 2932
1082 3047
1082 3080
1082 3087
1082 3110
1082 3374
1082 3799
1082 3903
1082 3953
1082 3966
1082 4208
1082 4238
1082 4516
1082 4983
1083 1401
1083 1772
1083 2566
1083 3095
1083 3111
1083 3203
1083 3402
1083 3855
1083 4124
1083 4750
1083 4785
1083 4790
1084 1227
1084 1408
1084 1599
1084 1676
1084 1938
1084 1998
1084 2199
1084 2334
1084 2353
1084 2423
1084 2464
1084 3025
1084 3110
1084 3582
1084 3597
1084 3653
1084 3692
1084 3942
1084 4395
1084 4629
1084 4737
1085 1328
1085 2058
1085 2208
1085 2291
1085 2380
1085 2851
1085 3049
1085 4062
1085 4067
1085 4469
1085 4674
1086 1443
1086 2040
1086 2316
1086 2829
1086 2988
1086 3284
1086 3427
1086 3757
1086 3855
1086 4102
1086 4172
1086 4274
1086 4649
1087 1731
1087 2323
1087 2367
1087 2594
1087 2614
1087 3266
1087 3476
1087 3629
1087 3786
1087 3975
1087 3995
1087 4205
1087 4209
1087 4625
1087 4657
1087 4733
1087 4869
1087 4923
1088 1505
1088 1725
1088 2697
1088 2837
1088 3066
1088 3106
1088 3172
1088 3559
1088 4101
1088 4580
1088 4909
1089 1115
1089 1222
1089 1300
1089 1946
1089 2034
1089 2241
1089 2265
1089 2417
1089 2681
1089 2696
1089 3167
1089 3479
1089 3672
1089 3843
1089 3921
1089 3984
1089 4163
1089 4289
1089 4339
1089 4370
1089 4485
1089 4720
1089 4785
1089 4934
1090 1451
1090 1674
1090 1792
1090 2578
1090 2946
1090 4165
1090 4299
1090 4437
1090 4470
1090 4516
1090 4623
1091 1380
1091 2036
1091 2381
1091 2540
1091 2944
1091 3180
1091 3319
1091 3688
1091 4204
1091 4311
1091 4641
1091 4722
1092 1269
1092 1504
1092 1614
1092 1927
1092 2288
1092 2847
1092 2957
1092 2985
1092 4280
1092 4312
1092 4341
1092 4422
1092 4627
1092 4849
1093 1265
1093 1266
1093 1298
1093 1322
1093 1386
1093 1487
1093 1551
1093 1597
1093 1822
1093 1914
1093 1987
1093 2017
1093 2031
1093 2033
1093 2040
1093 2061
1093 2139
1093 2275
1093 2402
1093 2430
1093 2528
1093 2545
1093 2592
1093 2680
1093 2894
1093 2903
1093 2974
1093 3015
1093 3026
1093 3112
1093 3126
1093 3203
1093 3340
1093 3456
1093 3621
1093 3672
1093 3680
1093 3714
1093 3718
1093 3914
1093 3918
1093 4141
1093 4144
1093 4300
1093 4361
1093 4923
1094 1183
1094 1254
1094 1342
1094 1394
1094 1471
1094 1543
1094 1672
1094 1818
1094 1907
1094 2050
1094 2063
1094 2243
1094 2312
1094 2437
1094 2486
1094 3168
1094 3352
1094 3370
1094 3465
1094 4081
1094 4124
1094 4257
1094 4261
1094 4297
1094 4612
1094 4795
1094 4818
1095 1109
1095 1148
1095 1489
1095 1615
1095 2674
1095 2801
1095 2913
1095 2928
1095 3121
1095 3133
1095 3181
1095 3326
1095 3472
1095 3697
1095 3849
1095 4114
1095 4275
1095 4626
1095 4658
1096 1155
1096 1535
1096 1876
1096 2057
1096 2142
1096 2483
1096 2929
1096 3047
1096 3100
1096 3412
1096 3511
1096 3583
1096 4846
1097 1253
1097 1258
1097 1269
1097 1348
1097 1373
1097 1389
1097 1400
1097 1867
1097 1986
1097 2147
1097 2212
1097 2221
1097 2281
1097 2358
1097 2541
1097 2882
1097 2975
1097 3166
1097 3204
1097 3436
1097 3530
1097 3578
1097 3604
1097 3631
1097 3752
1097 3791
1097 3955
1097 4084
1097 4185
1097 4198
1097 4288
1097 4349
1097 4361
1097 4389
1097 4393
1097 4430
1097 4484
1097 4499
1097 4522
1097 4651
1098 1307
1098 1320
1098 1374
1098 1421
1098 1508
1098 1972
1098 2445
1098 2452
1098 2633
1098 2926
1098 3299
1098 3449
1098 3555
1098 3800
1098 4106
1098 4275
1098 4410
1098 4785
1098 4919
1099 1100
1099 1276
1099 1489
1099 1676
1099 1778
1099 1812
1099 1980
1099 2097
1099 2313
1099 2511
1099 2681
1099 2946
1099 3045
1099 3348
1099 3379
1099 3457
1099 3464
1099 3532
1099 3695
1099 3741
1099 4040
1099 4073
1099 4148
1099 4275
1099 4348
1099 4466
1099 4697
1099 4713
1099 4761
1100 1216
1100 1428
1100 1489
1100 1835
1100 1889
1100 1933
1100 2145
1100 2698
1100 2772
1100 2786
1100 2803
1100 2896
1100 2921
1100 3110
1100 3234
1100 3279
1100 3348
1100 3625
1100 3762
1100 3821
1100 3883
1100 4305
1100 4328
1100 4418
1100 4421
1100 4437
1100 4536
1100 4666
1100 4868
1100 4918
1101 1129
1101 1985
1101 2100
1101 2157
1101 2327
1101 2429
1101 2527
1101 3014
1101 3071
1101 3114
1101 3391
1101 3462
1101 3565
1101 3835
1101 4087
1101 4228
1101 4512
1101 4978
1102 1111
1102 1421
1102 1464
1102 1678
1102 1716
1102 1736
1102 2089
1102 2092
1102 3036
1102 3043
1102 3339
1102 3775
1102 4463
1103 1206
1103 1270
1103 1564
1103 2267
1103 2933
1103 3235
1103 3352
1103 3504
1103 3522
1103 3946
1103 4075
1103 4174
1103 4442
1103 4699
1104 1440
1104 1863
1104 2029
1104 2084
1104 2192
1104 2511
1104 3374
1104 3988
1104 3990
1104 4007
1104 4275
1104 4348
1104 4626
1105 1129
1105 1240
1105 1456
1105 1479
1105 1628
1105 2114
1105 2205
1105 3072
1105 3114
1105 3257
1105 3304
1105 3355
1105 3621
1105 3809
1105 4030
1105 4764
1105 4849
1106 1236
1106 1382
1106 1448
1106 1587
1106 1793
1106 2256
1106 3013
1106 3024
1106 3114
1106 3648
1106 3714
1106 4503
1106 4568
1106 4731
1107 1633
1107 2003
1107 2105
1107 2158
1107 2231
1107 2324
1107 3249
1107 3281
1107 3552
1107 3697
1107 3906
1107 4225
1107 4291
1107 4397
1107 4454
1107 4542
1107 4789
1107 4796
1108 1207
1108 1395
1108 1502
1108 2281
1108 2373
1108 2383
1108 2490
1108 2565
1108 2801
1108 3313
1108 3920
1108 3995
1108 4071
1108 4275
1108 4617
1108 4697
1108 4911
1109 1203
1109 1641
1109 2412
1109 3249
1109 3527
1109 3589
1109 3632
1109 3646
1109 3746
1109 3802
1109 4104
1109 4249
1109 4291
1109 4302
1109 4828
1110 1348
1110 1483
1110 1529
1110 1533
1110 1619
1110 1855
1110 2052
1110 2425
1110 2435
1110 2529
1110 2615
1110 3007
1110 4607
1110 4790
1111 1695
1111 1728
1111 1911
1111 2048
1111 2326
1111 2525
1111 2870
1111 2994
1111 3603
1111 3953
1111 4030
1111 4089
1111 4107
1111 4158
1111 4278
1111 4324
1111 4470
1111 4572
1111 4885
1111 4962
1112 1631
1112 2808
1112 3149
1112 3587
1112 3669
1112 3749
1112 4290
1112 4433
1112 4790
1113 1260
1113 1369
1113 1420
1113 1618
1113 1886
1113 2027
1113 2178
1113 2232
1113 2306
1113 2543
1113 2568
1113 2578
1113 2613
1113 2637
1113 2686
1113 2694
1113 2758
1113 2784
1113 3121
1113 3389
1113 3499
1113 3522
1113 3602
1113 3711
1113 3877
1113 4023
1113 4055
1113 4114
1113 4118
1113 4250
1113 4696
1113 4874
1113 4948
1114 1362
1114 1720
1114 1938
1114 2462
1114 2780
1114 2871
1114 3066
1114 3130
1114 3226
1114 3394
1114 3421
1114 3544
1114 3920
1114 3921
1114 3959
1114 4046
1114 4395
1114 4922
1115 1271
1115 1425
1115 1480
1115 1542
1115 1659
1115 1725
1115 1738
1115 1748
1115 1765
1115 1881
1115 1926
1115 1927
1115 2187
1115 2189
1115 2204
1115 2265
1115 2318
1115 2328
1115 2494
1115 2558
1115 2563
1115 2588
1115 2750
1115 2759
1115 2876
1115 3041
1115 3066
1115 3086
1115 3157
1115 3160
1115 3187
1115 3199
1115 3250
1115 3322
1115 3323
1115 3327
1115 3398
1115 3519
1115 3547
1115 3556
1115 3565
1115 3664
1115 3785
1115 3907
1115 4012
1115 4085
1115 4372
1115 4548
1115 4590
1115 4611
1115 4631
1115 4679
1115 4715
1115 4886
1115 4997
1116 1608
1116 1779
1116 2517
1116 3098
1116 3167
1116 3401
1116 3783
1116 4010
1116 4317
1116 4448
1116 4748
1116 4862
1117 1164
1117 1600
1117 1937
1117 2101
1117 2210
1117 2214
1117 2235
1117 2735
1117 2849
1117 2851
1117 3272
1117 3451
1117 3552
1117 3557
1117 4060
1117 4499
1117 4602
1117 4879
1118 1135
1118 1356
1118 1614
1118 1834
1118 1949
1118 2061
1118 2833
1118 2983
1118 3758
1118 3771
1118 3836
1118 3839
1118 4000
1118 4007
1118 4476
1118 4823
1119 1638
1119 1687
1119 1856
1119 1952
1119 2097
1119 2585
1119 2842
1119 3119
1119 3402
1119 3821
1119 4304
1119 4452
1119 4905
1120 1133
1120 1218
1120 1316
1120 1330
1120 1386
1120 1509
1120 1612
1120 1625
1120 1633
1120 1659
1120 1784
1120 1849
1120 1977
1120 2068
1120 2164
1120 2378
1120 2493
1120 2516
1120 2553
1120 2822
1120 2919
1120 3023
1120 3032
1120 3181
1120 3333
1120 3357
1120 3358
1120 3584
1120 3630
1120 3774
1120 3839
1120 3855
1120 3860
1120 3893
1120 3950
1120 3992
1120 4128
1120 4284
1120 4714
1120 4928
1120 4978
1121 1302
1121 2021
1121 2285
1121 2544
1121 2910
1121 2992
1121 3208
1121 3224
1121 3897
1121 4281
1121 4878
1122 1499
1122 1779
1122 2042
1122 2149
1122 2571
1122 2820
1122 2835
1122 2925
1122 2951
1122 3043
1122 3147
1122 3387
1122 3413
1122 3427
1122 3505
1122 3539
1122 4114
1122 4232
1122 4314
1122 4502
1122 4943
1123 1169
1123 1238
1123 1823
1123 2777
1123 3250
1123 3323
1123 3364
1123 3448
1123 3911
1123 4094
1123 4416
1123 4530
1123 4627
1124 1327
1124 1363
1124 1625
1124 1728
1124 1820
1124 1924
1124 2373
1124 2591
1124 2855
1124 3229
1124 3342
1124 3579
1124 3721
1124 4169
1124 4180
1125 1216
1125 1222
1125 1248
1125 1442
1125 1844
1125 1885
1125 1967
1125 2189
1125 2254
1125 2314
1125 2649
1125 2662
1125 2663
1125 2847
1125 2955
1125 2992
1125 3012
1125 3149
1125 3184
1125 3380
1125 3468
1125 3516
1125 3590
1125 3596
1125 3712
1125 3762
1125 4039
1125 4206
1125 4223
1125 4398
1125 4650
1125 4896
1126 1160
1126 1289
1126 1293
1126 1428
1126 1853
1126 2671
1126 2775
1126 3039
1126 3052
1126 3419
1126 3706
1126 3811
1126 4175
1126 4484
1126 4512
1126 4549
1126 4578
1126 4603
1126 4704
1126 4718
1126 4774
1127 1316
1127 1638
1127 2168
1127 2254
1127 2521
1127 2606
1127 2683
1127 3110
1127 3322
1127 3353
1127 3510
1127 3602
1127 3633
1127 4088
1127 4092
1127 4486
1127 4503
1128 1201
1128 1318
1128 1466
1128 1690
1128 1907
1128 1911
1128 1976
1128 1999
1128 2132
1128 2213
1128 2242
1128 2521
1128 2763
1128 2954
1128 3032
1128 3042
1128 3255
1128 3374
1128 3430
1128 3446
1128 3457
1128 3469
1128 3693
1128 3910
1128 3953
1128 3963
1128 4089
1128 4200
1128 4420
1128 4482
1128 4544
1129 1153
1129 1323
1129 1528
1129 1562
1129 1643
1129 1721
1129 1782
1129 1956
1129 1980
1129 2006
1129 2015
1129 2058
1129 2068
1129 2183
1129 2184
1129 2225
1129 2234
1129 2316
1129 2522
1129 2577
1129 2672
1129 3114
1129 3232
1129 3245
1129 3427
1129 3505
1129 3661
1129 3808
1129 3903
1129 4240
1129 4301
1129 4480
1129 4607
1129 4690
1129 4969
1130 1241
1130 1341
1130 1391
1130 1507
1130 1547
1130 2201
1130 2284
1130 2652
1130 2698
1130 2706
1130 3907
1130 4178
1130 4201
1130 4282
1130 4772
1131 1752
1131 1801
1131 2060
1131 2222
1131 2239
1131 2299
1131 3119
1131 3973
1131 4407
1132 1427
1132 1445
1132 1927
1132 1967
1132 2250
1132 2254
1132 2755
1132 2863
1132 2942
1132 3475
1132 3817
1132 3868
1132 3916
1132 4367
1132 4472
1132 4582
1133 1803
1133 2030
1133 2445
1133 2735
1133 2989
1133 3285
1133 3453
1133 3528
1133 3629
1133 3983
1133 4603
1133 4673
1134 1308
1134 1342
1134 1363
1134 1566
1134 1597
1134 1628
1134 1705
1134 2124
1134 2514
1134 2753
1134 2969
1134 3040
1134 4478
1134 4917
1135 1230
1135 1238
1135 1291
1135 1322
1135 1409
1135 1559
1135 1686
1135 1760
1135 1912
1135 2054
1135 2063
1135 2372
1135 2376
1135 2779
1135 3067
1135 3091
1135 3151
1135 3178
1135 3356
1135 3810
1135 3820
1135 3888
1135 3931
1135 4128
1135 4457
1135 4540
1135 4553
1135 4563
1135 4569
1135 4579
1135 4610
1135 4735
1135 4939
1136 1739
1136 1807
1136 2147
1136 2220
1136 2299
1136 2724
1136 2853
1136 2867
1136 2999
1136 3181
1136 3404
1136 3605
1136 3695
1136 3709
1136 3957
1136 4396
1136 4698
1136 4804
1136 4931
1137 1443
1137 1601
1137 2030
1137 2089
1137 2907
1137 3494
1137 3557
1137 3647
1137 3731
1137 3892
1137 4067
1137 4218
1137 4528
1138 1351
1138 1407
1138 1529
1138 1649
1138 2133
1138 2816
1138 2823
1138 2989
1138 3167
1138 3322
1138 3432
1138 4119
1138 4352
1138 4424
1138 4454
1138 4488
1138 4495
1138 4711
1138 4898
1139 1206
1139 1297
1139 2326
1139 2354
1139 2528
1139 2777
1139 2887
1139 3608
1139 3728
1139 3801
1139 4105
1139 4168
1139 4203
1139 4206
1139 4462
1139 4850
1139 4918
1140 1243
1140 1465
1140 1557
1140 1790
1140 1817
1140 1931
1140 1967
1140 2094
1140 2134
1140 2406
1140 2439
1140 2467
1140 2520
1140 2563
1140 2705
1140 2785
1140 2787
1140 2868
1140 2955
1140 2991
1140 3045
1140 3119
1140 3122
1140 3252
1140 3482
1140 3754
1140 3795
1140 3834
1140 3835
1140 3886
1140 4168
1140 4169
1140 4179
1140 4220
1140 4368
1140 4510
1140 4548
1140 4557
1140 4648
1140 4656
1140 4740
1140 4832
1140 4839
1140 4848
1140 4989
1141 1494
1141 1725
1141 2405
1141 2553
1141 2697
1141 3259
1141 3391
1141 3541
1141 3574
1141 3985
1141 4288
1141 4660
1141 4945
1142 1150
1142 1423
1142 2049
1142 2839
1142 3178
1142 3666
1142 3889
1142 4096
1142 4450
1142 4582
1143 1193
1143 1233
1143 1241
1143 1609
1143 1779
1143 1786
1143 1819
1143 1897
1143 2133
1143 2347
1143 2552
1143 2576
1143 2623
1143 2663
1143 2692
1143 2740
1143 3237
1143 3420
1143 3461
1143 3464
1143 3564
1143 3882
1143 4180
1143 4237
1143 4675
1143 4679
1143 4837
1143 4860
1144 1369
1144 1489
1144 1578
1144 1643
1144 1713
1144 1740
1144 1835
1144 2079
1144 2228
1144 2456
1144 2711
1144 2884
1144 2926
1144 3045
1144 3112
1144 3230
1144 3237
1144 3464
1144 3570
1144 3931
1144 4148
1144 4150
1144 4410
1144 4419
1144 4569
1144 4646
1144 4829
1145 1260
1145 1332
1145 2118
1145 2262
1145 3078
1145 3314
1145 3428
1145 3622
1145 3685
1145 3776
1145 3849
1145 4128
1145 4291
1145 4297
1145 4695
1146 1774
1146 1941
1146 1957
1146 2710
1146 2725
1146 2774
1146 2931
1146 3283
1146 3387
1146 3558
1146 3574
1146 4139
1146 4394
1146 4605
1146 4781
1147 1457
1147 1502
1147 1533
1147 1543
1147 1611
1147 2574
1147 2658
1147 2771
1147 2808
1147 3061
1147 3119
1147 3180
1147 3394
1147 3531
1147 3566
1147 3616
1147 4177
1147 4328
1147 4343
1147 4382
1147 4464
1147 4595
1147 4919
1148 1203
1148 1260
1148 1787
1148 1943
1148 2013
1148 2052
1148 2069
1148 2111
1148 3075
1148 3460
1148 3463
1148 3471
1148 4011
1148 4601
1148 4697
1149 1388
1149 1391
1149 1549
1149 1731
1149 1734
1149 2044
1149 2301
1149 2349
1149 3099
1149 3134
1149 3509
1149 4122
1149 4128
1149 4222
1149 4267
1149 4395
1149 4414
1149 4555
1150 1327
1150 1427
1150 1489
1150 1504
1150 1665
1150 1692
1150 1745
1150 2305
1150 2671
1150 2837
1150 3322
1150 3674
1150 3820
1150 4215
1150 4326
1150 4554
1151 1289
1151 2075
1151 2602
1151 2878
1151 2896
1151 3095
1151 3097
1151 3170
1151 3616
1151 3989
1151 4067
1151 4114
1151 4157
1151 4170
1151 4771
1152 1192
1152 1906
1152 1974
1152 1979
1152 1996
1152 2066
1152 2113
1152 2387
1152 2541
1152 2940
1152 3070
1152 3228
1152 3273
1152 3602
1152 3826
1152 4019
1152 4632
1152 4753
1152 4818
1153 1788
1153 1837
1153 1946
1153 2072
1153 2462
1153 2739
1153 2873
1153 2982
1153 3066
1153 3758
1153 3892
1153 4221
1153 4626
1154 1298
1154 1589
1154 1711
1154 2139
1154 2274
1154 2383
1154 2412
1154 2545
1154 2591
1154 3024
1154 3080
1154 3245
1154 3330
1154 3923
1154 4199
1154 4251
1154 4262
1154 4314
1154 4452
1154 4544
1154 4551
1154 4654
1154 4857
1154 4961
1154 4978
1155 1423
1155 1621
1155 1974
1155 2306
1155 2308
1155 2737
1155 2761
1155 2950
1155 3600
1155 3665
1155 4480
1156 1436
1156 1463
1156 1471
1156 1653
1156 1778
1156 2205
1156 2570
1156 2602
1156 2882
1156 3254
1156 3276
1156 3607
1156 3888
1156 3920
1156 4026
1156 4276
1156 4703
1156 4808
1156 4905
1157 1816
1157 2205
1157 2602
1157 2634
1157 3226
1157 3503
1157 3792
1157 4144
1157 4428
1158 1537
1158 2085
1158 2094
1158 2180
1158 2320
1158 2332
1158 2343
1158 2528
1158 2924
1158 2974
1158 2975
1158 3039
1158 3120
1158 3453
1158 3643
1158 3681
1158 3758
1158 3852
1158 4244
1158 4722
1158 4735
1158 4788
1158 4982
1159 1213
1159 1255
1159 1378
1159 1443
1159 2151
1159 2228
1159 2344
1159 2367
1159 2853
1159 3069
1159 4089
1159 4403
1159 4754
1159 4759
1159 4774
1159 4887
1160 1242
1160 1790
1160 1820
1160 1963
1160 2052
1160 2088
1160 2152
1160 2255
1160 2414
1160 2672
1160 2781
1160 2909
1160 3095
1160 3135
1160 3298
1160 3693
1160 3822
1160 4111
1160 4243
1160 4337
1160 4933
1161 1309
1161 1573
1161 2042
1161 2371
1161 2682
1161 2685
1161 2820
1161 2867
1161 3228
1161 3303
1161 3413
1161 3485
1161 4018
1161 4290
1161 4299
1161 4443
1161 4673
1161 4939
1162 1300
1162 1397
1162 1567
1162 2178
1162 2655
1162 2995
1162 3465
1162 3646
1162 4287
1162 4289
1162 4398
1162 4487
1163 1444
1163 1588
1163 1700
1163 1994
1163 2074
1163 2432
1163 2706
1163 2885
1163 2922
1163 3421
1163 3533
1163 3928
1163 4307
1163 4492
1163 4602
1163 4896
1164 1303
1164 1657
1164 1695
1164 1790
1164 2096
1164 2413
1164 2994
1164 3144
1164 3638
1164 3939
1164 4137
1165 1288
1165 1341
1165 2150
1165 2814
1165 2865
1165 3021
1165 3039
1165 3412
1165 3563
1165 3606
1165 3749
1165 3958
1165 4091
1165 4184
1165 4402
1166 1475
1166 1573
1166 1717
1166 1931
1166 2706
1166 2832
1166 2947
1166 2949
1166 3064
1166 3072
1166 3685
1166 3738
1166 4159
1166 4590
1166 4755
1167 1233
1167 1373
1167 1423
1167 2993
1167 3060
1167 3775
1167 3797
1167 4160
1167 4215
1167 4273
1167 4372
1167 4589
1167 4604
1168 1334
1168 1408
1168 1547
1168 1595
1168 1774
1168 2002
1168 2030
1168 2115
1168 2134
1168 2146
1168 2213
1168 2369
1168 3289
1168 3383
1168 3464
1168 3533
1168 3587
1168 3823
1168 3841
1168 3946
1168 3978
1168 4065
1168 4285
1168 4427
1168 4689
1168 4706
1169 1486
1169 1532
1169 1589
1169 1709
1169 2089
1169 2745
1169 3837
1169 4066
1170 1549
1170 1685
1170 1746
1170 1803
1170 2265
1170 2272
1170 2676
1170 3236
1170 3889
1170 4141
1170 4284
1170 4298
1170 4351
1170 4669
1170 4690
1171 1278
1171 1463
1171 2235
1171 2444
1171 2805
1171 3306
1171 3574
1171 3778
1171 4151
1171 4164
1171 4625
1172 1252
1172 1776
1172 1858
1172 2229
1172 2668
1172 2928
1172 3084
1172 3199
1172 3215
1172 3840
1172 3874
1172 4175
1172 4356
1172 4578
1172 4610
1173 1189
1173 1200
1173 1566
1173 2026
1173 2075
1173 2566
1173 2776
1173 2800
1173 3218
1173 3294
1173 3323
1173 3555
1173 3666
1173 3729
1173 3738
1173 3747
1173 3823
1173 3882
1173 3974
1173 3981
1173 4093
1173 4515
1173 4892
1173 4994
1174 1197
1174 1296
1174 1361
1174 1838
1174 2154
1174 3621
1174 3712
1174 3859
1174 4020
1174 4052
1174 4105
1174 4289
1174 4298
1174 4538
1174 4722
1174 4804
1174 4817
1174 4921
1175 1179
1175 1222
1175 1425
1175 1644
1175 1739
1175 2151
1175 2356
1175 2642
1175 2763
1175 2855
1175 2873
1175 3242
1175 3540
1175 4150
1175 4482
1175 4523
1175 4683
1175 4700
1175 4759
1175 4760
1176 1421
1176 1599
1176 1728
1176 2885
1176 2906
1176 3311
1176 3313
1176 3322
1176 3328
1176 3633
1176 3736
1176 4089
1176 4208
1176 4324
1176 4845
1177 1227
1177 1305
1177 2045
1177 2080
1177 2147
1177 2360
1177 2469
1177 2563
1177 3467
1177 3672
1177 4578
1177 4838
1178 1351
1178 1387
1178 1443
1178 1740
1178 1834
1178 2104
1178 2282
1178 2694
1178 2839
1178 2922
1178 3270
1178 3337
1178 3580
1178 3708
1178 3771
1178 4033
1178 4250
1178 4267
1178 4289
1178 4399
1178 4769
1178 4953
1179 1290
1179 1863
1179 2017
1179 2075
1179 2107
1179 2191
1179 2384
1179 2408
1179 2656
1179 2802
1179 2853
1179 2855
1179 3195
1179 3220
1179 3474
1179 3520
1179 3695
1179 3848
1179 3861
1179 4215
1179 4321
1179 4403
1179 4482
1179 4756
1179 4768
1179 4859
1179 4911
1180 1926
1180 2102
1180 2619
1180 3138
1180 3728
1180 3798
1180 3979
1180 4104
1180 4292
1181 1309
1181 1356
1181 1360
1181 1444
1181 1468
1181 1665
1181 1834
1181 2324
1181 2352
1181 2393
1181 2473
1181 3411
1181 3928
1181 4104
1181 4277
1181 4551
1181 4626
1181 4768
1181 4776
1181 4937
1182 1423
1182 1596
1182 1684
1182 1732
1182 2300
1182 2399
1182 2433
1182 2864
1182 2897
1182 2966
1182 3097
1182 3218
1182 3579
1182 3658
1182 4136
1182 4228
1182 4297
1182 4359
1182 4423
1182 4683
1183 1207
1183 1354
1183 1586
1183 1641
1183 1765
1183 2174
1183 2232
1183 2467
1183 3011
1183 3755
1183 3987
1183 4655
1183 4744
1184 1234
1184 1308
1184 1522
1184 1642
1184 1791
1184 2180
1184 2396
1184 2453
1184 2728
1184 2770
1184 2781
1184 2822
1184 3020
1184 3507
1184 3688
1184 3740
1184 3947
1184 4167
1184 4240
1184 4270
1184 4529
1184 4619
1184 4693
1184 4949
1185 1205
1185 1488
1185 1530
1185 1652
1185 1724
1185 1924
1185 2676
1185 2837
1185 3097
1185 3130
1185 3401
1185 3504
1185 3559
1185 3808
1185 4029
1186 1777
1186 2010
1186 2075
1186 2567
1186 2593
1186 2742
1186 2970
1186 3017
1186 3109
1186 3192
1186 3716
1186 4541
1186 4642
1187 1291
1187 1293
1187 1350
1187 1619
1187 2423
1187 2927
1187 3089
1187 3413
1187 3548
1187 3551
1187 3564
1187 3583
1187 4194
1187 4249
1187 4817
1187 4836
1187 4885
1188 1241
1188 1300
1188 1894
1188 2209
1188 2467
1188 2603
1188 3252
1188 3523
1188 3528
1188 3712
1188 3968
1188 4097
1188 4159
1188 4281
1188 4480
1188 4647
1189 1458
1189 1646
1189 1753
1189 1953
1189 1998
1189 2071
1189 2184
1189 2334
1189 2571
1189 2689
1189 3043
1189 3196
1189 3243
1189 3306
1189 3755
1189 3778
1189 4188
1189 4545
1189 4577
1190 1559
1190 1934
1190 1957
1190 2028
1190 2305
1190 2310
1190 2335
1190 2361
1190 2775
1190 2811
1190 3087
1190 3360
1190 3616
1190 3732
1190 3952
1190 4062
1190 4359
1190 4374
1190 4764
1190 4890
1191 1197
1191 1214
1191 1226
1191 1354
1191 1428
1191 1531
1191 2172
1191 2249
1191 2379
1191 2954
1191 3080
1191 3151
1191 3196
1191 3231
1191 3284
1191 3637
1191 3773
1191 4287
1191 4364
1191 4438
1191 4470
1191 4603
1191 4975
1192 1334
1192 1464
1192 1599
1192 1616
1192 1631
1192 1681
1192 1806
1192 1834
1192 1962
1192 1987
1192 2021
1192 2061
1192 2152
1192 2162
1192 2268
1192 2550
1192 2598
1192 2628
1192 2841
1192 2846
1192 2872
1192 2954
1192 3019
1192 3025
1192 3031
1192 3173
1192 3175
1192 3298
1192 3309
1192 3462
1192 3515
1192 3528
1192 3610
1192 3621
1192 3790
1192 4070
1192 4186
1192 4445
1192 4480
1192 4501
1192 4503
1192 4514
1192 4648
1192 4760
1192 4829
1192 4915
1192 4925
1192 4941
1192 4990
1193 1452
1193 1602
1193 1944
1193 2019
1193 2116
1193 2163
1193 2478
1193 2728
1193 2757
1193 2844
1193 2928
1193 3036
1193 3125
1193 3261
1193 3411
1193 3668
1193 3801
1193 3916
1193 4035
1193 4193
1193 4374
1193 4499
1193 4566
1193 4570
1193 4641
1193 4652
1193 4697
1193 4717
1193 4827
1194 1374
1194 2591
1194 2878
1194 2944
1194 2957
1194 3313
1194 3402
1194 3467
1194 3718
1194 4198
1194 4406
1194 4578
1194 4647
1194 4982
1195 1429
1195 2165
1195 2359
1195 2453
1195 2562
1195 3003
1195 3414
1195 3598
1195 4163
1195 4692
1195 4736
1196 1409
1196 1427
1196 1573
1196 1770
1196 2144
1196 2729
1196 2818
1196 3216
1196 3325
1196 3585
1196 3867
1196 3898
1196 4476
1196 4537
1197 1200
1197 1202
1197 1234
1197 1351
1197 1430
1197 1573
1197 1678
1197 1695
1197 1950
1197 2123
1197 2145
1197 2265
1197 2266
1197 2310
1197 2313
1197 2345
1197 2369
1197 2382
1197 2397
1197 2469
1197 2486
1197 2604
1197 2769
1197 2826
1197 2898
1197 2984
1197 3180
1197 3195
1197 3403
1197 3480
1197 3554
1197 3626
1197 3711
1197 3783
1197 3811
1197 4066
1197 4129
1197 4209
1197 4272
1197 4286
1197 4452
1197 4537
1197 4549
1197 4552
1197 4886
1198 1461
1198 1477
1198 1842
1198 1874
1198 1909
1198 2133
1198 2154
1198 2359
1198 2869
1198 3020
1198 3407
1198 3597
1198 4160
1198 4354
1198 4965
1198 4976
1199 1381
1199 1407
1199 1414
1199 1666
1199 1703
1199 1779
1199 2901
1199 3007
1199 3196
1199 3207
1199 3410
1199 3596
1199 3646
1199 3654
1199 3881
1199 4009
1199 4187
1199 4319
1199 4375
1199 4385
1199 4800
1200 1450
1200 1616
1200 1646
1200 1661
1200 1919
1200 1924
1200 2434
1200 2469
1200 2592
1200 2604
1200 2863
1200 2931
1200 3525
1200 3561
1200 3573
1200 4425
1201 1243
1201 1307
1201 1512
1201 1600
1201 1632
1201 1713
1201 1948
1201 2685
1201 2913
1201 3073
1201 3081
1201 3144
1201 3229
1201 3379
1201 3868
1201 3930
1201 3938
1201 4266
1201 4311
1201 4563
1201 4611
1201 4798
1202 1388
1202 1443
1202 1886
1202 2008
1202 2207
1202 2480
1202 2685
1202 3753
1202 4568
1202 4578
1202 4923
1203 1658
1203 2052
1203 2508
1203 2778
1203 3062
1203 3180
1203 3347
1203 3461
1203 3747
1203 3930
1203 4225
1203 4615
1203 4918
1204 1412
1204 1689
1204 1896
1204 1980
1204 1987
1204 2174
1204 2279
1204 2712
1204 2738
1204 2968
1204 3278
1204 3570
1204 3614
1204 3762
1204 3958
1204 3971
1204 4071
1204 4102
1204 4339
1204 4400
1204 4680
1204 4688
1204 4809
1204 4886
1205 2397
1205 2540
1205 2726
1205 3160
1205 3420
1205 3463
1205 3479
1205 3483
1205 3688
1205 3854
1205 4136
1205 4498
1205 4514
1205 4937
1206 1445
1206 1477
1206 1549
1206 1612
1206 1802
1206 2272
1206 2602
1206 2619
1206 2734
1206 2749
1206 2833
1206 2931
1206 2977
1206 3144
1206 3259
1206 3333
1206 3393
1206 3819
1206 3974
1206 4111
1206 4252
1206 4298
1206 4414
1206 4427
1206 4457
1206 4464
1206 4622
1206 4627
1206 4646
1206 4802
1206 4834
1206 4838
1207 1596
1207 1765
1207 1830
1207 1924
1207 2145
1207 2147
1207 2241
1207 2868
1207 3235
1207 3241
1207 3479
1207 3848
1207 4105
1207 4420
1207 4441
1207 4563
1207 4629
1207 4804
1207 4886
1208 1231
1208 1280
1208 1297
1208 1461
1208 2345
1208 2627
1208 2767
1208 2853
1208 2892
1208 3119
1208 3246
1208 3410
1208 3747
1208 3806
1208 4147
1208 4253
1208 4381
1208 4706
1208 4771
1208 4934
1209 1534
1209 1643
1209 1824
1209 2064
1209 2245
1209 2353
1209 2847
1209 3167
1209 3525
1209 3544
1209 3597
1209 3609
1209 4428
1209 4988
1209 4998
1210 1444
1210 1586
1210 1593
1210 1826
1210 2222
1210 2379
1210 2403
1210 2865
1210 3352
1210 3891
1210 4359
1210 4533
1210 4561
1210 4569
1210 4607
1211 1254
1211 1365
1211 1532
1211 2137
1211 2472
1211 2748
1211 3545
1211 3564
1211 3704
1211 3939
1211 4052
1211 4060
1211 4878
1211 4930
1212 1249
1212 1308
1212 1396
1212 1977
1212 2039
1212 2105
1212 2230
1212 2813
1212 2862
1212 3048
1212 4462
1212 4618
1212 4795
1212 4989
1213 1378
1213 1380
1213 1634
1213 1762
1213 2151
1213 2242
1213 2261
1213 2271
1213 2274
1213 2588
1213 2804
1213 2922
1213 3015
1213 3933
1213 4137
1213 4411
1213 4756
1213 4759
1213 4794
1213 4955
1214 1695
1214 1721
1214 1845
1214 2083
1214 2140
1214 2319
1214 2469
1214 3249
1214 3495
1214 3591
1214 3693
1214 3860
1214 3992
1214 4022
1214 4089
1214 4642
1214 4740
1214 4828
1215 1342
1215 1343
1215 1725
1215 1740
1215 1936
1215 2035
1215 2157
1215 2331
1215 2832
1215 2893
1215 3093
1215 3257
1215 3346
1215 4035
1216 1342
1216 1476
1216 1483
1216 2388
1216 2418
1216 2877
1216 2918
1216 2965
1216 3067
1216 3119
1216 3241
1216 3360
1216 3399
1216 3702
1216 4117
1216 4280
1216 4430
1216 4646
1216 4969
1217 1306
1217 1662
1217 1711
1217 1850
1217 2371
1217 2494
1217 2982
1217 3104
1217 3295
1217 3301
1217 3465
1217 4774
1218 1726
1218 1812
1218 1983
1218 2000
1218 2426
1218 2648
1218 2756
1218 2867
1218 2994
1218 3030
1218 3271
1218 3279
1218 3320
1218 3743
1218 3857
1218 3929
1218 3968
1218 4012
1218 4148
1218 4160
1218 4192
1218 4445
1218 4518
1218 4553
1219 1375
1219 1499
1219 1803
1219 2189
1219 2210
1219 2247
1219 2535
1219 2678
1219 2875
1219 2984
1219 3274
1219 3433
1219 3567
1219 3607
1219 4061
1219 4563
1219 4736
1219 4879
1219 4886
1219 4968
1220 1231
1220 1381
1220 1479
1220 1638
1220 1697
1220 1792
1220 1912
1220 1982
1220 2012
1220 2549
1220 2633
1220 2978
1220 3975
1220 4902
1221 1302
1221 1621
1221 2267
1221 2346
1221 2725
1221 3130
1221 3267
1221 3503
1221 4513
1221 4961
1222 1248
1222 1359
1222 1450
1222 1541
1222 1576
1222 1763
1222 1911
1222 1934
1222 2355
1222 2382
1222 2408
1222 2574
1222 2629
1222 2655
1222 2808
1222 2816
1222 2865
1222 2926
1222 3070
1222 3156
1222 3377
1222 3384
1222 3416
1222 3564
1222 3642
1222 3679
1222 3890
1222 3977
1222 4089
1222 4122
1222 4355
1222 4436
1222 4485
1222 4490
1222 4498
1222 4634
1222 4652
1222 4829
1222 4965
1223 1967
1223 2003
1223 2436
1223 2438
1223 2876
1223 2892
1223 4020
1223 4099
1223 4199
1223 4882
1224 1235
1224 1414
1224 1755
1224 1845
1224 2073
1224 2182
1224 2334
1224 2414
1224 2557
1224 2614
1224 2660
1224 2910
1224 3135
1224 3566
1224 3751
1224 3778
1224 4081
1224 4417
1224 4428
1224 4664
1224 4814
1225 1342
1225 1374
1225 1512
1225 1662
1225 2148
1225 2271
1225 2360
1225 2415
1225 2874
1225 3091
1225 3321
1225 3588
1225 3621
1225 3668
1225 3789
1225 3846
1225 3931
1225 4009
1225 4107
1225 4126
1225 4216
1225 4323
1225 4563
1226 1891
1226 1931
1226 1965
1226 2146
1226 2213
1226 2319
1226 2342
1226 2727
1226 2891
1226 3220
1226 3360
1226 3540
1226 3555
1226 3693
1226 3739
1226 3789
1226 3803
1226 4048
1226 4052
1226 4108
1226 4374
1226 4923
1227 1293
1227 1341
1227 1674
1227 1677
1227 1717
1227 1778
1227 2113
1227 2275
1227 2423
1227 2561
1227 2788
1227 3140
1227 3354
1227 3563
1227 3826
1227 4172
1227 4175
1227 4317
1227 4361
1227 4390
1227 4449
1227 4578
1227 4598
1227 4603
1227 4647
1227 4756
1227 4850
1227 4870
1228 2001
1228 2170
1228 2276
1228 2307
1228 2431
1228 2487
1228 2529
1228 2669
1228 2894
1228 3266
1228 3459
1228 4073
1228 4273
1228 4496
1228 4820
1229 1277
1229 1377
1229 2002
1229 2049
1229 2067
1229 2337
1229 2484
1229 2643
1229 3024
1229 3392
1229 3766
1229 4112
1229 4488
1229 4767
1229 4779
1230 1495
1230 2027
1230 2199
1230 2270
1230 2610
1230 2901
1230 3083
1230 3488
1230 3573
1230 3751
1230 4583
1230 4588
1230 4611
1230 4724
1230 4858
1231 1314
1231 1406
1231 1446
1231 1510
1231 1552
1231 1682
1231 1771
1231 2125
1231 2165
1231 2203
1231 2238
1231 2284
1231 2459
1231 2730
1231 2839
1231 2962
1231 3010
1231 3058
1231 3139
1231 3233
1231 3239
1231 3272
1231 3740
1231 3964
1231 4059
1231 4443
1231 4946
1232 1316
1232 1625
1232 2073
1232 2235
1232 2553
1232 2590
1232 2731
1232 3043
1232 3582
1232 3659
1232 4167
1232 4580
1233 1320
1233 1761
1233 1782
1233 2269
1233 2752
1233 3103
1233 3113
1233 3134
1233 3429
1233 3506
1233 3770
1233 3819
1233 4077
1233 4131
1233 4297
1233 4366
1233 4439
1233 4563
1233 4590
1233 4760
1233 4790
1233 4795
1233 4839
1233 4872
1233 4951
1234 1255
1234 1312
1234 1957
1234 2164
1234 2444
1234 2477
1234 2549
1234 2665
1234 2681
1234 3002
1234 3518
1234 3964
1234 4224
1234 4382
1234 4482
1235 1448
1235 1573
1235 1891
1235 1931
1235 2083
1235 2125
1235 2239
1235 2349
1235 3167
1235 3196
1235 3322
1235 3624
1235 4089
1235 4150
1235 4270
1235 4438
1235 4710
1235 4979
1235 4983
1236 1253
1236 1506
1236 2276
1236 2350
1236 2389
1236 2415
1236 2510
1236 2634
1236 2861
1236 3235
1236 3355
1236 3428
1236 3485
1236 4143
1236 4242
1236 4449
1236 4578
1236 4584
1236 4821
1237 1421
1237 1922
1237 2148
1237 2320
1237 2391
1237 2725
1237 2979
1237 3304
1237 3456
1237 3661
1237 3800
1237 3914
1237 4228
1237 4507
1237 4853
1238 1252
1238 1409
1238 1468
1238 1484
1238 1686
1238 1746
1238 2012
1238 2054
1238 2069
1238 2072
1238 2560
1238 3067
1238 3091
1238 3124
1238 3178
1238 3246
1238 3250
1238 3417
1238 3442
1238 3477
1238 3528
1238 3682
1238 3689
1238 4026
1238 4035
1238 4252
1238 4299
1238 4303
1238 4540
1238 4549
1238 4553
1238 4619
1238 4647
1238 4720
1238 4735
1238 4918
1239 1754
1239 1892
1239 2153
1239 2201
1239 2408
1239 3137
1239 3192
1239 3719
1239 4242
1239 4907
1240 1451
1240 2157
1240 2565
1240 2572
1240 3082
1240 3335
1240 3407
1240 3555
1240 3608
1240 3835
1240 4646
1240 4687
1240 4874
1241 1624
1241 1775
1241 1953
1241 2467
1241 2769
1241 2822
1241 2847
1241 3113
1241 3824
1241 3851
1241 3864
1241 3922
1241 4439
1241 4490
1241 4771
1241 4781
1241 4785
1241 4817
1241 4850
1241 4892
1241 4952
1242 1740
1242 2217
1242 2298
1242 2315
1242 2394
1242 2609
1242 2787
1242 3151
1242 3172
1242 3360
1242 3462
1242 3496
1242 4089
1242 4198
1242 4288
1242 4931
1243 1572
1243 1680
1243 1722
1243 1765
1243 1806
1243 2387
1243 2540
1243 2957
1243 3352
1243 4244
1244 1436
1244 1779
1244 1952
1244 2183
1244 2275
1244 3441
1244 3628
1244 3762
1244 3789
1244 4035
1244 4293
1244 4664
1244 4937
1245 1297
1245 1588
1245 1666
1245 1680
1245 2021
1245 2434
1245 2532
1245 2665
1245 2905
1245 2933
1245 3019
1245 3325
1245 4125
1245 4415
1246 1341
1246 1399
1246 1413
1246 1612
1246 1722
1246 2152
1246 2167
1246 2376
1246 2447
1246 2493
1246 2541
1246 2555
1246 2765
1246 3027
1246 3152
1246 3198
1246 3995
1246 4436
1246 4893
1247 1399
1247 1448
1247 1602
1247 1639
1247 1781
1247 2060
1247 2066
1247 2158
1247 2349
1247 2365
1247 2676
1247 2990
1247 3537
1247 3618
1247 4048
1247 4542
1247 4602
1247 4721
1247 4736
1247 4847
1247 4987
1248 1268
1248 1274
1248 1296
1248 1430
1248 1470
1248 1471
1248 1543
1248 1608
1248 1664
1248 1680
1248 1709
1248 1723
1248 1747
1248 1752
1248 2085
1248 2120
1248 2159
1248 2189
1248 2236
1248 2243
1248 2312
1248 2320
1248 2429
1248 2439
1248 2609
1248 2638
1248 2833
1248 3077
1248 3083
1248 3122
1248 3206
1248 3230
1248 3443
1248 3444
1248 3448
1248 3634
1248 3919
1248 4018
1248 4187
1248 4200
1248 4229
1248 4239
1248 4294
1248 4392
1248 4421
1248 4436
1248 4567
1248 4572
1248 4650
1248 4670
1248 4739
1248 4770
1248 4789
1248 4842
1248 4970
1248 4989
1249 1472
1249 1577
1249 1931
1249 1967
1249 2353
1249 2368
1249 2388
1249 2650
1249 2746
1249 2891
1249 2894
1249 3079
1249 3296
1249 3529
1249 3548
1249 3598
1249 3958
1249 4091
1249 4119
1249 4664
1249 4853
1249 4886
1249 4941
1250 1276
1250 1379
1250 1631
1250 1664
1250 1690
1250 2363
1250 2375
1250 2445
1250 2467
1250 2743
1250 3043
1250 3109
1250 3322
1250 3334
1250 3672
1250 3777
1250 3870
1250 4000
1250 4016
1250 4029
1250 4057
1250 4093
1250 4181
1250 4260
1250 4266
1250 4391
1250 4403
1250 4572
1250 4677
1250 4687
1250 4827
1251 2143
1251 2293
1251 2821
1251 3170
1251 3252
1251 3515
1251 3669
1251 4272
1251 4507
1251 4508
1251 4762
1251 4769
1251 4793
1252 1498
1252 2206
1252 2260
1252 2281
1252 2371
1252 2386
1252 2859
1252 3191
1252 3208
1252 3509
1252 3756
1252 4109
1252 4377
1252 4805
1253 1904
1253 2306
1253 2344
1253 2417
1253 2567
1253 3054
1253 3256
1253 3454
1253 3540
1253 3911
1253 4108
1253 4269
1253 4317
1253 4361
1253 4543
1253 4732
1253 4984
1254 1594
1254 1700
1254 1893
1254 2720
1254 3414
1254 4213
1254 4642
1254 4859
1255 1345
1255 1858
1255 2068
1255 2073
1255 2284
1255 2467
1255 2567
1255 2797
1255 3020
1255 3130
1255 3364
1255 3596
1255 3848
1255 3969
1255 4048
1255 4140
1255 4410
1255 4559
1255 4800
1255 4970
1256 1569
1256 2906
1256 2911
1256 2994
1256 3154
1256 4086
1256 4194
1256 4559
1257 2736
1257 2745
1257 3528
1257 3905
1257 3980
1257 4047
1257 4104
1257 4241
1257 4661
1257 4702
1258 1379
1258 1437
1258 1539
1258 1578
1258 1823
1258 2440
1258 2450
1258 2458
1258 2683
1258 2807
1258 3055
1258 3089
1258 3264
1258 3412
1258 3727
1258 3919
1258 3962
1258 4388
1258 4825
1259 1398
1259 1565
1259 2049
1259 2091
1259 2331
1259 2396
1259 2542
1259 3086
1259 3090
1259 3212
1259 3336
1259 3355
1259 3862
1259 4123
1259 4209
1259 4323
1259 4412
1259 4550
1259 4616
1260 1363
1260 1545
1260 1547
1260 1636
1260 2080
1260 2095
1260 2306
1260 2396
1260 2913
1260 3336
1260 3783
1261 1474
1261 1528
1261 1812
1261 1940
1261 1993
1261 2099
1261 2204
1261 2283
1261 2377
1261 2803
1261 2953
1261 3012
1261 3024
1261 3038
1261 3212
1261 3260
1261 3318
1261 3418
1261 3442
1261 3714
1261 3785
1261 3986
1261 4014
1261 4066
1261 4087
1261 4186
1261 4197
1261 4216
1261 4401
1261 4429
1261 4554
1261 4664
1261 4698
1262 1474
1262 1841
1262 2471
1262 2473
1262 2949
1262 3481
1262 3756
1262 4043
1262 4050
1262 4186
1262 4478
1262 4691
1263 1471
1263 1837
1263 1841
1263 2038
1263 2267
1263 2662
1263 2986
1263 3002
1263 3394
1263 4067
1263 4461
1263 4697
1263 4717
1263 4806
1264 1740
1264 1817
1264 1960
1264 2294
1264 2510
1264 2513
1264 2585
1264 2595
1264 2653
1264 2997
1264 3654
1264 4142
1264 4145
1265 1857
1265 1996
1265 2146
1265 2151
1265 2633
1265 2677
1265 2748
1265 2836
1265 2890
1265 2974
1265 3903
1265 3952
1265 3971
1265 4019
1265 4064
1265 4284
1265 4656
1265 4923
1265 4961
1265 4997
1266 1601
1266 1956
1266 2435
1266 2590
1266 3115
1266 3261
1266 3807
1266 4510
1266 4704
1266 4783
1266 4845
1267 1364
1267 1402
1267 1508
1267 2531
1267 2687
1267 3117
1267 3253
1267 3386
1267 3544
1267 3732
1267 4227
1267 4480
1267 4690
1267 4697
1267 4776
1267 4936
1268 1557
1268 2117
1268 2251
1268 2832
1268 2853
1268 3670
1268 3762
1268 3772
1268 3851
1268 4003
1268 4049
1268 4370
1268 4421
1268 4428
1268 4588
1268 4771
1269 1278
1269 1301
1269 1341
1269 1389
1269 1724
1269 2058
1269 2110
1269 2281
1269 2310
1269 2364
1269 2435
1269 2444
1269 2524
1269 2895
1269 2925
1269 3467
1269 3563
1269 3867
1269 4017
1269 4084
1269 4194
1269 4288
1269 4369
1269 4451
1270 1345
1270 1545
1270 1672
1270 1723
1270 1768
1270 1951
1270 2027
1270 2096
1270 2098
1270 2121
1270 2236
1270 2269
1270 2355
1270 2453
1270 2490
1270 2851
1270 2913
1270 3030
1270 3048
1270 3067
1270 3081
1270 3246
1270 3288
1270 3292
1270 3344
1270 3538
1270 3707
1270 3996
1270 4120
1270 4123
1270 4132
1270 4186
1270 4385
1270 4430
1270 4547
1270 4559
1270 4778
1270 4829
1270 4831
1270 4946
1270 4988
1271 1440
1271 1751
1271 2062
1271 2431
1271 3540
1271 3709
1271 3787
1271 3916
1271 4480
1271 4482
1272 1323
1272 1353
1272 1372
1272 1374
1272 1628
1272 1644
1272 1796
1272 2074
1272 2564
1272 2621
1272 2650
1272 3243
1272 3392
1272 3668
1272 3898
1272 4614
1273 1329
1273 2382
1273 2490
1273 2886
1273 2932
1273 3175
1273 3496
1273 3504
1273 3615
1273 3640
1273 4172
1273 4428
1274 1509
1274 2069
1274 2102
1274 2534
1274 2802
1274 3083
1274 3192
1274 4144
1274 4335
1274 4369
1274 4407
1275 1322
1275 1413
1275 1526
1275 1931
1275 1954
1275 1969
1275 3147
1275 3167
1275 3603
1275 3971
1275 4160
1275 4325
1275 4487
1275 4632
1276 1300
1276 1338
1276 1514
1276 2023
1276 2031
1276 2072
1276 2171
1276 2207
1276 2384
1276 2620
1276 2642
1276 2676
1276 2757
1276 2887
1276 2932
1276 2941
1276 2957
1276 3078
1276 3101
1276 3133
1276 3173
1276 3204
1276 3266
1276 3294
1276 3400
1276 3519
1276 3870
1276 3885
1276 3918
1276 4007
1276 4278
1276 4292
1276 4395
1276 4574
1276 4702
1276 4827
1276 4849
1276 4898
1277 1335
1277 1387
1277 1763
1277 1914
1277 1923
1277 2036
1277 2050
1277 2079
1277 2295
1277 2318
1277 2320
1277 2459
1277 3147
1277 3915
1277 4047
1277 4350
1277 4512
1277 4875
1277 4918
1278 1883
1278 2003
1278 2238
1278 2453
1278 2719
1278 3031
1278 3297
1278 3575
1278 3655
1278 3978
1278 4144
1278 4434
1278 4731
1279 1498
1279 1700
1279 1971
1279 1987
1279 2145
1279 2397
1279 2426
1279 2459
1279 2557
1279 2967
1279 3302
1279 3367
1279 3392
1279 3581
1279 3626
1279 3804
1279 4225
1279 4364
1279 4817
1279 4871
1279 4946
1280 1315
1280 1388
1280 1794
1280 2504
1280 2624
1280 2626
1280 2679
1280 2761
1280 3118
1280 3313
1280 3395
1280 3459
1280 3488
1280 3810
1280 4390
1280 4435
1280 4675
1280 4735
1281 1504
1281 2010
1281 2392
1281 2603
1281 2706
1281 3230
1281 3537
1281 4365
1281 4408
1281 4433
1281 4551
1281 4815
1282 1298
1282 1365
1282 1486
1282 1631
1282 1952
1282 2401
1282 2624
1282 2671
1282 3335
1282 3398
1282 3609
1282 4434
1282 4521
1282 4561
1283 1644
1283 1953
1283 2819
1283 3043
1283 3104
1283 3206
1283 3417
1283 3542
1283 3588
1283 4344
1283 4417
1283 4546
1284 1712
1284 1870
1284 2101
1284 2116
1284 2130
1284 2180
1284 2742
1284 3183
1284 3216
1284 3285
1284 4084
1284 4560
1284 4850
1285 1320
1285 1342
1285 1404
1285 1429
1285 1935
1285 2231
1285 2392
1285 2598
1285 2874
1285 2961
1285 3299
1285 3727
1285 3800
1285 3850
1285 4236
1285 4800
1286 1374
1286 1421
1286 1530
1286 1592
1286 1794
1286 1820
1286 1897
1286 1905
1286 2452
1286 2863
1286 2913
1286 3237
1286 3277
1286 3406
1286 3436
1286 3461
1286 3540
1286 3800
1286 4122
1286 4126
1286 4338
1286 4510
1286 4536
1286 4776
1287 1354
1287 2343
1287 2736
1287 4080
1287 4320
1287 4696
1287 4763
1288 1897
1288 2222
1288 2328
1288 2513
1288 2515
1288 2611
1288 3814
1288 3991
1288 4026
1288 4266
1288 4689
1289 1716
1289 1795
1289 2455
1289 2642
1289 2691
1289 3368
1289 3369
1289 3388
1289 4194
1289 4204
1289 4290
1289 4570
1289 4953
1290 1406
1290 1605
1290 1618
1290 1726
1290 1790
1290 1803
1290 1941
1290 1982
1290 2127
1290 2271
1290 2306
1290 2309
1290 2379
1290 2393
1290 2855
1290 2862
1290 3100
1290 3102
1290 3150
1290 3191
1290 3195
1290 3244
1290 3371
1290 3489
1290 3858
1290 4030
1290 4482
1290 4494
1290 4542
1290 4570
1290 4578
1290 4756
1291 1341
1291 1656
1291 1695
1291 2104
1291 2113
1291 2196
1291 2364
1291 2709
1291 2721
1291 3186
1291 4175
1291 4302
1291 4395
1291 4732
1291 4906
1291 4935
1292 1362
1292 1388
1292 1619
1292 1702
1292 1799
1292 1831
1292 1992
1292 2363
1292 2721
1292 2726
1292 2816
1292 2832
1292 3007
1292 3030
1292 3038
1292 3043
1292 3099
1292 3101
1292 3163
1292 3462
1292 3495
1292 3659
1292 3762
1292 3775
1292 4021
1292 4109
1292 4198
1292 4254
1292 4317
1292 4418
1292 4671
1292 4774
1292 4956
1293 1341
1293 1500
1293 1862
1293 2119
1293 2423
1293 2451
1293 2540
1293 2761
1293 2804
1293 2870
1293 3199
1293 3248
1293 3525
1293 3583
1293 3729
1293 4164
1293 4181
1293 4651
1293 4654
1293 4660
1293 4906
1294 2010
1294 2250
1294 2276
1294 2464
1294 3156
1294 3923
1294 4156
1294 4269
1294 4465
1294 4610
1294 4992
1295 1380
1295 2072
1295 2099
1295 2110
1295 2471
1295 2624
1295 2694
1295 2882
1295 3192
1295 3441
1295 3611
1295 3796
1295 3904
1295 4045
1295 4210
1295 4261
1295 4377
1295 4439
1295 4472
1295 4478
1295 4660
1296 1470
1296 1721
1296 1931
1296 2908
1296 3393
1296 3452
1296 3503
1296 3572
1296 3696
1296 3737
1296 4164
1296 4367
1296 4479
1296 4612
1296 4725
1296 4902
1296 4907
1297 1338
1297 1502
1297 1573
1297 1578
1297 1650
1297 1705
1297 1739
1297 1821
1297 1840
1297 2013
1297 2044
1297 2134
1297 2195
1297 2264
1297 2318
1297 2445
1297 2487
1297 2489
1297 2581
1297 2652
1297 2812
1297 2868
1297 2946
1297 3076
1297 3165
1297 3243
1297 3763
1297 3774
1297 3824
1297 3840
1297 3843
1297 3898
1297 4158
1297 4189
1297 4519
1297 4652
1297 4659
1297 4738
1297 4751
1297 4775
1297 4812
1298 1498
1298 1636
1298 1703
1298 2561
1298 2786
1298 2963
1298 3056
1298 3112
1298 3237
1298 3480
1298 3574
1298 3782
1298 3924
1298 4199
1298 4598
1298 4887
1299 1483
1299 1589
1299 1765
1299 1889
1299 1895
1299 2276
1299 2302
1299 2551
1299 2865
1299 2987
1299 3072
1299 3121
1299 3499
1299 3588
1299 3738
1299 3914
1299 4033
1299 4059
1299 4108
1299 4112
1299 4244
1299 4246
1299 4293
1299 4851
1299 4872
1299 4991
1300 1371
1300 1425
1300 1495
1300 1572
1300 1573
1300 1706
1300 1729
1300 1799
1300 1920
1300 2050
1300 2093
1300 2487
1300 2643
1300 2780
1300 2821
1300 2944
1300 2949
1300 3175
1300 3193
1300 3363
1300 3375
1300 3397
1300 3428
1300 3465
1300 3513
1300 3585
1300 3700
1300 4109
1300 4142
1300 4144
1300 4193
1300 4258
1300 4324
1300 4511
1300 4537
1300 4555
1300 4653
1300 4675
1300 4858
1300 4874
1301 1378
1301 1565
1301 2042
1301 2066
1301 2112
1301 2183
1301 2229
1301 2345
1301 2423
1301 2450
1301 2834
1301 3276
1301 3485
1301 3564
1301 3616
1301 3701
1301 3728
1301 3746
1301 3772
1301 4712
1301 4737
1301 4983
1302 1584
1302 1760
1302 3262
1302 3284
1302 3432
1302 3882
1302 4204
1302 4275
1302 4300
1302 4921
1303 1328
1303 1431
1303 1464
1303 1583
1303 1650
1303 1656
1303 1832
1303 1942
1303 2114
1303 2215
1303 2657
1303 3054
1303 3131
1303 3301
1303 3664
1303 3673
1303 3717
1303 4124
1303 4349
1303 4605
1304 2155
1304 2287
1304 2405
1304 2925
1304 3561
1304 3708
1304 3885
1304 3968
1304 4531
1305 1546
1305 1729
1305 2459
1305 2481
1305 2788
1305 3244
1305 3366
1305 3609
1305 3610
1305 4174
1305 4269
1305 4531
1305 4858
1305 4866
1305 4928
1306 1314
1306 1450
1306 1726
1306 1766
1306 1782
1306 2206
1306 2366
1306 2478
1306 2800
1306 3272
1306 3594
1306 3893
1306 4066
1306 4068
1306 4362
1306 4521
1306 4881
1307 1338
1307 1388
1307 1390
1307 1437
1307 1570
1307 2514
1307 2553
1307 2643
1307 2793
1307 2937
1307 3351
1307 3558
1307 3572
1307 3587
1307 3746
1307 3809
1307 3905
1307 3943
1307 4231
1307 4304
1307 4415
1307 4522
1307 4709
1308 1666
1308 2393
1308 2853
1308 3477
1308 4186
1308 4291
1308 4321
1308 4422
1308 4501
1309 1325
1309 1398
1309 1433
1309 1456
1309 1470
1309 1620
1309 1742
1309 1789
1309 2042
1309 2149
1309 2457
1309 2519
1309 2537
1309 2820
1309 3039
1309 4019
1309 4158
1309 4230
1309 4390
1309 4579
1309 4653
1309 4828
1309 4946
1309 4962
1310 1369
1310 1583
1310 1712
1310 2603
1310 2785
1310 3111
1310 3923
1310 4872
1310 4909
1311 1454
1311 2184
1311 2191
1311 2281
1311 2294
1311 2461
1311 2554
1311 2739
1311 2943
1311 3147
1311 3483
1311 3540
1311 3954
1312 1558
1312 1997
1312 2438
1312 3008
1312 3191
1312 3225
1312 3238
1312 3597
1312 3999
1312 4084
1312 4242
1313 1323
1313 1443
1313 1482
1313 1773
1313 2104
1313 2108
1313 2604
1313 2912
1313 2913
1313 2914
1313 3285
1313 3632
1313 4103
1313 4144
1314 1642
1314 2203
1314 2471
1314 2699
1314 3233
1314 3256
1314 3539
1314 3609
1314 4254
1314 4293
1315 1663
1315 2030
1315 2096
1315 2787
1315 3612
1315 4002
1315 4380
1315 4595
1315 4702
1315 4731
1316 1320
1316 1332
1316 1570
1316 1581
1316 1984
1316 2036
1316 2114
1316 2159
1316 2204
1316 2205
1316 2217
1316 2273
1316 2297
1316 2543
1316 2596
1316 2733
1316 2735
1316 2954
1316 3024
1316 3090
1316 3173
1316 3212
1316 3355
1316 3418
1316 3420
1316 3741
1316 4217
1316 4582
1316 4709
1316 4843
1317 1327
1317 1764
1317 2086
1317 2352
1317 2478
1317 2630
1317 2980
1317 3378
1317 3784
1317 4642
1317 4717
1318 1636
1318 2003
1318 2252
1318 2387
1318 2395
1318 2414
1318 2566
1318 2916
1318 2954
1318 3220
1318 3244
1318 3255
1318 3564
1318 3571
1318 3693
1318 4097
1318 4108
1318 4142
1318 4188
1318 4348
1318 4470
1318 4903
1319 1511
1319 1738
1319 2413
1319 2604
1319 2641
1319 2940
1319 3134
1319 3535
1319 3586
1319 3728
1319 3818
1319 4076
1319 4919
1320 1421
1320 1573
1320 2385
1320 2468
1320 2999
1320 3015
1320 3097
1320 3800
1320 3852
1320 3888
1320 4036
1320 4409
1320 4541
1320 4748
1320 4832
1321 1338
1321 1524
1321 1867
1321 1954
1321 3387
1321 3581
1321 3677
1321 3700
1321 3906
1321 4480
1321 4660
1321 4905
1321 4922
1322 1414
1322 1502
1322 1572
1322 1923
1322 2077
1322 2429
1322 2525
1322 2799
1322 2854
1322 2887
1322 2899
1322 2927
1322 3101
1322 3141
1322 3299
1322 3311
1322 3332
1322 3360
1322 3388
1322 3434
1322 3437
1322 3518
1322 3521
1322 3636
1322 3805
1322 4010
1322 4133
1322 4134
1322 4157
1322 4210
1322 4215
1322 4258
1322 4326
1322 4347
1322 4500
1322 4554
1322 4710
1322 4752
1322 4810
1322 4959
1323 1563
1323 1935
1323 1980
1323 2204
1323 2544
1323 2550
1323 2943
1323 3197
1323 3521
1323 3714
1323 3762
1323 3919
1323 3937
1323 4006
1323 4062
1323 4157
1323 4905
1324 1527
1324 2268
1324 2406
1324 2739
1324 3280
1324 3716
1324 3823
1324 4031
1324 4102
1325 1931
1325 2148
1325 2180
1325 2281
1325 2669
1325 3275
1325 3338
1325 3405
1325 3539
1325 3806
1325 4034
1325 4111
1325 4250
1325 4417
1325 4934
1326 1909
1326 2034
1326 2276
1326 2297
1326 2445
1326 2957
1326 2999
1326 3134
1326 3159
1326 3231
1326 3621
1326 3877
1326 4782
1326 4902
1326 4912
1327 1336
1327 1367
1327 1702
1327 1984
1327 2143
1327 2232
1327 2332
1327 2493
1327 2986
1327 3189
1327 3190
1327 3262
1327 3345
1327 3402
1327 3483
1327 3608
1327 3952
1327 4036
1327 4111
1327 4304
1327 4445
1327 4527
1327 4712
1327 4736
1327 4834
1327 4913
1328 1820
1328 2231
1328 2514
1328 2554
1328 3100
1328 3546
1328 4140
1328 4319
1328 4905
1328 4926
1329 1902
1329 2208
1329 2429
1329 2725
1329 2967
1329 3395
1329 3462
1329 3693
1329 3791
1329 4190
1329 4349
1329 4450
1329 4473
1329 4655
1329 4819
1329 4843
1329 4895
1330 1332
1330 1547
1330 1747
1330 2073
1330 2312
1330 2328
1330 2404
1330 2671
1330 2912
1330 2968
1330 3054
1330 3167
1330 4806
1331 1732
1331 1884
1331 2398
1331 2423
1331 2859
1331 3688
1331 3875
1331 4447
1331 4649
1331 4950
1331 4980
1332 1654
1332 1679
1332 1943
1332 2016
1332 2304
1332 2359
1332 2594
1332 2994
1332 3012
1332 3335
1332 3519
1332 3540
1332 3765
1332 3998
1332 4339
1332 4457
1333 1517
1333 1553
1333 1751
1333 2049
1333 2128
1333 2367
1333 2934
1333 3921
1333 3933
1333 4450
1334 2358
1334 2425
1334 2443
1334 2570
1334 3147
1334 3485
1334 3769
1334 4181
1334 4433
1334 4578
1335 2196
1335 2731
1335 2896
1335 2986
1335 3159
1335 3226
1335 3457
1335 3476
1335 4124
1335 4161
1335 4428
1336 1469
1336 1777
1336 1882
1336 1954
1336 3201
1336 3830
1336 3853
1336 4696
1337 1834
1337 1865
1337 1895
1337 2107
1337 2194
1337 2403
1337 2414
1337 2996
1337 3028
1337 3072
1337 3187
1337 3202
1337 3370
1337 3758
1337 3844
1337 4008
1337 4064
1337 4249
1337 4252
1338 1943
1338 2385
1338 2395
1338 2999
1338 3092
1338 3473
1338 3583
1338 3885
1338 4023
1338 4442
1338 4647
1338 4858
1339 1383
1339 1476
1339 1504
1339 1621
1339 1997
1339 2173
1339 2176
1339 2328
1339 2590
1339 2697
1339 2837
1339 4178
1339 4417
1339 4521
1340 1387
1340 1684
1340 1900
1340 2054
1340 2192
1340 2515
1340 2662
1340 2953
1340 3292
1340 3490
1340 3703
1340 3785
1340 4019
1340 4131
1340 4298
1340 4468
1340 4551
1340 4690
1340 4839
1341 1343
1341 1346
1341 1362
1341 1387
1341 1400
1341 1411
1341 1415
1341 1432
1341 1506
1341 1535
1341 1722
1341 1761
1341 1800
1341 1947
1341 1974
1341 2050
1341 2060
1341 2072
1341 2131
1341 2230
1341 2281
1341 2495
1341 2674
1341 2748
1341 2818
1341 3166
1341 3199
1341 3354
1341 3434
1341 3436
1341 3454
1341 3564
1341 3774
1341 3815
1341 3824
1341 3869
1341 4022
1341 4026
1341 4090
1341 4143
1341 4181
1341 4250
1341 4369
1341 4455
1341 4522
1341 4566
1341 4569
1341 4626
1341 4633
1341 4647
1342 1407
1342 1453
1342 1642
1342 1833
1342 1917
1342 2339
1342 2341
1342 2494
1342 2608
1342 2614
1342 2638
1342 2745
1342 2750
1342 2768
1342 2787
1342 2932
1342 3200
1342 3216
1342 3241
1342 3256
1342 3271
1342 3281
1342 3504
1342 3520
1342 3540
1342 3689
1342 3723
1342 3729
1342 3749
1342 3752
1342 3865
1342 3890
1342 3954
1342 4111
1342 4192
1342 4193
1342 4297
1342 4304
1342 4315
1342 4386
1342 4436
1342 4489
1342 4512
1342 4615
1342 4681
1342 4688
1343 1788
1343 1806
1343 1891
1343 1956
1343 2319
1343 2466
1343 2511
1343 2697
1343 2967
1343 3057
1343 3144
1343 3306
1343 3366
1343 3585
1343 3969
1343 4276
1343 4318
1343 4414
1343 4755
1343 4839
1344 2263
1344 2478
1344 2681
1344 2943
1344 3095
1344 3397
1344 3788
1344 4093
1344 4115
1344 4231
1344 4323
1344 4510
1344 4523
1344 4674
1344 4945
1345 1412
1345 1580
1345 1591
1345 1869
1345 1874
1345 2052
1345 2123
1345 2225
1345 2454
1345 2463
1345 2901
1345 2962
1345 3003
1345 3088
1345 3293
1345 3295
1345 3537
1345 3599
1345 3644
1345 3737
1345 3768
1345 3773
1345 3878
1345 3948
1345 4260
1345 4285
1345 4385
1345 4530
1345 4683
1345 4686
1345 4869
1345 4873
1346 1594
1346 1796
1346 2409
1346 2557
1346 2923
1346 3212
1346 3353
1346 3753
1346 3913
1346 4164
1346 4680
1347 1561
1347 1848
1347 2100
1347 2109
1347 2184
1347 2370
1347 2499
1347 2527
1347 2735
1347 3056
1347 3606
1347 3714
1347 4126
1347 4301
1347 4609
1348 1373
1348 1427
1348 1479
1348 1796
1348 1998
1348 2007
1348 2089
1348 2538
1348 3219
1348 3372
1348 3837
1348 3850
1348 3899
1348 3928
1348 4153
1348 4359
1348 4653
1348 4889
1348 4929
1349 1755
1349 2068
1349 2347
1349 2459
1349 2562
1349 2788
1349 2810
1349 2961
1349 3086
1349 3439
1349 3583
1349 4093
1349 4233
1349 4595
1349 4732
1349 4754
1350 1390
1350 1494
1350 1540
1350 1575
1350 1635
1350 1692
1350 2038
1350 2312
1350 2327
1350 2346
1350 2437
1350 2450
1350 3279
1350 3423
1350 3549
1350 3756
1350 3808
1350 4206
1350 4397
1350 4718
1350 4740
1350 4838
1350 4963
1351 1576
1351 1588
1351 1643
1351 1906
1351 2208
1351 2375
1351 2450
1351 2634
1351 2724
1351 2777
1351 2838
1351 2928
1351 3223
1351 3248
1351 3507
1351 3707
1351 3962
1351 3981
1351 4010
1351 4177
1351 4186
1351 4199
1351 4264
1351 4416
1351 4424
1351 4454
1351 4488
1351 4688
1351 4784
1351 4898
1351 4976
1352 1836
1352 2125
1352 2683
1352 2805
1352 2810
1352 3243
1352 3422
1352 3511
1352 3625
1352 4237
1352 4695
1352 4820
1352 4856
1353 1875
1353 2003
1353 2100
1353 2456
1353 2494
1353 2700
1353 3011
1353 3116
1353 3196
1353 3562
1353 4465
1353 4554
1353 4920
1354 1835
1354 1836
1354 1849
1354 1911
1354 1935
1354 1936
1354 2037
1354 2061
1354 2070
1354 2258
1354 2325
1354 2330
1354 2375
1354 2569
1354 2601
1354 2677
1354 2963
1354 3142
1354 3154
1354 3157
1354 3200
1354 3245
1354 3260
1354 3389
1354 3421
1354 3486
1354 3694
1354 3777
1354 3810
1354 3897
1354 3918
1354 4040
1354 4530
1354 4658
1354 4662
1354 4762
1354 4798
1354 4908
1354 4912
1355 1533
1355 1615
1355 1819
1355 2024
1355 2121
1355 2142
1355 2462
1355 2523
1355 2677
1355 3192
1355 3253
1355 3823
1355 4233
1355 4416
1355 4761
1355 4934
1356 1445
1356 1468
1356 1871
1356 2250
1356 2473
1356 2677
1356 2979
1356 3450
1356 3572
1356 3720
1356 3812
1356 4607
1356 4619
1356 4681
1356 4901
1357 1605
1357 1766
1357 1800
1357 2074
1357 2125
1357 2322
1357 2591
1357 2653
1357 2748
1357 3048
1357 3117
1357 3141
1357 3147
1357 4746
1358 1957
1358 2181
1358 2358
1358 2806
1358 3120
1358 3158
1358 3163
1358 3602
1358 3824
1358 4969
1358 4978
1359 1436
1359 1709
1359 1720
1359 2091
1359 2416
1359 3002
1359 3222
1359 3408
1359 4349
1359 4378
1359 4405
1359 4802
1360 1540
1360 1681
1360 1709
1360 1716
1360 3097
1360 3573
1360 3618
1360 3733
1360 3925
1360 3995
1360 4142
1360 4185
1360 4278
1360 4506
1360 4599
1361 1549
1361 1654
1361 1868
1361 1892
1361 2334
1361 2489
1361 2535
1361 2768
1361 2797
1361 3002
1361 3032
1361 3125
1361 3385
1361 3442
1361 3810
1361 3828
1361 3863
1361 4150
1361 4220
1361 4319
1361 4559
1361 4619
1361 4670
1362 1644
1362 1793
1362 1855
1362 1972
1362 2043
1362 2073
1362 2255
1362 2318
1362 2370
1362 2975
1362 3289
1362 3298
1362 3635
1362 3697
1362 3942
1362 3968
1362 4044
1362 4070
1362 4872
1362 4962
1363 1543
1363 1586
1363 1637
1363 1897
1363 1959
1363 1981
1363 2246
1363 2387
1363 2503
1363 2585
1363 2635
1363 3178
1363 3319
1363 3323
1363 3821
1363 3891
1363 3928
1363 3948
1363 4071
1363 4171
1363 4279
1363 4321
1363 4359
1363 4364
1363 4561
1363 4569
1363 4859
1363 4981
1363 4989
1364 1452
1364 1597
1364 1631
1364 1725
1364 1774
1364 1825
1364 1979
1364 2280
1364 2466
1364 2625
1364 2948
1364 3076
1364 3517
1364 3722
1364 3799
1364 3885
1364 3986
1364 4352
1364 4425
1364 4711
1365 1417
1365 1665
1365 1768
1365 1805
1365 2187
1365 2544
1365 2546
1365 3474
1365 4107
1365 4259
1365 4328
1365 4514
1365 4573
1366 1404
1366 1516
1366 1671
1366 2314
1366 2387
1366 2949
1366 2992
1366 3232
1366 3757
1366 4006
1366 4559
1367 1401
1367 1503
1367 2637
1367 2646
1367 2822
1367 2829
1367 3004
1367 3420
1367 3903
1367 4737
1367 4875
1368 1823
1368 2103
1368 2110
1368 2960
1368 3027
1368 3061
1368 3116
1368 3341
1368 3451
1368 4581
1368 4606
1368 4661
1368 4769
1368 4951
1369 1647
1369 1783
1369 1798
1369 2016
1369 2462
1369 2516
1369 2832
1369 3063
1369 3349
1369 3443
1369 3499
1369 3944
1369 4073
1369 4131
1369 4287
1369 4345
1369 4354
1369 4406
1369 4500
1370 1674
1370 2011
1370 2199
1370 2210
1370 2286
1370 3147
1370 3244
1370 3351
1370 4232
1370 4411
1370 4478
1370 4858
1370 4866
1370 4877
1370 4953
1371 1563
1371 2286
1371 2322
1371 2915
1371 3017
1371 3353
1371 3503
1371 3749
1371 4149
1371 4560
1371 4858
1372 1490
1372 1573
1372 2002
1372 2015
1372 2058
1372 2204
1372 2413
1372 2661
1372 3714
1372 4078
1372 4136
1372 4328
1372 4708
1373 1375
1373 1518
1373 1520
1373 1764
1373 1820
1373 1972
1373 1973
1373 2281
1373 2620
1373 2629
1373 2818
1373 3359
1373 3445
1373 3631
1373 3717
1373 3882
1373 4083
1373 4169
1373 4266
1373 4447
1373 4660
1374 1421
1374 1463
1374 1499
1374 1528
1374 1665
1374 1676
1374 1700
1374 1761
1374 1951
1374 1992
1374 2216
1374 2328
1374 2348
1374 2360
1374 2398
1374 2552
1374 2655
1374 2885
1374 2949
1374 3093
1374 3205
1374 3299
1374 3468
1374 3524
1374 3598
1374 3622
1374 3747
1374 3800
1374 3897
1374 3904
1374 4056
1374 4146
1374 4306
1374 4333
1374 4340
1374 4389
1374 4692
1374 4785
1374 4875
1375 1410
1375 1571
1375 1798
1375 1965
1375 2062
1375 2086
1375 2105
1375 2132
1375 2154
1375 2183
1375 2663
1375 2746
1375 2832
1375 3009
1375 3296
1375 3567
1375 3635
1375 3762
1375 3818
1375 4371
1375 4520
1375 4581
1375 4717
1375 4861
1375 4924
1376 1419
1376 2151
1376 2642
1376 3489
1376 3667
1376 3713
1376 3846
1376 4269
1376 4542
1376 4628
1376 4711
1376 4884
1377 1469
1377 1547
1377 2106
1377 2256
1377 2527
1377 2672
1377 2695
1377 2749
1377 3603
1377 3687
1377 4197
1377 4216
1377 4969
1378 1688
1378 1739
1378 1906
1378 1958
1378 2228
1378 2516
1378 2680
1378 2855
1378 3198
1378 3278
1378 3303
1378 3369
1378 3371
1378 3400
1378 3430
1378 3489
1378 3567
1378 3651
1378 3866
1378 4107
1378 4164
1378 4366
1378 4395
1378 4415
1378 4494
1378 4754
1378 4759
1378 4808
1379 1541
1379 1911
1379 1940
1379 2240
1379 2958
1379 3558
1379 3626
1379 3638
1379 4138
1379 4375
1379 4482
1380 1610
1380 1816
1380 2064
1380 2399
1380 2488
1380 2659
1380 2814
1380 3057
1380 3353
1380 3874
1380 3964
1380 4095
1380 4229
1380 4309
1380 4875
1381 1422
1381 1638
1381 2094
1381 2115
1381 2540
1381 2543
1381 2898
1381 3026
1381 3074
1381 3106
1381 3394
1381 3492
1381 3890
1381 4257
1381 4727
1381 4789
1381 4881
1382 1404
1382 1535
1382 1924
1382 2523
1382 2590
1382 2767
1382 2956
1382 2985
1382 3309
1382 3506
1382 3664
1382 4019
1382 4486
1382 4588
1382 4857
1383 1728
1383 1748
1383 1794
1383 1901
1383 2266
1383 2771
1383 2825
1383 2871
1383 3315
1383 3380
1383 3415
1383 3836
1383 4009
1383 4721
1383 4875
1383 4900
1384 1524
1384 1666
1384 1729
1384 2052
1384 2157
1384 2594
1384 2906
1384 2916
1384 3534
1384 4187
1384 4193
1384 4244
1384 4374
1384 4449
1384 4680
1384 4705
1385 1451
1385 2395
1385 2535
1385 2543
1385 2965
1385 3359
1385 3416
1385 3556
1385 3587
1385 3842
1385 3940
1385 3983
1385 4247
1385 4728
1385 4951
1386 1475
1386 1479
1386 1637
1386 1889
1386 1893
1386 2026
1386 2049
1386 2082
1386 2450
1386 2527
1386 2546
1386 2852
1386 3132
1386 3247
1386 3314
1386 3318
1386 3324
1386 3358
1386 3579
1386 3740
1386 4140
1386 4323
1386 4874
1386 4930
1386 4973
1387 1974
1387 2318
1387 2367
1387 2969
1387 3388
1387 3543
1387 3776
1387 4470
1388 1689
1388 1724
1388 1808
1388 2342
1388 3022
1388 3251
1388 3328
1388 3596
1388 4097
1388 4482
1388 4531
1388 4666
1389 1430
1389 1538
1389 1556
1389 2677
1389 2785
1389 3065
1389 3081
1389 3204
1389 3369
1389 3911
1389 3916
1389 3950
1389 3951
1389 4673
1389 4840
1389 4994
1390 1398
1390 1417
1390 2284
1390 2318
1390 2438
1390 2459
1390 2555
1390 2582
1390 2916
1390 3001
1390 3253
1390 3323
1390 3377
1390 3448
1390 3510
1390 3919
1390 4129
1390 4232
1390 4598
1390 4712
1390 4736
1390 4761
1390 4815
1390 4847
1390 4926
1390 4955
1391 1706
1391 1731
1391 2006
1391 2029
1391 2032
1391 2164
1391 2411
1391 2494
1391 2519
1391 2739
1391 2746
1391 2855
1391 2856
1391 2988
1391 3011
1391 3028
1391 3137
1391 3211
1391 3266
1391 3388
1391 3436
1391 3592
1391 3607
1391 3637
1391 3825
1391 3922
1391 3930
1391 3940
1391 3953
1391 4028
1391 4101
1391 4204
1391 4211
1391 4281
1391 4446
1391 4495
1391 4678
1391 4685
1391 4730
1391 4868
1391 4984
1392 1413
1392 1910
1392 2042
1392 2148
1392 2501
1392 2568
1392 2834
1392 2908
1392 2975
1392 3231
1392 3326
1392 3896
1392 4068
1392 4233
1392 4733
1392 4942
1393 2179
1393 2351
1393 2671
1393 3253
1393 3518
1393 3579
1393 3636
1393 3805
1393 3938
1393 4115
1393 4180
1393 4215
1393 4336
1393 4394
1393 4710
1393 4964
1394 1625
1394 1676
1394 1690
1394 1979
1394 2271
1394 2363
1394 2432
1394 2726
1394 2996
1394 3301
1394 3543
1394 4119
1394 4323
1394 4743
1394 4781
1395 1527
1395 1598
1395 1737
1395 2348
1395 2537
1395 2563
1395 3095
1395 3298
1395 3456
1395 3588
1395 3795
1395 4063
1395 4167
1395 4449
1395 4504
1395 4573
1395 4645
1395 4875
1396 1534
1396 2318
1396 2367
1396 2996
1396 3522
1396 3928
1396 4435
1396 4468
1396 4646
1396 4882
1396 4995
1397 1603
1397 2055
1397 2420
1397 2473
1397 2640
1397 2863
1397 3029
1397 3289
1397 3418
1397 4428
1397 4468
1398 1895
1398 2271
1398 2286
1398 2432
1398 2438
1398 2458
1398 2464
1398 2468
1398 2471
1398 2534
1398 2603
1398 2666
1398 2706
1398 2764
1398 3104
1398 3533
1398 3965
1398 4491
1398 4559
1399 1553
1399 1622
1399 1674
1399 1798
1399 2743
1399 3087
1399 3103
1399 3527
1399 3529
1399 3555
1399 3612
1399 3952
1399 4789
1400 1915
1400 2181
1400 2367
1400 2904
1400 3404
1400 3485
1400 4008
1400 4164
1400 4425
1400 4745
1400 4893
1401 1518
1401 2096
1401 2126
1401 2383
1401 2802
1401 2858
1401 2882
1401 2901
1401 2911
1401 3433
1401 3615
1401 3630
1401 3890
1401 3908
1401 4754
1401 4871
1402 1567
1402 2167
1402 2279
1402 2299
1402 2651
1402 2736
1402 2968
1402 3005
1402 3155
1402 3600
1402 3851
1402 4145
1402 4228
1402 4273
1402 4857
1403 1916
1403 2214
1403 2218
1403 2583
1403 2828
1403 2847
1403 2874
1403 2925
1403 3765
1403 3812
1403 3908
1403 4020
1403 4448
1403 4990
1404 1647
1404 2638
1404 3251
1404 4031
1404 4155
1404 4601
1404 4681
1404 4930
1404 4961
1404 4973
1405 1665
1405 1935
1405 2390
1405 2635
1405 2960
1405 2966
1405 3736
1405 3831
1405 3981
1405 4291
1405 4352
1405 4470
1406 2020
1406 2467
1406 2784
1406 2909
1406 3043
1406 3180
1406 3266
1406 3272
1406 4329
1406 4443
1406 4493
1407 1412
1407 1449
1407 1506
1407 1539
1407 1643
1407 2089
1407 2376
1407 2647
1407 3544
1407 3893
1407 3910
1407 4454
1407 4527
1407 4789
1407 4898
1408 1644
1408 2217
1408 2531
1408 2843
1408 2988
1408 3098
1408 3130
1408 3263
1408 3544
1408 3702
1408 3775
1408 3952
1408 3989
1408 4344
1408 4981
1408 4983
1408 4994
1409 1483
1409 2703
1409 2783
1409 3178
1409 4074
1409 4809
1410 1493
1410 1631
1410 1693
1410 1939
1410 1989
1410 2035
1410 2529
1410 2679
1410 2706
1410 2737
1410 2834
1410 3678
1410 3707
1410 4506
1410 4562
1410 4565
1410 4737
1410 4763
1410 4949
1411 1747
1411 1891
1411 2183
1411 2591
1411 2934
1411 3382
1411 4242
1411 4600
1411 4937
1412 1677
1412 1697
1412 1925
1412 2002
1412 2036
1412 2114
1412 2134
1412 2420
1412 2473
1412 2554
1412 2764
1412 2916
1412 3114
1412 3183
1412 3359
1412 4004
1412 4147
1412 4401
1413 1468
1413 1694
1413 1796
1413 1824
1413 1973
1413 2004
1413 2049
1413 2376
1413 2520
1413 2528
1413 2707
1413 2834
1413 3010
1413 3342
1413 3378
1413 3536
1413 3924
1413 4092
1413 4233
1413 4307
1413 4410
1413 4675
1413 4717
1414 1955
1414 2775
1414 2988
1414 3328
1414 3475
1414 3547
1414 3580
1414 3805
1414 4133
1414 4157
1414 4180
1414 4623
1414 4670
1415 1504
1415 1584
1415 1808
1415 2218
1415 2499
1415 3001
1415 3276
1415 3407
1415 3877
1415 4770
1415 4960
1416 1489
1416 2257
1416 2371
1416 2393
1416 2747
1416 3294
1416 3297
1416 3306
1416 3381
1416 3754
1416 3940
1416 4714
1416 4767
1416 4865
1416 4947
1417 1533
1417 1557
1417 1604
1417 1667
1417 2017
1417 2632
1417 2712
1417 2995
1417 3135
1417 3170
1417 3219
1417 3573
1417 3583
1417 3645
1417 4130
1417 4178
1417 4298
1417 4448
1417 4663
1418 1540
1418 1582
1418 2472
1418 2834
1418 3002
1418 3354
1418 3426
1418 3543
1418 3560
1418 3580
1418 3737
1418 4989
1419 1908
1419 2052
1419 2118
1419 2559
1419 2611
1419 2847
1419 3166
1419 3241
1419 3289
1419 3485
1419 3761
1419 4584
1419 4673
1419 4817
1419 4987
1420 1694
1420 1735
1420 2471
1420 2579
1420 2624
1420 2649
1420 2681
1420 3721
1420 3894
1420 3921
1420 4457
1420 4529
1420 4780
1420 4894
1420 4962
1421 1429
1421 1669
1421 1761
1421 1794
1421 1803
1421 1854
1421 1899
1421 2348
1421 2452
1421 2513
1421 2595
1421 2601
1421 2618
1421 2767
1421 2771
1421 2874
1421 3301
1421 3411
1421 3510
1421 3588
1421 3661
1421 3789
1421 3800
1421 3888
1421 3987
1421 3992
1421 4164
1421 4406
1421 4573
1421 4801
1421 4862
1421 4878
1422 1986
1422 2041
1422 2265
1422 2415
1422 2640
1422 3111
1422 3221
1422 3286
1422 3598
1422 3675
1422 3717
1422 3899
1422 4069
1422 4163
1422 4189
1422 4190
1422 4359
1422 4363
1423 1522
1423 1865
1423 2142
1423 2148
1423 2179
1423 2432
1423 2578
1423 2674
1423 3237
1423 3277
1423 3606
1423 3746
1423 3825
1423 3964
1423 4521
1423 4641
1424 1633
1424 2074
1424 2240
1424 2371
1424 2580
1424 2993
1424 3086
1424 3142
1424 3429
1424 4044
1424 4106
1424 4199
1424 4323
1424 4349
1424 4526
1425 1444
1425 1464
1425 1700
1425 1720
1425 1872
1425 1969
1425 2431
1425 2433
1425 2599
1425 2637
1425 2667
1425 3146
1425 3157
1425 3297
1425 3398
1425 3499
1425 3578
1425 3675
1425 3731
1425 3851
1425 4434
1425 4741
1425 4857
1426 1522
1426 1617
1426 1630
1426 2026
1426 2258
1426 2467
1426 2727
1426 2780
1426 2935
1426 3236
1426 3254
1426 3397
1426 3488
1426 3604
1426 3990
1426 4053
1426 4258
1426 4366
1426 4435
1426 4443
1427 1490
1427 1567
1427 2087
1427 2214
1427 2317
1427 2630
1427 2642
1427 2899
1427 3129
1427 3332
1427 3636
1427 3729
1427 3820
1427 3902
1427 3967
1427 4141
1427 4554
1427 4595
1427 4631
1427 4633
1427 4950
1428 1443
1428 1812
1428 2217
1428 2391
1428 3003
1428 3055
1428 3066
1428 3267
1428 3385
1428 3876
1428 3958
1428 4285
1428 4559
1428 4804
1428 4812
1429 1585
1429 1736
1429 1794
1429 1922
1429 2118
1429 2485
1429 2714
1429 2771
1429 2808
1429 3019
1429 3447
1429 3504
1429 3548
1429 3815
1429 4049
1429 4124
1429 4148
1429 4360
1429 4464
1429 4510
1430 1680
1430 1751
1430 2086
1430 2271
1430 2320
1430 2439
1430 2656
1430 2872
1430 2953
1430 3181
1430 3583
1430 3853
1430 3906
1430 3922
1430 4052
1430 4111
1430 4503
1430 4536
1430 4605
1430 4697
1430 4721
1430 4813
1431 1530
1431 2076
1431 3100
1431 3156
1431 3206
1431 3294
1431 3408
1431 3416
1431 3487
1431 3558
1431 3714
1431 3757
1431 3783
1431 3931
1431 3941
1431 4212
1431 4522
1431 4717
1432 1510
1432 1774
1432 3113
1432 3166
1432 3273
1432 3398
1432 4198
1432 4578
1432 4732
1432 4850
1433 1687
1433 1831
1433 2127
1433 2348
1433 2363
1433 2622
1433 2773
1433 3426
1433 3490
1433 3548
1433 3594
1433 3700
1433 3821
1433 3943
1433 4093
1433 4246
1434 1691
1434 1692
1434 2249
1434 2757
1434 3055
1434 3353
1434 3400
1434 3685
1434 4702
1434 4781
1434 4835
1435 1790
1435 2017
1435 2277
1435 2418
1435 2497
1435 2502
1435 3266
1435 3452
1435 3723
1435 4072
1435 4118
1435 4155
1435 4555
1435 4767
1436 1534
1436 1652
1436 1742
1436 1766
1436 2184
1436 2429
1436 2446
1436 2630
1436 2708
1436 2815
1436 2885
1436 2992
1436 3066
1436 3241
1436 3321
1436 3324
1436 3529
1436 3560
1436 3660
1436 3717
1436 3791
1436 3985
1436 3993
1436 4026
1436 4100
1436 4173
1436 4207
1436 4215
1436 4448
1436 4570
1436 4743
1436 4775
1436 4888
1437 1793
1437 1893
1437 2022
1437 2115
1437 2675
1437 2758
1437 2858
1437 3028
1437 3382
1437 3425
1437 3541
1437 4127
1437 4268
1438 1536
1438 1731
1438 1904
1438 2623
1438 2629
1438 3002
1438 3302
1438 3460
1438 3547
1438 3811
1438 3998
1438 4526
1438 4586
1438 4782
1438 4988
1439 1441
1439 1594
1439 1916
1439 2048
1439 2072
1439 2165
1439 2529
1439 2671
1439 2802
1439 2814
1439 2962
1439 3128
1439 3149
1439 3366
1439 3787
1439 3812
1439 4225
1439 4233
1439 4267
1439 4507
1440 1589
1440 2141
1440 2142
1440 2497
1440 2623
1440 2783
1440 3116
1440 3432
1440 3502
1440 3681
1440 4131
1440 4378
1440 4442
1440 4543
1440 4665
1440 4819
1441 2150
1441 2156
1441 2648
1441 2715
1441 3005
1441 3073
1441 3672
1441 3684
1441 3813
1441 3901
1441 4572
1441 4600
1441 4789
1442 1539
1442 1705
1442 2890
1442 3023
1442 3167
1442 3337
1442 3528
1442 3585
1442 3636
1442 3869
1442 4405
1443 1519
1443 1534
1443 1747
1443 1838
1443 1888
1443 1893
1443 2059
1443 2132
1443 2139
1443 2150
1443 2174
1443 2202
1443 2359
1443 2382
1443 2638
1443 2655
1443 2688
1443 2714
1443 2740
1443 2908
1443 2909
1443 2927
1443 3132
1443 3135
1443 3282
1443 3428
1443 3443
1443 3450
1443 3462
1443 3491
1443 3550
1443 3574
1443 3634
1443 3822
1443 3843
1443 3851
1443 3889
1443 4185
1443 4493
1443 4505
1443 4560
1443 4755
1443 4814
1443 4852
1444 1599
1444 1972
1444 2360
1444 2812
1444 3335
1444 4702
1445 2030
1445 2286
1445 2353
1445 2681
1445 2852
1445 3278
1445 3632
1445 3762
1445 4623
1445 4671
1445 4871
1445 4878
1446 1924
1446 2156
1446 2447
1446 2540
1446 3116
1446 3239
1446 3387
1446 3464
1446 3504
1446 3531
1446 3560
1446 3586
1446 3587
1446 3592
1446 3832
1446 4046
1446 4164
1446 4432
1446 4617
1446 4670
1446 4732
1447 1657
1447 1857
1447 2088
1447 2155
1447 2276
1447 2363
1447 2739
1447 3227
1447 3383
1447 4361
1447 4515
1447 4563
1447 4996
1448 1889
1448 2052
1448 2333
1448 2439
1448 2501
1448 2601
1448 2934
1448 2976
1448 2986
1448 3128
1448 3159
1448 3424
1448 3538
1448 3686
1448 3735
1448 4289
1448 4327
1449 1487
1449 1573
1449 1725
1449 2056
1449 2201
1449 2847
1449 3555
1449 4123
1449 4305
1449 4479
1450 1817
1450 1901
1450 2014
1450 2711
1450 2946
1450 3000
1450 3063
1450 3114
1450 3122
1450 3267
1450 3469
1450 3762
1450 4059
1450 4096
1450 4918
1451 1693
1451 1770
1451 1907
1451 2076
1451 2217
1451 2332
1451 2412
1451 2457
1451 2539
1451 2588
1451 3104
1451 3310
1451 3447
1451 3474
1451 3570
1451 3741
1451 3873
1451 3918
1451 3934
1451 4015
1451 4242
1451 4291
1451 4329
1451 4374
1451 4498
1451 4684
1451 4928
1452 1690
1452 1725
1452 2322
1452 2398
1452 2607
1452 2804
1452 2999
1452 3040
1452 3316
1452 3407
1452 3785
1452 3888
1452 4134
1452 4432
1452 4534
1452 4850
1453 1625
1453 1839
1453 2155
1453 2291
1453 2300
1453 2409
1453 2451
1453 2565
1453 2785
1453 2885
1453 2943
1453 2995
1453 3050
1453 3102
1453 3338
1453 3424
1453 3677
1453 3749
1453 3794
1453 4091
1453 4329
1453 4613
1454 1458
1454 1490
1454 1564
1454 1792
1454 2751
1454 2862
1454 3607
1454 4454
1454 4560
1454 4704
1455 1473
1455 1667
1455 1874
1455 1890
1455 2110
1455 2291
1455 2461
1455 2480
1455 2565
1455 2659
1455 3135
1455 3138
1455 3373
1455 3397
1455 3753
1455 4034
1455 4143
1455 4275
1455 4287
1455 4362
1455 4461
1455 4622
1455 4709
1455 4721
1455 4732
1455 4985
1456 1562
1456 1593
1456 2039
1456 2058
1456 3402
1456 3465
1456 3624
1456 3854
1456 4523
1456 4865
1457 1533
1457 1543
1457 1591
1457 1810
1457 1886
1457 2238
1457 2464
1457 2923
1457 3180
1457 3209
1457 3259
1457 3503
1457 3694
1457 3978
1457 4623
1457 4632
1457 4902
1457 4919
1458 1472
1458 1615
1458 1775
1458 1787
1458 1815
1458 1846
1458 2101
1458 2498
1458 2837
1458 2880
1458 2889
1458 3084
1458 3112
1458 3801
1458 3840
1458 3845
1458 4192
1458 4227
1458 4384
1458 4458
1458 4559
1458 4666
1458 4876
1459 1621
1459 1683
1459 1700
1459 2146
1459 2717
1459 2948
1459 3462
1459 3725
1459 4392
1459 4790
1459 4807
1459 4824
1460 1755
1460 1912
1460 1956
1460 2234
1460 2749
1460 3574
1460 4067
1460 4127
1460 4946
1461 1508
1461 1897
1461 2299
1461 2550
1461 3064
1461 3362
1461 3402
1461 3526
1461 3636
1461 3885
1461 4051
1461 4069
1461 4105
1461 4164
1461 4186
1461 4387
1462 1625
1462 2393
1462 2637
1462 2688
1462 2700
1462 2877
1462 3054
1462 3144
1462 3360
1462 3727
1462 3765
1462 3998
1462 4057
1462 4915
1463 1486
1463 1499
1463 1839
1463 2228
1463 2471
1463 2670
1463 2701
1463 3229
1463 3639
1463 3738
1463 3833
1463 4226
1463 4553
1463 4692
1463 4979
1464 1660
1464 1740
1464 1789
1464 1795
1464 1802
1464 1855
1464 1928
1464 2163
1464 2217
1464 2242
1464 2258
1464 2281
1464 2429
1464 2509
1464 2523
1464 2591
1464 2598
1464 2788
1464 2817
1464 2850
1464 2929
1464 2935
1464 2962
1464 3025
1464 3101
1464 3110
1464 3143
1464 3153
1464 3229
1464 3309
1464 3515
1464 3650
1464 3678
1464 3681
1464 3801
1464 3827
1464 3836
1464 3870
1464 3899
1464 3945
1464 4141
1464 4335
1464 4436
1464 4535
1464 4552
1464 4558
1464 4631
1464 4637
1464 4656
1464 4676
1464 4745
1464 4759
1464 4832
1464 4839
1464 4850
1464 4855
1464 4883
1464 4891
1464 4896
1464 4915
1464 4964
1465 1564
1465 2052
1465 2317
1465 2593
1465 2598
1465 2846
1465 3878
1465 4175
1465 4459
1465 4550
1465 4551
1466 1574
1466 2040
1466 2067
1466 2105
1466 2187
1466 2453
1466 2534
1466 3552
1466 3762
1466 4496
1466 4646
1466 4699
1466 4804
1466 4816
1467 1657
1467 2142
1467 2519
1467 2663
1467 2688
1467 2892
1467 3159
1467 3397
1467 3404
1467 3513
1467 3763
1467 3842
1467 3860
1467 3981
1468 1619
1468 1658
1468 2013
1468 2076
1468 2473
1468 2543
1468 2576
1468 2736
1468 2747
1468 2905
1468 3161
1468 3439
1468 3475
1468 3480
1468 3950
1468 4609
1469 1564
1469 1817
1469 1916
1469 2019
1469 2098
1469 2114
1469 2204
1469 2303
1469 2352
1469 2706
1469 2903
1469 3012
1469 3212
1469 3235
1469 3247
1469 3257
1469 3309
1469 3386
1469 3713
1469 3915
1469 4014
1469 4028
1469 4076
1469 4163
1469 4216
1469 4378
1469 4401
1469 4429
1469 4444
1469 4459
1469 4465
1469 4551
1469 4582
1469 4652
1469 4833
1469 4907
1470 1570
1470 1853
1470 1917
1470 2432
1470 2796
1470 3681
1470 3970
1470 4019
1470 4108
1470 4119
1470 4220
1470 4767
1470 4950
1471 1664
1471 2039
1471 2248
1471 2341
1471 2697
1471 2856
1471 2865
1471 3030
1471 3070
1471 3117
1471 3364
1471 3507
1471 3586
1471 3664
1471 3949
1471 4147
1471 4267
1471 4334
1471 4352
1471 4552
1471 4849
1471 4936
1472 1549
1472 1847
1472 2155
1472 2438
1472 2560
1472 2885
1472 2887
1472 3466
1472 3723
1472 4084
1472 4245
1472 4362
1472 4751
1473 1526
1473 1861
1473 2167
1473 2335
1473 2386
1473 2707
1473 2774
1473 2832
1473 2861
1473 2937
1473 2961
1473 3005
1473 3054
1473 3232
1473 3832
1473 4269
1473 4448
1473 4488
1473 4653
1473 4817
1473 4926
1474 1617
1474 1628
1474 2027
1474 2241
1474 2714
1474 2929
1474 3043
1474 3146
1474 3336
1474 3868
1474 3971
1474 4159
1474 4442
1474 4582
1474 4642
1475 1513
1475 1926
1475 2026
1475 2102
1475 2350
1475 2708
1475 3035
1475 3454
1475 3636
1475 4296
1475 4478
1476 1496
1476 1500
1476 1540
1476 1665
1476 1864
1476 2462
1476 2650
1476 3112
1476 3600
1476 3705
1476 3765
1476 3786
1476 4177
1476 4450
1476 4914
1477 2822
1477 2828
1477 2853
1477 3483
1477 3567
1477 4142
1477 4524
1477 4549
1477 4789
1478 2397
1478 2441
1478 2462
1478 2999
1478 3030
1478 3051
1478 3107
1478 3301
1478 4286
1478 4559
1478 4855
1479 1492
1479 1513
1479 1636
1479 1856
1479 1897
1479 1944
1479 1994
1479 2156
1479 2180
1479 2304
1479 2407
1479 2478
1479 2569
1479 2599
1479 2701
1479 2798
1479 2854
1479 2965
1479 3059
1479 3107
1479 3109
1479 3151
1479 3259
1479 3266
1479 3340
1479 3344
1479 3414
1479 3484
1479 3646
1479 4533
1479 4565
1479 4590
1479 4761
1479 4762
1479 4818
1480 2108
1480 2603
1480 2696
1480 2739
1480 2820
1480 2946
1480 3044
1480 3546
1480 3614
1480 4156
1481 1901
1481 1981
1481 2303
1481 2347
1481 2412
1481 2961
1481 3004
1481 3342
1481 3540
1481 3834
1481 4021
1481 4225
1481 4471
1482 1721
1482 2535
1482 2778
1482 2999
1482 3313
1482 3606
1482 3611
1482 3875
1482 3884
1482 4317
1482 4532
1482 4731
1483 1946
1483 2089
1483 2098
1483 2209
1483 2250
1483 2322
1483 2452
1483 2485
1483 2495
1483 2529
1483 2581
1483 2715
1483 2861
1483 2979
1483 2989
1483 3000
1483 3058
1483 3064
1483 3095
1483 3124
1483 3230
1483 3316
1483 3537
1483 3642
1483 3691
1483 3891
1483 4172
1483 4183
1483 4185
1483 4190
1483 4192
1483 4316
1483 4479
1483 4496
1483 4515
1483 4624
1483 4677
1483 4828
1483 4935
1483 4990
1484 1518
1484 1559
1484 1598
1484 1826
1484 1891
1484 2322
1484 3072
1484 3134
1484 3399
1484 3467
1484 4997
1485 1634
1485 1988
1485 2117
1485 2148
1485 2335
1485 2887
1485 2891
1485 3091
1485 3651
1485 4180
1485 4453
1485 4509
1485 4903
1486 1608
1486 1668
1486 1694
1486 1866
1486 2328
1486 2487
1486 2641
1486 2671
1486 2696
1486 2721
1486 2751
1486 2845
1486 2847
1486 2849
1486 2918
1486 2933
1486 2969
1486 3006
1486 3022
1486 3119
1486 3453
1486 3459
1486 3550
1486 3716
1486 3811
1486 3903
1486 3963
1486 4245
1486 4502
1486 4543
1486 4647
1486 4666
1486 4732
1486 4742
1486 4777
1487 1679
1487 1815
1487 2175
1487 2514
1487 2732
1487 3200
1487 3221
1487 3318
1487 3322
1487 3463
1487 4031
1487 4092
1487 4148
1487 4551
1487 4765
1487 4891
1488 1657
1488 1831
1488 2740
1488 2933
1488 3129
1488 3266
1488 3356
1488 3424
1488 3439
1488 3546
1488 3720
1488 3824
1488 4221
1488 4379
1488 4454
1488 4465
1488 4664
1489 1561
1489 1683
1489 1738
1489 1823
1489 1884
1489 1978
1489 2162
1489 2357
1489 2362
1489 2374
1489 2423
1489 2456
1489 2507
1489 2528
1489 2803
1489 2884
1489 2896
1489 3031
1489 3062
1489 3156
1489 3305
1489 3490
1489 3819
1489 4192
1489 4197
1489 4275
1489 4318
1489 4358
1489 4362
1489 4466
1489 4540
1489 4689
1489 4894
1489 4918
1490 2181
1490 2189
1490 2288
1490 2358
1490 2470
1490 2873
1490 2955
1490 2957
1490 2966
1490 3221
1490 3762
1490 3868
1490 4004
1490 4439
1490 4723
1490 4804
1490 4821
1491 1512
1491 1699
1491 1935
1491 2107
1491 2120
1491 2137
1491 2458
1491 2809
1491 2847
1491 3128
1491 3326
1491 3851
1491 3960
1491 4003
1491 4152
1491 4360
1491 4780
1492 1692
1492 1920
1492 1941
1492 2400
1492 2943
1492 3774
1492 4111
1492 4233
1492 4321
1492 4472
1493 2382
1493 2432
1493 2467
1493 2706
1493 3124
1493 3313
1493 3459
1493 3955
1493 4095
1494 2158
1494 2307
1494 2590
1494 2731
1494 3387
1494 4486
1494 4512
1494 4861
1494 4904
1495 1541
1495 1855
1495 2364
1495 2442
1495 2643
1495 2698
1495 3145
1495 3242
1495 3244
1495 3325
1495 3462
1495 3620
1495 4035
1495 4051
1495 4558
1495 4610
1496 1596
1496 1755
1496 2924
1496 3004
1496 3491
1496 3566
1496 3604
1496 3766
1496 3999
1496 4137
1496 4428
1496 4472
1496 4664
1496 4693
1497 1637
1497 1797
1497 2007
1497 2082
1497 3047
1497 3147
1497 3758
1497 4523
1497 4546
1497 4937
1498 1931
1498 1936
1498 2007
1498 2319
1498 3411
1498 3858
1498 3914
1498 3918
1498 4038
1498 4185
1498 4191
1498 4307
1498 4314
1498 4593
1499 1532
1499 1567
1499 1609
1499 1911
1499 1938
1499 2222
1499 2328
1499 2497
1499 2736
1499 2842
1499 2846
1499 2976
1499 3027
1499 3069
1499 3072
1499 3220
1499 3303
1499 3505
1499 3766
1499 4096
1499 4269
1499 4365
1499 4440
1499 4560
1499 4575
1499 4857
1499 4988
1500 1534
1500 1685
1500 1724
1500 2244
1500 2326
1500 2354
1500 2984
1500 3024
1500 3058
1500 3618
1500 3985
1500 4721
1501 2261
1501 2336
1501 2439
1501 2521
1501 2736
1501 3421
1501 3488
1501 4323
1501 4664
1502 1569
1502 1624
1502 1627
1502 1737
1502 1896
1502 2307
1502 2411
1502 2412
1502 2478
1502 2865
1502 2902
1502 3335
1502 3873
1502 3940
1502 4077
1502 4183
1502 4417
1502 4449
1502 4526
1502 4806
1502 4840
1502 4922
1503 1506
1503 1527
1503 1717
1503 2518
1503 2563
1503 2926
1503 3448
1503 3966
1503 4098
1503 4378
1503 4565
1503 4883
1504 1864
1504 1968
1504 2090
1504 2523
1504 3022
1504 3399
1504 3748
1504 3872
1504 4026
1504 4380
1504 4436
1504 4876
1505 1540
1505 1632
1505 1819
1505 2164
1505 2196
1505 2438
1505 2563
1505 2572
1505 2711
1505 2776
1505 2852
1505 2966
1505 3009
1505 3598
1505 4149
1505 4542
1505 4714
1506 1541
1506 1576
1506 1821
1506 2119
1506 2131
1506 2147
1506 2230
1506 2358
1506 2533
1506 2559
1506 2566
1506 2586
1506 2854
1506 2904
1506 2927
1506 3017
1506 3164
1506 3166
1506 3191
1506 3440
1506 3463
1506 3467
1506 3661
1506 3772
1506 3789
1506 3815
1506 3894
1506 3998
1506 4084
1506 4090
1506 4091
1506 4160
1506 4181
1506 4216
1506 4227
1506 4382
1506 4402
1506 4425
1506 4449
1506 4479
1506 4633
1506 4799
1506 4832
1507 1524
1507 2271
1507 2318
1507 2623
1507 2774
1507 3481
1507 3558
1507 3560
1507 3687
1507 4006
1507 4160
1507 4212
1507 4271
1507 4442
1507 4556
1507 4661
1507 4760
1507 4834
1507 4931
1507 4970
1508 1715
1508 2502
1508 2834
1508 2916
1508 3014
1508 3069
1508 3503
1508 3660
1508 3964
1508 4000
1508 4737
1508 4924
1509 2198
1509 2503
1509 2676
1509 2936
1509 3005
1509 4185
1509 4299
1509 4327
1509 4504
1509 4727
1509 4836
1509 4848
1510 1563
1510 1649
1510 1684
1510 1930
1510 1957
1510 2050
1510 3216
1510 3604
1510 3685
1510 3710
1510 3893
1510 4050
1510 4450
1510 4604
1510 4610
1510 4622
1510 4671
1511 1549
1511 1562
1511 2912
1511 3249
1511 3325
1511 4155
1511 4484
1512 1562
1512 1585
1512 1613
1512 1834
1512 1900
1512 2137
1512 2150
1512 2159
1512 2259
1512 2264
1512 2435
1512 2462
1512 2553
1512 2555
1512 2588
1512 2660
1512 2806
1512 2885
1512 2891
1512 3039
1512 3197
1512 3297
1512 3371
1512 3383
1512 3437
1512 3471
1512 3898
1512 4152
1512 4195
1512 4272
1512 4336
1512 4459
1512 4474
1512 4488
1512 4587
1512 4705
1512 4793
1512 4882
1512 4935
1513 1692
1513 2031
1513 2134
1513 2369
1513 2566
1513 2946
1513 4161
1513 4264
1513 4345
1513 4591
1513 4956
1514 2034
1514 2315
1514 2770
1514 3067
1514 3173
1514 3557
1514 3579
1514 3999
1514 4528
1514 4953
1515 1583
1515 1731
1515 1783
1515 2197
1515 2827
1515 3175
1515 3878
1515 4397
1515 4785
1515 4800
1516 1545
1516 1995
1516 2067
1516 2247
1516 2277
1516 2523
1516 2666
1516 2706
1516 2784
1516 3272
1516 3300
1516 3322
1516 3533
1516 3731
1516 3874
1516 4070
1516 4491
1516 4678
1517 1653
1517 1713
1517 1916
1517 1958
1517 2061
1517 2210
1517 2289
1517 2387
1517 2430
1517 2446
1517 2542
1517 2552
1517 2563
1517 2677
1517 2712
1517 2739
1517 2811
1517 2881
1517 3101
1517 3184
1517 3187
1517 3407
1517 3426
1517 3479
1517 3787
1517 3952
1517 4145
1517 4165
1517 4200
1517 4201
1517 4281
1517 4375
1517 4465
1517 4747
1517 4953
1517 4979
1518 1685
1518 1696
1518 1703
1518 1838
1518 1999
1518 2056
1518 2362
1518 2363
1518 2373
1518 2459
1518 2517
1518 2599
1518 2784
1518 2902
1518 2913
1518 3000
1518 3266
1518 3786
1518 3814
1518 3840
1518 3966
1518 4044
1518 4146
1518 4248
1518 4283
1518 4369
1518 4374
1518 4714
1518 4732
1518 4783
1518 4865
1518 4931
1518 4937
1518 4940
1519 1581
1519 1993
1519 2232
1519 2440
1519 2446
1519 2471
1519 2604
1519 2935
1519 3343
1519 3476
1519 3670
1519 4419
1519 4623
1520 2010
1520 2144
1520 2662
1520 3619
1520 3631
1520 3646
1520 4485
1521 1796
1521 2001
1521 2118
1521 2284
1521 2429
1521 2565
1521 2723
1521 3126
1521 3681
1521 3838
1521 4177
1521 4262
1521 4605
1521 4628
1521 4717
1521 4882
1522 1871
1522 2046
1522 2047
1522 2205
1522 2377
1522 2787
1522 2937
1522 3304
1522 3439
1522 3775
1522 4521
1522 4563
1522 4644
1522 4663
1522 4945
1523 1543
1523 1578
1523 1673
1523 1773
1523 2273
1523 2363
1523 2916
1523 3362
1523 3799
1523 4206
1523 4309
1523 4426
1523 4625
1523 4741
1523 4768
1523 4937
1523 4939
1524 1636
1524 1760
1524 1847
1524 1997
1524 2048
1524 2060
1524 2489
1524 2514
1524 3216
1524 3590
1524 3986
1524 4037
1524 4147
1524 4165
1524 4172
1524 4442
1524 4790
1525 1791
1525 2185
1525 2379
1525 2486
1525 2604
1525 2617
1525 2669
1525 2695
1525 2735
1525 2786
1525 2859
1525 3282
1525 3446
1525 3675
1525 4894
1526 1671
1526 1842
1526 2355
1526 2449
1526 2455
1526 2598
1526 2792
1526 2902
1526 3024
1526 3316
1526 3407
1526 3428
1526 3769
1526 3905
1526 4304
1526 4336
1526 4849
1527 1682
1527 1988
1527 2135
1527 2348
1527 2405
1527 2767
1527 2893
1527 3537
1527 3632
1527 4060
1527 4182
1527 4306
1527 4530
1527 4543
1527 4622
1527 4833
1527 4875
1528 2109
1528 2922
1528 2930
1528 2964
1528 3114
1528 3247
1528 3318
1528 3423
1528 3432
1528 3714
1528 4125
1528 4327
1528 4435
1528 4484
1528 4939
1529 2052
1529 2359
1529 2382
1529 2743
1529 2875
1529 3030
1529 3124
1529 3263
1529 3620
1529 3962
1529 4122
1529 4224
1529 4790
1529 4914
1530 1568
1530 1595
1530 1599
1530 1635
1530 1790
1530 1853
1530 1915
1530 1946
1530 1985
1530 2025
1530 2061
1530 2157
1530 2240
1530 2278
1530 2279
1530 2292
1530 2355
1530 2484
1530 2523
1530 2694
1530 2821
1530 2872
1530 2946
1530 2973
1530 2980
1530 2983
1530 2991
1530 3001
1530 3047
1530 3114
1530 3143
1530 3207
1530 3500
1530 3528
1530 3561
1530 3608
1530 3650
1530 3657
1530 3704
1530 3706
1530 3913
1530 3991
1530 4140
1530 4159
1530 4164
1530 4459
1530 4763
1530 4773
1530 4929
1531 1810
1531 2415
1531 2436
1531 2574
1531 2731
1531 2880
1531 4101
1531 4352
1531 4593
1531 4632
1531 4681
1531 4737
1532 1573
1532 1795
1532 1935
1532 2761
1532 2763
1532 3046
1532 3127
1532 3348
1532 3538
1532 3836
1532 3906
1532 4011
1532 4143
1532 4409
1532 4752
1532 4899
1533 1667
1533 1711
1533 1810
1533 2261
1533 2311
1533 2410
1533 2416
1533 2432
1533 2523
1533 2574
1533 2600
1533 2717
1533 2879
1533 2901
1533 3115
1533 3120
1533 3180
1533 3209
1533 3241
1533 3358
1533 3394
1533 3502
1533 3557
1533 3566
1533 3862
1533 3867
1533 4023
1533 4174
1533 4294
1533 4632
1533 4737
1533 4786
1533 4888
1533 4919
1534 1557
1534 1942
1534 1965
1534 2639
1534 2678
1534 3037
1534 3792
1534 3855
1534 4115
1534 4172
1534 4239
1534 4287
1534 4306
1534 4414
1534 4453
1534 4512
1534 4685
1535 2423
1535 3150
1535 3733
1535 3739
1535 4198
1535 4249
1535 4616
1535 4827
1536 1662
1536 1788
1536 1909
1536 2430
1536 2521
1536 2577
1536 2591
1536 2696
1536 3112
1536 3251
1536 3692
1536 3729
1536 3737
1536 3810
1536 3893
1536 3894
1536 3949
1536 3950
1536 4127
1536 4251
1536 4262
1536 4367
1536 4909
1537 1689
1537 2016
1537 2322
1537 2381
1537 2865
1537 2951
1537 3046
1537 3325
1537 3416
1537 3673
1537 3733
1537 4435
1537 4858
1538 2468
1538 3159
1538 4150
1538 4237
1538 4659
1539 1549
1539 1966
1539 2043
1539 2053
1539 2239
1539 2360
1539 2440
1539 2604
1539 2714
1539 2777
1539 2855
1539 2908
1539 2928
1539 3122
1539 3702
1539 4094
1539 4135
1539 4454
1539 4488
1539 4505
1539 4703
1539 4743
1539 4790
1540 1648
1540 1912
1540 1983
1540 2030
1540 2212
1540 2213
1540 2367
1540 2438
1540 2457
1540 2477
1540 2688
1540 2707
1540 2711
1540 2743
1540 3448
1540 3520
1540 3806
1540 4011
1540 4180
1540 4433
1540 4593
1540 4687
1540 4743
1540 4803
1541 1594
1541 1595
1541 2228
1541 2412
1541 2458
1541 2715
1541 3216
1541 3576
1541 3626
1541 3827
1541 3968
1541 4103
1541 4116
1541 4215
1541 4585
1541 4740
1542 1659
1542 1773
1542 1826
1542 2441
1542 3236
1542 3624
1542 3717
1542 4122
1542 4347
1542 4707
1542 4925
1543 1725
1543 2412
1543 2574
1543 2625
1543 2626
1543 3033
1543 3115
1543 3180
1543 3394
1543 3411
1543 3452
1543 3566
1543 3952
1543 4151
1543 4244
1543 4345
1543 4352
1543 4362
1543 4376
1543 4465
1543 4632
1543 4737
1543 4919
1543 4989
1544 1739
1544 1810
1544 1942
1544 1980
1544 2041
1544 2330
1544 2409
1544 2696
1544 2922
1544 3288
1544 3495
1544 3520
1544 4428
1544 4578
1544 4664
1544 4764
1545 1655
1545 1666
1545 1977
1545 2042
1545 2322
1545 2494
1545 2588
1545 2891
1545 3071
1545 3135
1545 3144
1545 3160
1545 3293
1545 3350
1545 3366
1545 3615
1545 3677
1545 3928
1545 4025
1545 4084
1545 4140
1545 4626
1545 4784
1545 4860
1546 1549
1546 1700
1546 1774
1546 1905
1546 2431
1546 2472
1546 2602
1546 2835
1546 3144
1546 3539
1546 3782
1546 4242
1546 4588
1546 4753
1546 4777
1546 4804
1546 4824
1546 4981
1547 1700
1547 1946
1547 2019
1547 2066
1547 2134
1547 2290
1547 2298
1547 2419
1547 2424
1547 2706
1547 3343
1547 3790
1547 4201
1547 4299
1547 4512
1547 4702
1547 4737
1547 4805
1547 4878
1547 4933
1547 4942
1547 4956
1548 1882
1548 2409
1548 2411
1548 2427
1548 2519
1548 2565
1548 2914
1548 2943
1548 3047
1548 3170
1548 3253
1548 3621
1548 3758
1548 3975
1548 4083
1548 4404
1548 4448
1549 1612
1549 1656
1549 1723
1549 1725
1549 1807
1549 1898
1549 2062
1549 2230
1549 2254
1549 2261
1549 2264
1549 2374
1549 2428
1549 2552
1549 2602
1549 2610
1549 2658
1549 2678
1549 2742
1549 2830
1549 2835
1549 2885
1549 2978
1549 3066
1549 3069
1549 3094
1549 3144
1549 3243
1549 3300
1549 3333
1549 3335
1549 3378
1549 3416
1549 3578
1549 3728
1549 3733
1549 3826
1549 3832
1549 3854
1549 3966
1549 4100
1549 4174
1549 4242
1549 4252
1549 4253
1549 4306
1549 4336
1549 4351
1549 4560
1549 4646
1549 4692
1549 4773
1549 4845
1550 1886
1550 2003
1550 2010
1550 2063
1550 2081
1550 2187
1550 2522
1550 2554
1550 2778
1550 2863
1550 2889
1550 3406
1550 4083
1550 4189
1550 4600
1551 1589
1551 1700
1551 1852
1551 1974
1551 2251
1551 2318
1551 2330
1551 2603
1551 2861
1551 3112
1551 3287
1551 3294
1551 3313
1551 3591
1551 3617
1551 4038
1551 4165
1551 4199
1551 4251
1551 4394
1552 1683
1552 1841
1552 1862
1552 2013
1552 2117
1552 2312
1552 2471
1552 2795
1552 3228
1552 3440
1552 3864
1552 4768
1552 4934
1553 1756
1553 2111
1553 2171
1553 2315
1553 2692
1553 2797
1553 3982
1553 4089
1553 4164
1553 4180
1553 4664
1553 4685
1553 4954
1554 1591
1554 1714
1554 1725
1554 2051
1554 2205
1554 2621
1554 2834
1554 2868
1554 3027
1554 3198
1554 3342
1554 3375
1554 3431
1554 3434
1554 3482
1554 4163
1554 4974
1555 1932
1555 2429
1555 2893
1555 2946
1555 2947
1555 3310
1555 3539
1555 3608
1555 4110
1555 4741
1556 1896
1556 1946
1556 2219
1556 2556
1556 2591
1556 2691
1556 3072
1556 3333
1556 4798
1556 4865
1557 1752
1557 1768
1557 2071
1557 2080
1557 2205
1557 2260
1557 2307
1557 2373
1557 2418
1557 2439
1557 2609
1557 2622
1557 2636
1557 2655
1557 2714
1557 2722
1557 2785
1557 2792
1557 3070
1557 3073
1557 3203
1557 3257
1557 3346
1557 3384
1557 3478
1557 3482
1557 3507
1557 3530
1557 3584
1557 3593
1557 3603
1557 3727
1557 3788
1557 3854
1557 3898
1557 4095
1557 4111
1557 4244
1557 4320
1557 4426
1557 4430
1557 4455
1557 4806
1557 4968
1557 4989
1558 1936
1558 2520
1558 2932
1558 3027
1558 3202
1558 3210
1558 4328
1558 4681
1558 4775
1558 4841
1558 4885
1559 1607
1559 1688
1559 1784
1559 1791
1559 1985
1559 1992
1559 2212
1559 2363
1559 2486
1559 2708
1559 2806
1559 2836
1559 3066
1559 3330
1559 3718
1559 3824
1559 3870
1559 4038
1559 4251
1559 4273
1559 4299
1559 4759
1560 1714
1560 1931
1560 2096
1560 2187
1560 2284
1560 2389
1560 2404
1560 2423
1560 2426
1560 2462
1560 2920
1560 3712
1560 4176
1560 4319
1560 4603
1561 1677
1561 1711
1561 1812
1561 1815
1561 1831
1561 1842
1561 1895
1561 2132
1561 2335
1561 2402
1561 2456
1561 2463
1561 2507
1561 2582
1561 2716
1561 2895
1561 3007
1561 3036
1561 3247
1561 3274
1561 3490
1561 3821
1561 4112
1561 4131
1561 4148
1561 4361
1561 4419
1561 4539
1561 4566
1561 4589
1561 4657
1561 4697
1561 4709
1561 4734
1561 4918
1561 4988
1562 1627
1562 1867
1562 2150
1562 2411
1562 2426
1562 2795
1562 2931
1562 3102
1562 3285
1562 3402
1562 3734
1562 3898
1562 4195
1562 4459
1562 4882
1562 4937
1562 4960
1562 4979
1563 1569
1563 2312
1563 2550
1563 3290
1563 3361
1563 3430
1563 3579
1563 3666
1563 3985
1563 4204
1563 4244
1563 4373
1563 4540
1563 4888
1564 1765
1564 1984
1564 2100
1564 2184
1564 2382
1564 2753
1564 2890
1564 3024
1564 3257
1564 3374
1564 3624
1564 3787
1564 4197
1564 4359
1564 4435
1564 4479
1564 4562
1564 4889
1564 4905
1565 1614
1565 1634
1565 1685
1565 1926
1565 2318
1565 2582
1565 2739
1565 2783
1565 2889
1565 3014
1565 3016
1565 3551
1565 3648
1565 4164
1565 4344
1565 4741
1566 1896
1566 2164
1566 2202
1566 2540
1566 2979
1566 3241
1566 3456
1566 3903
1566 4124
1566 4128
1566 4170
1566 4242
1566 4528
1567 1771
1567 1808
1567 2053
1567 2273
1567 2376
1567 2385
1567 2405
1567 2544
1567 2676
1567 2899
1567 2902
1567 2910
1567 3085
1567 3227
1567 3381
1567 3426
1567 3655
1567 3710
1567 4056
1567 4097
1567 4100
1567 4387
1567 4414
1567 4434
1567 4634
1567 4986
1568 2030
1568 2785
1568 2845
1568 3061
1568 3225
1568 3750
1568 3762
1568 4159
1569 1654
1569 1736
1569 1756
1569 1980
1569 2052
1569 2145
1569 2536
1569 2797
1569 3165
1569 3748
1569 3977
1569 4373
1569 4795
1570 1792
1570 1870
1570 1958
1570 2161
1570 2274
1570 2292
1570 2397
1570 2506
1570 2526
1570 2540
1570 2731
1570 2733
1570 2790
1570 3226
1570 3424
1570 3788
1570 3890
1570 3992
1570 4687
1570 4815
1571 1924
1571 1947
1571 2027
1571 2184
1571 2265
1571 2404
1571 2652
1571 2721
1571 3004
1571 3095
1571 3142
1571 3486
1571 3598
1571 3774
1571 3900
1571 4097
1571 4328
1571 4446
1571 4471
1571 4563
1571 4764
1571 4781
1571 4822
1572 1601
1572 1606
1572 1801
1572 2004
1572 2040
1572 2255
1572 2424
1572 2666
1572 2671
1572 2895
1572 3081
1572 3142
1572 3322
1572 3332
1572 3818
1572 3842
1572 3844
1572 3902
1572 4221
1572 4710
1573 1674
1573 1822
1573 1898
1573 2141
1573 2208
1573 2322
1573 2331
1573 2405
1573 2643
1573 2731
1573 2732
1573 2944
1573 2963
1573 3170
1573 3216
1573 3247
1573 3260
1573 3264
1573 3380
1573 3383
1573 3421
1573 3502
1573 3609
1573 3613
1573 3968
1573 4130
1573 4214
1573 4227
1573 4363
1573 4435
1573 4537
1573 4560
1573 4747
1573 4858
1573 4937
1573 4971
1574 1765
1574 2007
1574 2222
1574 2232
1574 2312
1574 2340
1574 2833
1574 2846
1574 4017
1574 4044
1574 4669
1574 4795
1574 4804
1575 1891
1575 2279
1575 2568
1575 2697
1575 2901
1575 3155
1575 3308
1575 4111
1575 4401
1575 4643
1575 4914
1576 2681
1576 3406
1576 3608
1576 3754
1576 3796
1576 3934
1576 4202
1576 4427
1576 4559
1576 4745
1577 1723
1577 2501
1577 2683
1577 2818
1577 3051
1577 3290
1577 3680
1577 4360
1577 4780
1577 4859
1577 4952
1578 1647
1578 1660
1578 2079
1578 2097
1578 2388
1578 2897
1578 2909
1578 3466
1578 3811
1578 3961
1578 4240
1578 4275
1579 1714
1579 1722
1579 1797
1579 2478
1579 2491
1579 2496
1579 2630
1579 2904
1579 3198
1579 3648
1579 3741
1579 4498
1579 4509
1579 4795
1580 1768
1580 1931
1580 2680
1580 3606
1580 3674
1580 3688
1580 3875
1580 4097
1580 4100
1580 4260
1580 4429
1580 4646
1580 4722
1580 4835
1581 2299
1581 2342
1581 3402
1581 3770
1581 4097
1581 4790
1581 4842
1581 4952
1581 4955
1581 4960
1582 1770
1582 1829
1582 2000
1582 2012
1582 2039
1582 2172
1582 2246
1582 2440
1582 2733
1582 2903
1582 2956
1582 2974
1582 3042
1582 3060
1582 3553
1582 3754
1582 3848
1582 3903
1582 4026
1582 4199
1582 4676
1582 4778
1582 4865
1582 4974
1582 4985
1583 1991
1583 2053
1583 2459
1583 2561
1583 3189
1583 3465
1583 3494
1583 3585
1583 4387
1583 4461
1583 4909
1584 1765
1584 1891
1584 2247
1584 2328
1584 2728
1584 2931
1584 3055
1584 3167
1584 3717
1584 3762
1584 4780
1585 1992
1585 3461
1585 4067
1585 4275
1585 4934
1586 1637
1586 1786
1586 1981
1586 2139
1586 2260
1586 2503
1586 2856
1586 2918
1586 3066
1586 3106
1586 3366
1586 3532
1586 3534
1586 3763
1586 3891
1586 3895
1586 4050
1586 4171
1586 4211
1586 4279
1586 4359
1586 4732
1586 4780
1586 4981
1586 4992
1587 1680
1587 1831
1587 2162
1587 2363
1587 2511
1587 2819
1587 3066
1587 3266
1587 3421
1587 3670
1587 3983
1587 4010
1587 4857
1588 2246
1588 2666
1588 2706
1588 2759
1588 2940
1588 2965
1588 3043
1588 3533
1588 3689
1588 3718
1588 3921
1588 3952
1588 4307
1588 4377
1588 4436
1588 4813
1589 1682
1589 2124
1589 2263
1589 2473
1589 2731
1589 3075
1589 3077
1589 3395
1589 3679
1589 3698
1589 3919
1589 4056
1589 4193
1589 4407
1589 4505
1589 4611
1589 4671
1590 1612
1590 1738
1590 1896
1590 2037
1590 2044
1590 2342
1590 3041
1590 3244
1590 3716
1590 3902
1590 4028
1590 4067
1590 4104
1590 4107
1590 4467
1590 4627
1590 4966
1591 2231
1591 2438
1591 2490
1591 2572
1591 3562
1591 3577
1591 3644
1591 3824
1591 4272
1591 4684
1591 4882
1592 1723
1592 2097
1592 2363
1592 2389
1592 2469
1592 2975
1592 3176
1592 3192
1592 3488
1592 3490
1592 3548
1592 3583
1592 4712
1593 1680
1593 1724
1593 1731
1593 1814
1593 1921
1593 2187
1593 2697
1593 2861
1593 2892
1593 2901
1593 3218
1593 3332
1593 3370
1593 3686
1593 3823
1593 3975
1593 4033
1593 4146
1593 4847
1594 1615
1594 2657
1594 2701
1594 2805
1594 2847
1594 3186
1594 3215
1594 3835
1594 3939
1594 4095
1594 4242
1594 4310
1594 4626
1594 4664
1594 4666
1594 4675
1594 4712
1594 4924
1595 1631
1595 1635
1595 2062
1595 2303
1595 3153
1595 3166
1595 3239
1595 3389
1595 3576
1595 3717
1595 3760
1595 3771
1595 3945
1595 4145
1595 4404
1595 4916
1596 1795
1596 2075
1596 2102
1596 2649
1596 3103
1596 3653
1596 4070
1596 4249
1596 4306
1596 4669
1597 2139
1597 2885
1597 3242
1597 4367
1597 4533
1597 4909
1597 4978
1598 1720
1598 1747
1598 2079
1598 2087
1598 2112
1598 2295
1598 2398
1598 2576
1598 2741
1598 2767
1598 3598
1598 3742
1598 3891
1598 4359
1598 4561
1599 1673
1599 2027
1599 2349
1599 2523
1599 2659
1599 3580
1599 4668
1599 4776
1599 4855
1600 1610
1600 2032
1600 2178
1600 2250
1600 2479
1600 2849
1600 2960
1600 3013
1600 3054
1600 3258
1600 3353
1600 3477
1600 3486
1600 3693
1600 3716
1600 3742
1600 3770
1600 4218
1600 4450
1600 4560
1600 4647
1600 4671
1600 4766
1600 4806
1601 1835
1601 2066
1601 2179
1601 2494
1601 2626
1601 2799
1601 3372
1601 3402
1601 3547
1601 3636
1601 4180
1601 4227
1601 4240
1601 4263
1601 4326
1601 4517
1601 4789
1602 2038
1602 2519
1602 3135
1602 3751
1602 4178
1602 4255
1602 4448
1602 4877
1603 2342
1603 2353
1603 2468
1603 2554
1603 2867
1603 3263
1603 3276
1603 3395
1603 3592
1603 3744
1603 4123
1603 4245
1603 4461
1603 4609
1603 4780
1604 1782
1604 1880
1604 2019
1604 2027
1604 2940
1604 3928
1604 4105
1604 4263
1604 4323
1604 4479
1605 1674
1605 1962
1605 2036
1605 2245
1605 2742
1605 3100
1605 3266
1605 3379
1605 3747
1605 3946
1605 4207
1605 4368
1605 4568
1606 1640
1606 2361
1606 2378
1606 2630
1606 2799
1606 2862
1606 3056
1606 3212
1606 3311
1606 3654
1606 3971
1606 4215
1606 4284
1606 4409
1606 4465
1606 4752
1606 4835
1607 1697
1607 1781
1607 1892
1607 2885
1607 3195
1607 3356
1607 3418
1607 4246
1607 4405
1607 4469
1607 4865
1607 4998
1608 1615
1608 1683
1608 1973
1608 2056
1608 2347
1608 2521
1608 2837
1608 2863
1608 3281
1608 3301
1608 3391
1608 3631
1608 3661
1608 3868
1608 3939
1608 3977
1608 4898
1608 4947
1609 1765
1609 1924
1609 2471
1609 2542
1609 2691
1609 2832
1609 3157
1609 3621
1609 4874
1609 4946
1609 4989
1610 1790
1610 1814
1610 1852
1610 2166
1610 2271
1610 2334
1610 2907
1610 4330
1610 4405
1610 4482
1610 4596
1610 4759
1610 4984
1611 1927
1611 2538
1611 2910
1611 2927
1611 3195
1611 4757
1611 4988
1612 1715
1612 1853
1612 1878
1612 2272
1612 2694
1612 3430
1612 3587
1612 4099
1612 4242
1612 4559
1612 4884
1613 1674
1613 2428
1613 2975
1613 3174
1613 3180
1613 3228
1613 4387
1614 1823
1614 1876
1614 1988
1614 2084
1614 2143
1614 2196
1614 2499
1614 2559
1614 2697
1614 3000
1614 3011
1614 3137
1614 3466
1614 3555
1614 3655
1614 4079
1614 4372
1614 4507
1614 4668
1614 4740
1614 4765
1614 4865
1614 4910
1615 1731
1615 1869
1615 1932
1615 1941
1615 2151
1615 2334
1615 2421
1615 2601
1615 2669
1615 2709
1615 2847
1615 2969
1615 2996
1615 3013
1615 3054
1615 3403
1615 3570
1615 3801
1615 3839
1615 3963
1615 3977
1615 4060
1615 4096
1615 4155
1615 4238
1615 4622
1615 4647
1615 4751
1615 4863
1615 4878
1615 4940
1616 1621
1616 1651
1616 1665
1616 1761
1616 1779
1616 1889
1616 1891
1616 2116
1616 2125
1616 2465
1616 2647
1616 2671
1616 2756
1616 3282
1616 3844
1616 4040
1616 4124
1616 4392
1616 4417
1616 4482
1616 4555
1616 4740
1616 4770
1616 4926
1616 4965
1617 2034
1617 2084
1617 2594
1617 2622
1617 2837
1617 3180
1617 3313
1617 3407
1617 3623
1617 3880
1617 4301
1617 4760
1618 1854
1618 2095
1618 2150
1618 2187
1618 2306
1618 2396
1618 2577
1618 2663
1618 2885
1618 2913
1618 3078
1618 3121
1618 3221
1618 3576
1618 3968
1618 4635
1619 1667
1619 1672
1619 1903
1619 2398
1619 2409
1619 2451
1619 2459
1619 2474
1619 2493
1619 2541
1619 2622
1619 2625
1619 2639
1619 2926
1619 3170
1619 3322
1619 4122
1619 4370
1619 4453
1620 2847
1620 2963
1620 3609
1620 4263
1620 4297
1620 4353
1620 4909
1620 4927
1620 4952
1621 1665
1621 1725
1621 2116
1621 2179
1621 2475
1621 2477
1621 2926
1621 3258
1621 3547
1621 3639
1621 3785
1621 4010
1621 4092
1621 4134
1621 4154
1621 4180
1621 4228
1621 4426
1621 4446
1621 4717
1621 4771
1622 1775
1622 2256
1622 2588
1622 2726
1622 2739
1622 2834
1622 3069
1622 3273
1622 3555
1622 3598
1622 3621
1622 3751
1622 4664
1623 1689
1623 1952
1623 2028
1623 2363
1623 2533
1623 2938
1623 3462
1623 4929
1624 1953
1624 2416
1624 3072
1624 3152
1624 3502
1624 3829
1624 4067
1624 4203
1624 4279
1624 4645
1624 4712
1625 1636
1625 1663
1625 1687
1625 1756
1625 1873
1625 1874
1625 1894
1625 1957
1625 1959
1625 1973
1625 2150
1625 2278
1625 2332
1625 2368
1625 2372
1625 2437
1625 2502
1625 2579
1625 2686
1625 2743
1625 2910
1625 2930
1625 3072
1625 3138
1625 3156
1625 3201
1625 3339
1625 3365
1625 3458
1625 3498
1625 3527
1625 3528
1625 3586
1625 3671
1625 3696
1625 3704
1625 3831
1625 4011
1625 4186
1625 4241
1625 4351
1625 4371
1625 4396
1625 4416
1625 4423
1625 4475
1625 4484
1625 4529
1625 4570
1625 4594
1625 4629
1625 4720
1625 4811
1626 1835
1626 2165
1626 2342
1626 2379
1626 2540
1626 3009
1626 3046
1626 3333
1626 3342
1626 3481
1626 3824
1626 4393
1626 4546
1626 4877
1627 2850
1627 3004
1627 3624
1627 3893
1627 4366
1627 4731
1627 4771
1627 4821
1628 2129
1628 2295
1628 2418
1628 2471
1628 2576
1628 2640
1628 3086
1628 3110
1628 3375
1628 3412
1628 3553
1628 3731
1628 3753
1628 3767
1628 4621
1629 1834
1629 2082
1629 2085
1629 2351
1629 2676
1629 3038
1629 3751
1629 3825
1629 3887
1629 4313
1629 4411
1630 1786
1630 1801
1630 2017
1630 2286
1630 3698
1630 3803
1630 3817
1630 4957
1631 1677
1631 2129
1631 2584
1631 2673
1631 2917
1631 2933
1631 3133
1631 3407
1631 3620
1631 3722
1631 3781
1631 3785
1631 4570
1631 4611
1631 4692
1631 4803
1632 2367
1632 2408
1632 2599
1632 3124
1632 3323
1632 3925
1632 3999
1632 4275
1632 4327
1632 4399
1632 4422
1632 4425
1632 4664
1632 4957
1633 1725
1633 2521
1633 2913
1633 2979
1633 3721
1633 4031
1633 4246
1633 4391
1633 4649
1634 1979
1634 2798
1634 4084
1634 4324
1634 4515
1634 4767
1634 4769
1634 4848
1635 1685
1635 1920
1635 2441
1635 2449
1635 2517
1635 2599
1635 2746
1635 2890
1635 2998
1635 3149
1635 3166
1635 3207
1635 3339
1635 3486
1635 3875
1635 4190
1635 4470
1635 4580
1635 4989
1636 1742
1636 1795
1636 1966
1636 2199
1636 2216
1636 2417
1636 2796
1636 2892
1636 3126
1636 3240
1636 3383
1636 3427
1636 3452
1636 3766
1636 4128
1636 4963
1637 2059
1637 2314
1637 2561
1637 2918
1637 3481
1637 3891
1637 4193
1637 4359
1637 4431
1637 4517
1637 4533
1637 4569
1637 4716
1638 2328
1638 2613
1638 2948
1638 3054
1638 3395
1638 3918
1638 3953
1638 4101
1638 4106
1638 4228
1638 4572
1639 1884
1639 2072
1639 2396
1639 2539
1639 3590
1639 4009
1639 4368
1639 4413
1639 4912
1640 1799
1640 1805
1640 1851
1640 1882
1640 2467
1640 2739
1640 2813
1640 3373
1640 3646
1640 3861
1641 1668
1641 1907
1641 2095
1641 2986
1641 3046
1641 3133
1641 3654
1641 3715
1641 4117
1641 4244
1641 4751
1642 1666
1642 1948
1642 2113
1642 2947
1642 3537
1642 4235
1643 1823
1643 2212
1643 2397
1643 2404
1643 2423
1643 2610
1643 2724
1643 2928
1643 4416
1643 4424
1643 4488
1643 4551
1644 1706
1644 1709
1644 1801
1644 2052
1644 2634
1644 2695
1644 2914
1644 3079
1644 3141
1644 3345
1644 3480
1644 4230
1644 4233
1644 4401
1644 4845
1644 4962
1645 2027
1645 2139
1645 3276
1645 3589
1645 4227
1645 4299
1645 4486
1645 4865
1646 2236
1646 2819
1646 2862
1646 2982
1646 3570
1646 4050
1646 4242
1646 4865
1647 2068
1647 2097
1647 2705
1647 2999
1647 3039
1647 3245
1647 3465
1647 3827
1647 4258
1647 4425
1647 4894
1648 1753
1648 2074
1648 2458
1648 2517
1648 2572
1648 2708
1648 2884
1648 2934
1648 3084
1648 3349
1648 3360
1648 3379
1648 3551
1648 3562
1648 3678
1648 3957
1648 4349
1648 4551
1649 1819
1649 1837
1649 2041
1649 2319
1649 2553
1649 2731
1649 2783
1649 2794
1649 3006
1649 3062
1649 3079
1649 3080
1649 3577
1649 3810
1649 4449
1649 4783
1649 4788
1650 1680
1650 1879
1650 2004
1650 2046
1650 2334
1650 2540
1650 2668
1650 2703
1650 3237
1650 3966
1650 4242
1650 4865
1650 4870
1650 4927
1651 1741
1651 1865
1651 2187
1651 2214
1651 2264
1651 2429
1651 2799
1651 3820
1651 3996
1651 4180
1651 4315
1651 4471
1651 4528
1651 4776
1652 2065
1652 2197
1652 2368
1652 2555
1652 2914
1652 3546
1652 3642
1652 4228
1652 4462
1652 4646
1653 1679
1653 2010
1653 2083
1653 2248
1653 2288
1653 2519
1653 2526
1653 3042
1653 3080
1653 3124
1653 3196
1653 3445
1653 3669
1653 3852
1653 3864
1653 3939
1653 4821
1653 4952
1654 1691
1654 1699
1654 1701
1654 1824
1654 2043
1654 2069
1654 2156
1654 2261
1654 2354
1654 2381
1654 2560
1654 2611
1654 2652
1654 2699
1654 2799
1654 2807
1654 3181
1654 3350
1654 3495
1654 3564
1654 3604
1654 4193
1654 4232
1654 4243
1654 4333
1654 4452
1654 4541
1654 4799
1655 1957
1655 2185
1655 2397
1655 2476
1655 2853
1655 3390
1655 3632
1655 3875
1655 4703
1656 1892
1656 2032
1656 2387
1656 2716
1656 2871
1656 3167
1656 3169
1656 3285
1656 3385
1656 3451
1656 3947
1656 4336
1656 4402
1656 4582
1656 4812
1657 1700
1657 1899
1657 2020
1657 2283
1657 2505
1657 2509
1657 2531
1657 2667
1657 2732
1657 3019
1657 3179
1657 3197
1657 3479
1657 3840
1657 3898
1657 3997
1657 4094
1657 4127
1657 4176
1657 4386
1657 4410
1657 4730
1657 4865
1657 4914
1658 1769
1658 1807
1658 2111
1658 2240
1658 2272
1658 2381
1658 2512
1658 2611
1658 2778
1658 3280
1658 3366
1658 3398
1658 3422
1658 3646
1658 4054
1658 4064
1658 4067
1658 4076
1658 4863
1658 4949
1659 1752
1659 1785
1659 1873
1659 2177
1659 2328
1659 2377
1659 2452
1659 2461
1659 2506
1659 2525
1659 2589
1659 2622
1659 2740
1659 2823
1659 2855
1659 2875
1659 2922
1659 2968
1659 3005
1659 3120
1659 3160
1659 3376
1659 3529
1659 3589
1659 3846
1659 3851
1659 3979
1659 4033
1659 4248
1659 4267
1659 4335
1659 4563
1659 4678
1659 4707
1659 4953
1660 1772
1660 1796
1660 1824
1660 1892
1660 2074
1660 2212
1660 2484
1660 2690
1660 2928
1660 3043
1660 3112
1660 3189
1660 3805
1660 3860
1660 4820
1661 1750
1661 1892
1661 1950
1661 2086
1661 2469
1661 2954
1661 3017
1661 3071
1661 3592
1661 3869
1661 4057
1661 4629
1661 4971
1662 1689
1662 1802
1662 1915
1662 1981
1662 2407
1662 2429
1662 2547
1662 2697
1662 2950
1662 2991
1662 3153
1662 3166
1662 3274
1662 3650
1662 3900
1662 3965
1662 4204
1662 4988
1663 2284
1663 2316
1663 2369
1663 2543
1663 3103
1663 3267
1663 3545
1663 3949
1663 3976
1663 3984
1663 4076
1663 4246
1663 4623
1663 4842
1664 1709
1664 1792
1664 2053
1664 2171
1664 2242
1664 2296
1664 2339
1664 2387
1664 2466
1664 2911
1664 3261
1664 3417
1664 3539
1664 3582
1664 4375
1664 4487
1664 4716
1664 4726
1664 4818
1665 1805
1665 1880
1665 2095
1665 2140
1665 2238
1665 2317
1665 2329
1665 2425
1665 2626
1665 2671
1665 2765
1665 2799
1665 2854
1665 3051
1665 3107
1665 3141
1665 3167
1665 3178
1665 3206
1665 3285
1665 3311
1665 3443
1665 3444
1665 3598
1665 3636
1665 3805
1665 3844
1665 3896
1665 4134
1665 4153
1665 4173
1665 4180
1665 4228
1665 4343
1665 4347
1665 4360
1665 4372
1665 4545
1665 4554
1665 4565
1665 4585
1665 4677
1665 4783
1665 4836
1665 4919
1665 4962
1665 4994
1666 1689
1666 1818
1666 1924
1666 2328
1666 2392
1666 2423
1666 2448
1666 2553
1666 2563
1666 2618
1666 2672
1666 2685
1666 2901
1666 2968
1666 3055
1666 3113
1666 3334
1666 3391
1666 3398
1666 3403
1666 3433
1666 3484
1666 3499
1666 3579
1666 3607
1666 3627
1666 3729
1666 3834
1666 3964
1666 4371
1666 4548
1666 4588
1666 4678
1666 4772
1666 4847
1666 4860
1666 4879
1667 1882
1667 1961
1667 2320
1667 2407
1667 3254
1667 3904
1667 3963
1667 4483
1667 4694
1667 4839
1668 2052
1668 2135
1668 2334
1668 2429
1668 3058
1668 3200
1668 3264
1668 3452
1668 3505
1668 3708
1668 4246
1668 4255
1668 4374
1668 4772
1669 2270
1669 2308
1669 2440
1669 2806
1669 2839
1669 3790
1669 3838
1669 4187
1669 4411
1669 4519
1669 4613
1669 4851
1670 1867
1670 2163
1670 2189
1670 2614
1670 2650
1670 2667
1670 3037
1670 3753
1670 3902
1670 4044
1670 4540
1670 4711
1670 4752
1670 4782
1670 4991
1671 1757
1671 2049
1671 2173
1671 2304
1671 2420
1671 2484
1671 2564
1671 2621
1671 2787
1671 2852
1671 3200
1671 3212
1671 3226
1671 3247
1671 3257
1671 3280
1671 3336
1671 3596
1671 3704
1671 3714
1671 4041
1671 4090
1671 4125
1672 1890
1672 2007
1672 2451
1672 3701
1672 3760
1672 3799
1672 3895
1672 4178
1672 4448
1673 1753
1673 2109
1673 2242
1673 2683
1673 2689
1673 2715
1673 2978
1673 3080
1673 3144
1673 3341
1673 3520
1673 3678
1673 3704
1673 3953
1673 4488
1673 4600
1673 4608
1673 4828
1673 4996
1674 2067
1674 2110
1674 2258
1674 2304
1674 2403
1674 2742
1674 3433
1674 3783
1674 3792
1674 3931
1674 4198
1674 4463
1674 4471
1674 4858
1675 1691
1675 1932
1675 2130
1675 2150
1675 2631
1675 2696
1675 2780
1675 3043
1675 3469
1675 3847
1675 3856
1675 4224
1675 4284
1675 4678
1676 2004
1676 2029
1676 2062
1676 2287
1676 2337
1676 2365
1676 2474
1676 2579
1676 3416
1676 3771
1676 4336
1676 4644
1676 4951
1677 2012
1677 2127
1677 2328
1677 2482
1677 2576
1677 2578
1677 2628
1677 2644
1677 2657
1677 2664
1677 3009
1677 3187
1677 3280
1677 3392
1677 3621
1677 3735
1677 3843
1677 3938
1677 4024
1677 4159
1677 4234
1677 4244
1677 4601
1677 4621
1677 4763
1677 4807
1677 4927
1677 4934
1678 1886
1678 1945
1678 2003
1678 2006
1678 2008
1678 2213
1678 2251
1678 2379
1678 2657
1678 2800
1678 2881
1678 2884
1678 2898
1678 2949
1678 2951
1678 2998
1678 3021
1678 3034
1678 3082
1678 3137
1678 3187
1678 3273
1678 3437
1678 3524
1678 3630
1678 3712
1678 3744
1678 3750
1678 4072
1678 4105
1678 4209
1678 4267
1678 4394
1678 4479
1678 4830
1678 4856
1678 4957
1679 1936
1679 2061
1679 2748
1679 2937
1679 3278
1679 3663
1679 3820
1679 3831
1679 4035
1680 1943
1680 2039
1680 2044
1680 2050
1680 2115
1680 2272
1680 2437
1680 2726
1680 2967
1680 3066
1680 3118
1680 3144
1680 3217
1680 3319
1680 3427
1680 3463
1680 3546
1680 3664
1680 3783
1680 4054
1680 4131
1680 4181
1680 4338
1680 4659
1680 4868
1681 1940
1681 2108
1681 2130
1681 2286
1681 2372
1681 2523
1681 2828
1681 2918
1681 3042
1681 3155
1681 3291
1681 3728
1681 3754
1681 4153
1681 4382
1681 4738
1681 4749
1682 1721
1682 1779
1682 1818
1682 1888
1682 2045
1682 2253
1682 2561
1682 2802
1682 3022
1682 3056
1682 3067
1682 3402
1682 3939
1682 3975
1682 3976
1682 4034
1682 4604
1682 4780
1682 4994
1683 1906
1683 2027
1683 2073
1683 2487
1683 2683
1683 3022
1683 3633
1683 3686
1683 4196
1683 4436
1683 4784
1683 4801
1683 4850
1683 4878
1684 2599
1684 3101
1684 3202
1684 3880
1684 3893
1684 4857
1685 1896
1685 2062
1685 2783
1685 2983
1685 3144
1685 3449
1685 3827
1685 4320
1685 4457
1685 4636
1685 4644
1685 4653
1685 4679
1685 4718
1686 2757
1686 3077
1686 3196
1686 3430
1686 3563
1686 3636
1686 4504
1686 4787
1686 4986
1687 2197
1687 2204
1687 2461
1687 3438
1687 3679
1687 4348
1687 4377
1687 4909
1688 2408
1688 2705
1688 2937
1688 2976
1688 3677
1688 3732
1688 4011
1688 4470
1688 4798
1689 1735
1689 2177
1689 2191
1689 2678
1689 2746
1689 3015
1689 3420
1689 3485
1689 3762
1689 3898
1689 3976
1689 4376
1689 4414
1689 4657
1689 4795
1689 4867
1689 4959
1690 1968
1690 2462
1690 2540
1690 2832
1690 2978
1690 3485
1690 3543
1690 3597
1690 3872
1690 4175
1690 4398
1690 4506
1690 4543
1690 4603
1691 2161
1691 2380
1691 2430
1691 2528
1691 2676
1691 2865
1691 2994
1691 3935
1691 4090
1691 4537
1691 4762
1692 1696
1692 1711
1692 1789
1692 1807
1692 1858
1692 1979
1692 2018
1692 2034
1692 2069
1692 2213
1692 2376
1692 2638
1692 2705
1692 2783
1692 2799
1692 2900
1692 2970
1692 2972
1692 3162
1692 3259
1692 3568
1692 3593
1692 3721
1692 3762
1692 3912
1692 3981
1692 4043
1692 4061
1692 4063
1692 4303
1692 4399
1692 4463
1692 4643
1692 4761
1692 4910
1692 4983
1693 1717
1693 1805
1693 2286
1693 2457
1693 2476
1693 2557
1693 2843
1693 2901
1693 2949
1693 3523
1693 3992
1693 4768
1694 2055
1694 2655
1694 2720
1694 2975
1694 2982
1694 3144
1694 3192
1694 3269
1694 3631
1694 3685
1694 4004
1694 4040
1694 4052
1694 4079
1694 4739
1695 1765
1695 1994
1695 2102
1695 2165
1695 2180
1695 2319
1695 2518
1695 2704
1695 2748
1695 3041
1695 3124
1695 3127
1695 3229
1695 3506
1695 4037
1695 4557
1695 4799
1695 4843
1696 2145
1696 2869
1696 2885
1696 2925
1696 2957
1696 4526
1696 4594
1696 4735
1697 2024
1697 2672
1697 2675
1697 2697
1697 2844
1697 3049
1697 3544
1697 3898
1697 4009
1697 4049
1697 4053
1697 4256
1697 4782
1697 4925
1697 4981
1698 2028
1698 2382
1698 2595
1698 2650
1698 3305
1698 4538
1698 4551
1698 4649
1698 4664
1698 4690
1698 4906
1699 2052
1699 2111
1699 2158
1699 2638
1699 3006
1699 3009
1699 3097
1699 3515
1699 3794
1699 4592
1699 4743
1699 4862
1700 1733
1700 2312
1700 2555
1700 2706
1700 2726
1700 2900
1700 2976
1700 3125
1700 3290
1700 3459
1700 3616
1700 3975
1700 4065
1700 4345
1700 4451
1700 4602
1700 4759
1701 1985
1701 2052
1701 2206
1701 2315
1701 2512
1701 2653
1701 2797
1701 2982
1701 3551
1701 3594
1701 3632
1701 3635
1701 3721
1701 4554
1701 4954
1702 1812
1702 2491
1702 2529
1702 2666
1702 3308
1702 3403
1702 3432
1702 3666
1702 3753
1702 3777
1702 4495
1702 4533
1703 1892
1703 2364
1703 2892
1703 3383
1703 3707
1703 4732
1703 4797
1703 4922
1704 1888
1704 2216
1704 2415
1704 2471
1704 2947
1704 2951
1704 2957
1704 2977
1704 3023
1704 3044
1704 3448
1704 3615
1704 4454
1704 4692
1704 4943
1705 1933
1705 2061
1705 2367
1705 2459
1705 3165
1705 3252
1705 3325
1705 3380
1705 3689
1705 3925
1705 4411
1705 4608
1706 2374
1706 2520
1706 2865
1706 3046
1706 3241
1706 3551
1706 3608
1706 3704
1706 4071
1707 1720
1707 1733
1707 1823
1707 2432
1707 2523
1707 2666
1707 2713
1707 2737
1707 2834
1707 2972
1707 2988
1707 3003
1707 3037
1707 3043
1707 3176
1707 3674
1707 3950
1707 4030
1707 4823
1708 1796
1708 2069
1708 2097
1708 2222
1708 2251
1708 2467
1708 2518
1708 2746
1708 3319
1708 3496
1708 3731
1708 3830
1708 3860
1708 3877
1708 3907
1708 4336
1708 4560
1708 4635
1708 4697
1708 4912
1709 2375
1709 2408
1709 2459
1709 2811
1709 3473
1709 3660
1709 4072
1710 1819
1710 2061
1710 2653
1710 3695
1710 3711
1710 3713
1710 4067
1710 4241
1710 4324
1710 4620
1711 1980
1711 2397
1711 2776
1711 2961
1711 4067
1711 4079
1711 4180
1711 4756
1712 2367
1712 2407
1712 2434
1712 2596
1712 2603
1712 2644
1712 2974
1712 3403
1712 3594
1712 3652
1712 4012
1712 4076
1712 4438
1712 4552
1713 1728
1713 2229
1713 2489
1713 2561
1713 3128
1713 3167
1713 3266
1713 4216
1713 4235
1713 4426
1713 4500
1713 4692
1714 1797
1714 1937
1714 2448
1714 2487
1714 2491
1714 2528
1714 2834
1714 2914
1714 3290
1714 3308
1714 3536
1714 3731
1714 3930
1714 4060
1714 4558
1714 4788
1715 1841
1715 1927
1715 1946
1715 1953
1715 1970
1715 2540
1715 2652
1715 2708
1715 2943
1715 3355
1715 3360
1715 3371
1715 3463
1715 3560
1715 3655
1715 3814
1715 3897
1715 3940
1715 4457
1715 4521
1715 4614
1715 4620
1715 4732
1715 4914
1715 4930
1716 2032
1716 2746
1716 2892
1716 2969
1716 3034
1716 3575
1716 3607
1716 3677
1716 4010
1716 4589
1716 4621
1716 4669
1717 1733
1717 1799
1717 1817
1717 2217
1717 2412
1717 2432
1717 2539
1717 2680
1717 2799
1717 2887
1717 3420
1717 3523
1717 3546
1717 3570
1717 3616
1717 3651
1717 3683
1717 4064
1717 4117
1717 4224
1717 4266
1717 4428
1717 4497
1717 4655
1717 4796
1717 4928
1718 1768
1718 1797
1718 2033
1718 2145
1718 2625
1718 2771
1718 3080
1718 3182
1718 3373
1718 3413
1718 3704
1718 3868
1718 4176
1719 2159
1719 2347
1719 2530
1719 2911
1719 2969
1719 3273
1719 3825
1719 3992
1719 4350
1719 4840
1719 4961
1720 1774
1720 1940
1720 1948
1720 2049
1720 2082
1720 2195
1720 2369
1720 2472
1720 2939
1720 3024
1720 3086
1720 3090
1720 3114
1720 3364
1720 4052
1720 4242
1720 4509
1720 4944
1720 4951
1720 4969
1721 1784
1721 1796
1721 1868
1721 1945
1721 1986
1721 2237
1721 2318
1721 2898
1721 2963
1721 3061
1721 3072
1721 3664
1721 3717
1721 3727
1721 3796
1721 4057
1721 4079
1721 4163
1721 4223
1721 4457
1721 4660
1721 4701
1722 1764
1722 1777
1722 1820
1722 1910
1722 1957
1722 2573
1722 2654
1722 3027
1722 3296
1722 3342
1722 3482
1722 3489
1722 3744
1722 3981
1722 4068
1722 4195
1722 4690
1722 4806
1723 2566
1723 2956
1723 3011
1723 3039
1723 3156
1723 3514
1723 3644
1723 4541
1723 4564
1723 4655
1723 4806
1724 1925
1724 2370
1724 2494
1724 2511
1724 2903
1724 3119
1724 3165
1724 3166
1724 3270
1724 3432
1724 3476
1724 3521
1724 3659
1724 3961
1724 4112
1724 4285
1724 4384
1724 4531
1724 4619
1724 4747
1724 4793
1725 1919
1725 1933
1725 1940
1725 1949
1725 1987
1725 2020
1725 2041
1725 2141
1725 2425
1725 2441
1725 2555
1725 2566
1725 2590
1725 2633
1725 2678
1725 2783
1725 3057
1725 3118
1725 3125
1725 3167
1725 3205
1725 3275
1725 3298
1725 3350
1725 3416
1725 3503
1725 3511
1725 3559
1725 3617
1725 3627
1725 3629
1725 3722
1725 3727
1725 3931
1725 3979
1725 4010
1725 4018
1725 4022
1725 4055
1725 4086
1725 4501
1725 4612
1725 4643
1725 4676
1725 4717
1725 4749
1725 4773
1725 4777
1725 4778
1725 4823
1725 4827
1725 4902
1725 4910
1726 1816
1726 1887
1726 2077
1726 2352
1726 2495
1726 2997
1726 3560
1726 3743
1726 3972
1726 4111
1726 4123
1726 4596
1726 4978
1726 4989
1726 4990
1727 1796
1727 1823
1727 1888
1727 2027
1727 2030
1727 2205
1727 2396
1727 2793
1727 3197
1727 3526
1727 3642
1727 4003
1727 4013
1727 4106
1727 4266
1727 4892
1728 1732
1728 1824
1728 1878
1728 1937
1728 1957
1728 1996
1728 2470
1728 2536
1728 2583
1728 2657
1728 2685
1728 2701
1728 2704
1728 2768
1728 2800
1728 2814
1728 2826
1728 2891
1728 2939
1728 3014
1728 3025
1728 3069
1728 3070
1728 3129
1728 3189
1728 3213
1728 3215
1728 3242
1728 3282
1728 3351
1728 3396
1728 3420
1728 3569
1728 3599
1728 3608
1728 3624
1728 3726
1728 3742
1728 3756
1728 3791
1728 3862
1728 3876
1728 3903
1728 4039
1728 4051
1728 4286
1728 4336
1728 4355
1728 4381
1728 4448
1728 4562
1728 4619
1728 4626
1728 4677
1728 4734
1728 4790
1729 1859
1729 2208
1729 2279
1729 2389
1729 2495
1729 2995
1729 3273
1729 3541
1729 3706
1729 3781
1729 4019
1729 4164
1729 4293
1729 4419
1729 4560
1729 4858
1730 1748
1730 1787
1730 1880
1730 2070
1730 2129
1730 2571
1730 3175
1730 3431
1730 4428
1730 4664
1730 4976
1731 1826
1731 2001
1731 2558
1731 3040
1731 3134
1731 3688
1731 3723
1731 3823
1731 3985
1731 4393
1731 4474
1731 4793
1731 4937
1732 2290
1732 2579
1732 3004
1732 3880
1732 3960
1732 3962
1732 4136
1732 4212
1732 4777
1733 1968
1733 2432
1733 2657
1733 2706
1733 2809
1733 2945
1733 3131
1733 3677
1733 4137
1733 4166
1734 2733
1734 3373
1734 3379
1734 3394
1734 3440
1734 3483
1734 4029
1734 4690
1734 4865
1734 4986
1735 1919
1735 2163
1735 2418
1735 2538
1735 2954
1735 3670
1735 3749
1735 4085
1735 4180
1735 4277
1735 4682
1735 4691
1735 4770
1736 2010
1736 2512
1736 2664
1736 3109
1736 3438
1736 3600
1736 3631
1736 3704
1736 4206
1736 4212
1736 4236
1737 1984
1737 2922
1737 4094
1737 4216
1737 4290
1737 4399
1737 4479
1737 4717
1737 4826
1738 1834
1738 2180
1738 2221
1738 2368
1738 2503
1738 2596
1738 2603
1738 2845
1738 2890
1738 3085
1738 3400
1738 3535
1738 3601
1738 4365
1738 4406
1738 4521
1738 4836
1739 1790
1739 2030
1739 2841
1739 2853
1739 2855
1739 3193
1739 3554
1739 3862
1739 3902
1739 4038
1739 4045
1739 4266
1739 4853
1739 4857
1739 4900
1740 1782
1740 1827
1740 2080
1740 2090
1740 2243
1740 2261
1740 2283
1740 2702
1740 3067
1740 3655
1740 3826
1740 4057
1740 4214
1740 4520
1740 4959
1741 1762
1741 2073
1741 2261
1741 2382
1741 3011
1741 3238
1741 3296
1741 3482
1741 4138
1741 4308
1741 4428
1741 4664
1741 4688
1742 2149
1742 2342
1742 2676
1742 2860
1742 3169
1742 3303
1742 3314
1742 3332
1742 3393
1742 3413
1742 3436
1742 3507
1742 3622
1742 4112
1742 4299
1742 4390
1742 4553
1742 4790
1742 4865
1743 2473
1743 3689
1743 3706
1743 4323
1743 4344
1743 4387
1743 4465
1743 4869
1743 4918
1744 2496
1744 2539
1744 2540
1744 2792
1744 2906
1744 3129
1744 3426
1744 3884
1744 4211
1745 2116
1745 2188
1745 2214
1745 2865
1745 2933
1745 3311
1745 3372
1745 3376
1745 3570
1745 3636
1745 3805
1745 3820
1745 3871
1745 4178
1745 4180
1745 4228
1745 4683
1745 4752
1745 4802
1745 4813
1746 2004
1746 2451
1746 3178
1746 3422
1746 3426
1746 3985
1746 4057
1746 4540
1746 4568
1746 4671
1747 2102
1747 2318
1747 2457
1747 2598
1747 2689
1747 2746
1747 2832
1747 3057
1747 3243
1747 3717
1747 3754
1747 3853
1747 3922
1747 4011
1747 4071
1747 4181
1747 4261
1747 4576
1747 4638
1747 4714
1748 1841
1748 1847
1748 2137
1748 2143
1748 2187
1748 2206
1748 2264
1748 2563
1748 3051
1748 3067
1748 3397
1748 3811
1748 3918
1748 4162
1748 4170
1748 4629
1748 4941
1748 4965
1749 1758
1749 2273
1749 2430
1749 2473
1749 2746
1749 2776
1749 3189
1749 3572
1749 3782
1749 4165
1749 4231
1749 4241
1749 4323
1749 4432
1749 4754
1749 4864
1750 1777
1750 1778
1750 2631
1750 2810
1750 2838
1750 2882
1750 2893
1750 3442
1750 3463
1750 3702
1750 3712
1750 4126
1750 4210
1750 4893
1750 4934
1750 4995
1751 2016
1751 2130
1751 2214
1751 2308
1751 2492
1751 2786
1751 3270
1751 3656
1751 3782
1751 3818
1751 4006
1751 4268
1751 4635
1751 4768
1751 4851
1751 4900
1752 2328
1752 2470
1752 2563
1752 2676
1752 2832
1752 3042
1752 3306
1752 3328
1752 4037
1752 4297
1752 4551
1752 4627
1752 4878
1753 1780
1753 1899
1753 1956
1753 2035
1753 2213
1753 2504
1753 2758
1753 3399
1753 3433
1753 3846
1753 3992
1753 4175
1753 4732
1754 1774
1754 1910
1754 2363
1754 2601
1754 3214
1754 3224
1754 3343
1754 3824
1754 3953
1754 4099
1755 1798
1755 1929
1755 1946
1755 1980
1755 2056
1755 2640
1755 2877
1755 3422
1755 3579
1755 3848
1755 3852
1755 3895
1755 4017
1755 4057
1755 4220
1755 4297
1755 4339
1755 4580
1755 4590
1755 4635
1755 4923
1756 2052
1756 2848
1756 3066
1756 3401
1756 3638
1756 3683
1756 3840
1756 4100
1756 4228
1756 4246
1756 4562
1756 4642
1756 4699
1756 4779
1757 1823
1757 1912
1757 2086
1757 2910
1757 3171
1757 3392
1757 3419
1757 3658
1757 3908
1757 3937
1757 4200
1757 4617
1757 4702
1757 4845
1758 1810
1758 1883
1758 2014
1758 2085
1758 2097
1758 2859
1758 3004
1758 3047
1758 3201
1758 3449
1758 3624
1758 3649
1758 3674
1759 1891
1759 2046
1759 2216
1759 2720
1759 3227
1759 3552
1759 3602
1759 3716
1759 3740
1759 3745
1759 3875
1759 4037
1759 4307
1759 4987
1760 1804
1760 2054
1760 2387
1760 2710
1760 2919
1760 3038
1760 3114
1760 3133
1760 3360
1760 3590
1760 3876
1760 4218
1760 4231
1760 4393
1760 4518
1760 4540
1760 4713
1760 4722
1760 4849
1760 4969
1760 4970
1760 4997
1761 1922
1761 1952
1761 2069
1761 2087
1761 2771
1761 3888
1761 4002
1761 4478
1761 4541
1761 4785
1761 4875
1762 2151
1762 2279
1762 2336
1762 2370
1762 2839
1762 2855
1762 3356
1762 3806
1762 3861
1762 4366
1762 4633
1762 4774
1762 4787
1762 4819
1762 4856
1763 2028
1763 2393
1763 2735
1763 2977
1763 3406
1763 3478
1763 3624
1763 3679
1763 3681
1763 3851
1763 3953
1763 4665
1764 2337
1764 2510
1764 2650
1764 2739
1764 2838
1764 2935
1764 2975
1764 3022
1764 3029
1764 3203
1764 3366
1764 3537
1764 3631
1764 4109
1764 4121
1764 4267
1764 4483
1764 4489
1764 4549
1764 4825
1764 4833
1764 4923
1764 4936
1765 1782
1765 1884
1765 1939
1765 1949
1765 2063
1765 2163
1765 2187
1765 2197
1765 2327
1765 2328
1765 2344
1765 2419
1765 2448
1765 2549
1765 2563
1765 2604
1765 2653
1765 2697
1765 2914
1765 2970
1765 2979
1765 3050
1765 3092
1765 3319
1765 3372
1765 3403
1765 3569
1765 3612
1765 4009
1765 4049
1765 4122
1765 4246
1765 4297
1765 4365
1765 4386
1765 4662
1765 4775
1765 4911
1766 2097
1766 2455
1766 2693
1766 3020
1766 3470
1766 3474
1766 3594
1766 4551
1766 4771
1766 4790
1766 4878
1767 1828
1767 1875
1767 1940
1767 1970
1767 2038
1767 3938
1767 4201
1767 4206
1767 4489
1767 4667
1768 1959
1768 2072
1768 2130
1768 2462
1768 2463
1768 2627
1768 3103
1768 3290
1768 3711
1768 4091
1768 4244
1768 4247
1768 4364
1768 4374
1768 4402
1768 4712
1768 4780
1768 4942
1769 2053
1769 2341
1769 3525
1769 4090
1769 4159
1769 4273
1769 4330
1769 4803
1769 4902
1770 1890
1770 1902
1770 1985
1770 2040
1770 2052
1770 2274
1770 2424
1770 2521
1770 2550
1770 2601
1770 2624
1770 2677
1770 2782
1770 2903
1770 2906
1770 3427
1770 3526
1770 3621
1770 3691
1770 3978
1770 4379
1770 4452
1771 2139
1771 2342
1771 3158
1771 3381
1771 3387
1771 3547
1771 3575
1771 4406
1771 4446
1771 4767
1771 4864
1772 2112
1772 2145
1772 2202
1772 2397
1772 2514
1772 2637
1772 3034
1772 3138
1772 3189
1772 3241
1772 3324
1772 3450
1772 3507
1772 3875
1772 3922
1772 4050
1772 4366
1772 4432
1772 4807
1773 2160
1773 2304
1773 2566
1773 2802
1773 3139
1773 3249
1773 3384
1773 3436
1773 3586
1773 3749
1773 3768
1773 3820
1773 3876
1773 3921
1773 4093
1773 4103
1773 4290
1773 4623
1773 4832
1773 4989
1773 4997
1774 2036
1774 2075
1774 2948
1774 3190
1774 3214
1774 4429
1775 1829
1775 1921
1775 2034
1775 2159
1775 3216
1775 3325
1775 3516
1775 3609
1775 4363
1775 4609
1775 4777
1776 1805
1776 1893
1776 1909
1776 2172
1776 2177
1776 2739
1776 2849
1776 3044
1776 3277
1776 3729
1776 3794
1776 3928
1777 1803
1777 1824
1777 2081
1777 2222
1777 2421
1777 2640
1777 2817
1777 2856
1777 2876
1777 3463
1777 3546
1777 3773
1777 4061
1777 4206
1777 4275
1777 4350
1777 4363
1777 4404
1777 4490
1777 4521
1777 4634
1777 4672
1777 4785
1777 4855
1778 2082
1778 2252
1778 3020
1778 3212
1778 3343
1778 3492
1778 3531
1778 3571
1778 3875
1778 4047
1778 4107
1778 4209
1778 4393
1778 4731
1779 1859
1779 2096
1779 2122
1779 2436
1779 2501
1779 2572
1779 2704
1779 3002
1779 3107
1779 3121
1779 3302
1779 3335
1779 3347
1779 3396
1779 3500
1779 3543
1779 3596
1779 3853
1779 3948
1779 3981
1779 4099
1779 4101
1779 4314
1779 4364
1779 4374
1779 4417
1779 4430
1779 4470
1779 4486
1779 4559
1779 4617
1779 4871
1780 1798
1780 2103
1780 2109
1780 2226
1780 2459
1780 2834
1780 3124
1780 3136
1780 3196
1780 3306
1781 2388
1781 2464
1781 2576
1781 2763
1781 2866
1781 3281
1781 4244
1781 4349
1781 4487
1781 4690
1782 2230
1782 2328
1782 2746
1782 2842
1782 2866
1782 3160
1782 3352
1782 4298
1782 4630
1782 4679
1782 4733
1782 4934
1783 1787
1783 1806
1783 1859
1783 2697
1783 2930
1783 3328
1783 3731
1783 3828
1783 3934
1783 4144
1784 2140
1784 3207
1784 3504
1784 3622
1784 3956
1784 4238
1784 4269
1784 4881
1784 4893
1785 2205
1785 2837
1785 2994
1785 3092
1785 3511
1785 3607
1785 3625
1785 3637
1785 3800
1785 4488
1785 4741
1785 4812
1786 2123
1786 2469
1786 2486
1786 2546
1786 2604
1786 2782
1786 2880
1786 2919
1786 3005
1786 3797
1786 3821
1786 3975
1786 4053
1786 4134
1786 4163
1786 4638
1786 4928
1787 1967
1787 2135
1787 2157
1787 2297
1787 2546
1787 2627
1787 2658
1787 2750
1787 2790
1787 2845
1787 3029
1787 3682
1787 3887
1787 3943
1787 4138
1787 4257
1787 4336
1787 4339
1787 4497
1787 4500
1787 4720
1787 4765
1787 4801
1787 4999
1788 1832
1788 2070
1788 2216
1788 2563
1788 2641
1788 3196
1788 3513
1788 3810
1788 4075
1788 4291
1788 4690
1788 4778
1788 4810
1788 4814
1789 1987
1789 2150
1789 2156
1789 2740
1789 2837
1789 2882
1789 2969
1789 2992
1789 3054
1789 3633
1789 4137
1789 4165
1789 4455
1789 4849
1789 4902
1789 4936
1790 1974
1790 2256
1790 2642
1790 2985
1790 3442
1790 3810
1790 4403
1790 4754
1791 2487
1791 2540
1791 2818
1791 2880
1791 3042
1791 4203
1791 4206
1791 4911
1792 2034
1792 2091
1792 2573
1792 2592
1792 3129
1792 3555
1792 3777
1792 3979
1792 4185
1792 4621
1792 4668
1792 4902
1792 4923
1793 1957
1793 2517
1793 2661
1793 3002
1793 3034
1793 3191
1793 3271
1793 3317
1793 3381
1793 3771
1793 3929
1793 4297
1793 4321
1793 4514
1793 4717
1793 4758
1793 4764
1793 4772
1794 2131
1794 2314
1794 2357
1794 2473
1794 2874
1794 2919
1794 3045
1794 3351
1794 3359
1794 4319
1794 4538
1795 2063
1795 2158
1795 2432
1795 2692
1795 2871
1795 3054
1795 3158
1795 3210
1795 3801
1795 3835
1795 4043
1795 4191
1795 4486
1796 1840
1796 2467
1796 2655
1796 2665
1796 2681
1796 2771
1796 2859
1796 2897
1796 3122
1796 3133
1796 3379
1796 3419
1796 3928
1796 4071
1796 4878
1797 1979
1797 2090
1797 2418
1797 2491
1797 2528
1797 2570
1797 2834
1797 2875
1797 3027
1797 3238
1797 3252
1797 3482
1797 3805
1797 4233
1797 4939
1798 2046
1798 2390
1798 2637
1798 3028
1798 3389
1798 3665
1798 3848
1798 4539
1799 2838
1799 3357
1799 3619
1799 3706
1799 3879
1799 3893
1799 3958
1799 4063
1799 4276
1799 4622
1800 2080
1800 2302
1800 2954
1800 3042
1800 4181
1800 4395
1800 4732
1801 1899
1801 2115
1801 2227
1801 2627
1801 2774
1801 3043
1801 3626
1801 3853
1801 4192
1801 4471
1801 4902
1801 4949
1802 2148
1802 2199
1802 2523
1802 2591
1802 2719
1802 2832
1802 2973
1802 3224
1802 4244
1802 4395
1802 4406
1802 4581
1802 4953
1803 2583
1803 2951
1803 3149
1803 3270
1803 3540
1803 3592
1803 4150
1803 4480
1803 4487
1803 4823
1804 1846
1804 1894
1804 2120
1804 2189
1804 2709
1804 2731
1804 2946
1804 3070
1804 3386
1804 3684
1804 4130
1804 4352
1804 4464
1805 1906
1805 2029
1805 2398
1805 2418
1805 2475
1805 2647
1805 2688
1805 2828
1805 2843
1805 3000
1805 3068
1805 3141
1805 3624
1805 3636
1805 3820
1805 3961
1805 4133
1805 4218
1805 4752
1805 4834
1806 2049
1806 2136
1806 2163
1806 2373
1806 2375
1806 2946
1806 3054
1806 3641
1806 3650
1806 3731
1806 3820
1806 4576
1807 2009
1807 2160
1807 2636
1807 3219
1807 3315
1807 3531
1807 3749
1807 3896
1807 4107
1807 4626
1808 1842
1808 1848
1808 2020
1808 2075
1808 2617
1808 2863
1808 3054
1808 3507
1808 3589
1808 3890
1808 4056
1808 4826
1808 4876
1809 2390
1809 2697
1809 2885
1809 2943
1809 3196
1809 3313
1809 3355
1809 3739
1809 4030
1809 4576
1810 1877
1810 2313
1810 2330
1810 2416
1810 2738
1810 3180
1810 3394
1810 3486
1810 3715
1810 4096
1810 4213
1810 4245
1810 4919
1811 2462
1811 2547
1811 2597
1811 2611
1811 3157
1811 3167
1811 3590
1811 3742
1811 4717
1811 4791
1811 4897
1811 4987
1812 1884
1812 2097
1812 2946
1812 3062
1812 3063
1812 3067
1812 3092
1812 3231
1812 3393
1812 3464
1812 3485
1812 3593
1812 3727
1812 3850
1812 4112
1812 4226
1812 4436
1812 4437
1812 4466
1812 4539
1812 4891
1813 2065
1813 2217
1813 2257
1813 2367
1813 2369
1813 2412
1813 2457
1813 2745
1813 2843
1813 3045
1813 3139
1813 3378
1813 3570
1813 3636
1813 4047
1813 4219
1813 4410
1813 4576
1813 4578
1813 4832
1813 4928
1814 2347
1814 2642
1814 2999
1814 3140
1814 3195
1814 3449
1814 4309
1814 4415
1814 4589
1815 1987
1815 1994
1815 2105
1815 2198
1815 2340
1815 2440
1815 2479
1815 2516
1815 2746
1815 2878
1815 2969
1815 3013
1815 3055
1815 3192
1815 3207
1815 3209
1815 3217
1815 3400
1815 3557
1815 3653
1815 3699
1815 3868
1815 4094
1815 4135
1815 4383
1815 4484
1815 4560
1815 4664
1815 4836
1815 4995
1816 1829
1816 2010
1816 2085
1816 2193
1816 2329
1816 2570
1816 2751
1816 2796
1816 2989
1816 3121
1816 3216
1816 3328
1816 3715
1816 3790
1816 3830
1816 3848
1816 3887
1816 4217
1816 4621
1816 4889
1817 1874
1817 2421
1817 2458
1817 2915
1817 2926
1817 3085
1817 3136
1817 3441
1817 3573
1817 3594
1817 3603
1817 3685
1817 4037
1817 4166
1817 4214
1817 4683
1817 4978
1818 2072
1818 2185
1818 2572
1818 3260
1818 3513
1818 3595
1818 3826
1818 4004
1819 2292
1819 2379
1819 2497
1819 2618
1819 2907
1819 3211
1819 3298
1819 3305
1819 3382
1819 3453
1819 3762
1819 3867
1819 4059
1819 4359
1819 4555
1819 4598
1819 4792
1819 4860
1820 1841
1820 2109
1820 2380
1820 2609
1820 2645
1820 2782
1820 2903
1820 3004
1820 3013
1820 3133
1820 3236
1820 3385
1820 3449
1820 3514
1820 3601
1820 3648
1820 3882
1820 4100
1820 4576
1821 1892
1821 2232
1821 2652
1821 2775
1821 3348
1821 3547
1821 4001
1821 4448
1821 4644
1821 4775
1821 4825
1822 2025
1822 2318
1822 2367
1822 2459
1822 2472
1822 2584
1822 3269
1822 4456
1822 4638
1822 4837
1822 4914
1822 4957
1823 1834
1823 1939
1823 2522
1823 2687
1823 2771
1823 2777
1823 2920
1823 3264
1823 3308
1823 3364
1823 3448
1823 3465
1823 3521
1823 4086
1823 4416
1823 4488
1823 4545
1823 4586
1823 4868
1823 4898
1823 4976
1824 2082
1824 2094
1824 3182
1824 3497
1824 3753
1824 4052
1824 4161
1824 4193
1824 4576
1824 4780
1824 4868
1824 4949
1824 4976
1825 1957
1825 2474
1825 2806
1825 2898
1825 3394
1826 2045
1826 2173
1826 2418
1826 2706
1826 2856
1826 3374
1826 3604
1826 3681
1826 3939
1826 4235
1826 4412
1826 4485
1826 4895
1827 1931
1827 1987
1827 1997
1827 2318
1827 2459
1827 2542
1827 2706
1827 3239
1827 3251
1827 3333
1827 3574
1827 3928
1827 3991
1827 4034
1827 4331
1827 4365
1827 4386
1827 4514
1827 4655
1827 4792
1828 2265
1828 2318
1828 2575
1828 2766
1828 2843
1828 3465
1828 4321
1828 4489
1829 1837
1829 1868
1829 2277
1829 2411
1829 2650
1829 2664
1829 2731
1829 3078
1829 3536
1829 3871
1830 2118
1830 2242
1830 2337
1830 2864
1830 2890
1830 2907
1830 3063
1830 3097
1830 3100
1830 3299
1830 3329
1830 3615
1830 4790
1831 1877
1831 2044
1831 2111
1831 2140
1831 2486
1831 2729
1831 2800
1831 2836
1831 3409
1831 3500
1831 3544
1831 3545
1831 3618
1831 3772
1831 3928
1831 3966
1831 3984
1831 4343
1831 4458
1831 4734
1831 4820
1832 1899
1832 2089
1832 2676
1832 2949
1832 3163
1832 3265
1832 3407
1832 3462
1832 3571
1832 3976
1832 4067
1832 4249
1833 2047
1833 2633
1833 2858
1833 2885
1833 3467
1833 3920
1833 4283
1834 2014
1834 2015
1834 2040
1834 2097
1834 2337
1834 2544
1834 3214
1834 4367
1834 4402
1834 4639
1834 4902
1834 4903
1835 1949
1835 2049
1835 2115
1835 2486
1835 2709
1835 2835
1835 2858
1835 2926
1835 3109
1835 3160
1835 3273
1835 3873
1835 4161
1835 4451
1835 4539
1835 4697
1835 4777
1835 4925
1836 2106
1836 2597
1836 3269
1836 4592
1836 4919
1836 4982
1836 4998
1837 2027
1837 2133
1837 2828
1837 3208
1837 3284
1837 3557
1837 3827
1837 3911
1837 3995
1837 4251
1837 4296
1837 4355
1837 4995
1838 2408
1838 2650
1838 3216
1838 3375
1838 3867
1838 4168
1838 4398
1838 4748
1839 1849
1839 2015
1839 2534
1839 2556
1839 3323
1839 3460
1839 3476
1839 3490
1839 3553
1839 3737
1839 3774
1839 3799
1839 3927
1839 4075
1839 4228
1840 1895
1840 2157
1840 2402
1840 2415
1840 2708
1840 3056
1840 3228
1840 3298
1840 3420
1840 3830
1840 3955
1840 4085
1840 4246
1840 4255
1840 4865
1841 1855
1841 2208
1841 2210
1841 2277
1841 2355
1841 2422
1841 2471
1841 2741
1841 2848
1841 2855
1841 2858
1841 2989
1841 3005
1841 3291
1841 3376
1841 3660
1841 3678
1841 3910
1841 4061
1841 4099
1841 4210
1841 4233
1841 4365
1841 4472
1841 4768
1841 4793
1842 1863
1842 2312
1842 2828
1842 2948
1842 3412
1842 3424
1842 3442
1842 3487
1842 3657
1842 3756
1842 4381
1842 4467
1842 4640
1842 4804
1843 3393
1843 3574
1843 3582
1843 3838
1843 4465
1844 2490
1844 2834
1844 3144
1844 4107
1845 1956
1845 2164
1845 2170
1845 2213
1845 2242
1845 2291
1845 2295
1845 2329
1845 2359
1845 2892
1845 2915
1845 2954
1845 3023
1845 3121
1845 3432
1845 3911
1845 3936
1845 4188
1845 4278
1845 4382
1845 4870
1846 1910
1846 1934
1846 1980
1846 2183
1846 2261
1846 2301
1846 2904
1846 3177
1846 3478
1846 3525
1846 4180
1846 4182
1846 4468
1846 4537
1846 4580
1846 4664
1846 4813
1847 2131
1847 2471
1847 2676
1847 2772
1847 2971
1847 3986
1847 4152
1847 4189
1847 4620
1848 1919
1848 1934
1848 1976
1848 2057
1848 2447
1848 2544
1848 2828
1848 4292
1848 4344
1848 4802
1848 4858
1848 4875
1849 1936
1849 1987
1849 2039
1849 2080
1849 2194
1849 2586
1849 2601
1849 2685
1849 2982
1849 3095
1849 3314
1849 3318
1849 3359
1849 3923
1849 3950
1849 4139
1849 4203
1849 4317
1849 4934
1850 2133
1850 2250
1850 2566
1850 2733
1850 3080
1850 3438
1850 3600
1850 3795
1850 3832
1850 4196
1850 4359
1851 2609
1851 2927
1851 3157
1851 3167
1851 3220
1851 3677
1851 3796
1851 3886
1851 4132
1851 4407
1851 4488
1851 4692
1851 4741
1851 4814
1852 2000
1852 2055
1852 2416
1852 2464
1852 2552
1852 2639
1852 2730
1852 2873
1852 2881
1852 2925
1852 2963
1852 3026
1852 3915
1852 3975
1852 4486
1852 4850
1853 1855
1853 2089
1853 2390
1853 2679
1853 3495
1853 4048
1853 4430
1854 1870
1854 1978
1854 2002
1854 2167
1854 2298
1854 2444
1854 2746
1854 3333
1854 3747
1854 4441
1855 2374
1855 2509
1855 2683
1855 2889
1855 3037
1855 3097
1855 3125
1855 3486
1855 3635
1855 3685
1855 3704
1855 3994
1855 4141
1855 4356
1855 4600
1855 4644
1855 4731
1855 4881
1855 4941
1856 2015
1856 2023
1856 2408
1856 2496
1856 3358
1856 4063
1856 4364
1856 4776
1857 1935
1857 1985
1857 1987
1857 2155
1857 2590
1857 3460
1857 3787
1857 3825
1857 3835
1857 3914
1857 3938
1857 3952
1857 3973
1857 4857
1857 4923
1857 4978
1858 1894
1858 1907
1858 2119
1858 2298
1858 2371
1858 2480
1858 2483
1858 2725
1858 2861
1858 3042
1858 3080
1858 3307
1858 3844
1858 3925
1858 4037
1858 4169
1858 4238
1859 2318
1859 2867
1859 2995
1859 3203
1859 3657
1859 4054
1859 4058
1859 4909
1860 2090
1860 2706
1860 2935
1860 3014
1860 3358
1860 3810
1860 4272
1860 4287
1860 4732
1860 4913
1860 4999
1861 1909
1861 2697
1861 3245
1861 3294
1861 3469
1861 3691
1861 3820
1861 3904
1861 4017
1861 4738
1861 4814
1861 4895
1862 1891
1862 1895
1862 1897
1862 2802
1862 2965
1862 3148
1862 3167
1862 3815
1862 4173
1862 4677
1862 4731
1863 2575
1863 3043
1863 3121
1863 3221
1863 3226
1863 3826
1863 4145
1863 4324
1863 4362
1863 4468
1864 2179
1864 2373
1864 2486
1864 2955
1864 3171
1864 3683
1864 4259
1864 4838
1865 2473
1865 2706
1865 2852
1865 3475
1865 3514
1865 3787
1865 4058
1866 2464
1866 2827
1866 2934
1866 2988
1866 3066
1866 3817
1866 4090
1866 4473
1866 4496
1866 4726
1866 4759
1866 4824
1866 4937
1867 1945
1867 2415
1867 2631
1867 2908
1867 3409
1867 3439
1867 3591
1867 4210
1867 4275
1867 4782
1867 4850
1867 4909
1868 2819
1868 2844
1868 3142
1868 3539
1868 3574
1868 3576
1868 3810
1868 4437
1868 4573
1868 4692
1868 4717
1868 4746
1869 2328
1869 2641
1869 2898
1869 2903
1869 3407
1869 3423
1869 3940
1869 4192
1869 4575
1869 4848
1870 1916
1870 1959
1870 2021
1870 2318
1870 2598
1870 2998
1870 3025
1870 3059
1870 3097
1870 3515
1870 3702
1870 3996
1870 4070
1870 4186
1870 4471
1870 4553
1870 4935
1871 2095
1871 2317
1871 2515
1871 2639
1871 2776
1871 3121
1871 3689
1871 3939
1871 4210
1871 4297
1871 4737
1872 1907
1872 1989
1872 2293
1872 2650
1872 3383
1872 3400
1872 3727
1872 3838
1872 4027
1872 4185
1872 4273
1873 1922
1873 2453
1873 2963
1873 3075
1873 3174
1873 3283
1873 3334
1873 3572
1873 4023
1873 4183
1873 4346
1874 1969
1874 2214
1874 2596
1874 2747
1874 2834
1874 3020
1874 3091
1874 3293
1874 3308
1874 3374
1874 3383
1874 3785
1874 3798
1874 3941
1874 4011
1874 4021
1874 4086
1874 4467
1874 4619
1874 4728
1874 4738
1874 4803
1874 4829
1875 2051
1875 2132
1875 2858
1875 2985
1875 3190
1875 3683
1875 3897
1875 3980
1875 4426
1875 4801
1875 4866
1875 4902
1875 4909
1876 1928
1876 2114
1876 2351
1876 2364
1876 2623
1876 2873
1876 3535
1876 3820
1876 3940
1876 4097
1876 4822
1876 4865
1877 2505
1877 2518
1877 2535
1877 2820
1877 3468
1877 3759
1877 3860
1877 4319
1877 4693
1877 4775
1877 4916
1878 2167
1878 3167
1878 3402
1878 3822
1878 4091
1878 4110
1878 4364
1878 4540
1878 4598
1878 4666
1879 2112
1879 2558
1879 2806
1879 2825
1879 2985
1879 3025
1879 3268
1879 3307
1879 3657
1879 3716
1879 4097
1879 4163
1879 4644
1879 4758
1879 4851
1880 2322
1880 2387
1880 2623
1880 2690
1880 3366
1880 3398
1880 3555
1880 3609
1880 4354
1880 4511
1880 4636
1880 4690
1880 4858
1880 4914
1881 1992
1881 2074
1881 2192
1881 2503
1881 2839
1881 2866
1881 2906
1881 3000
1881 3167
1881 3186
1881 3254
1881 3483
1881 3536
1881 3816
1881 3980
1881 4334
1881 4546
1881 4660
1881 4728
1881 4883
1881 4905
1881 4934
1882 2087
1882 2407
1882 2762
1882 2958
1882 3051
1882 3103
1882 3135
1882 3306
1882 3319
1882 3412
1882 3473
1882 3577
1882 3619
1882 4473
1882 4567
1883 1924
1883 2058
1883 2105
1883 2233
1883 2370
1883 2378
1883 3057
1883 3293
1883 3568
1884 1917
1884 1939
1884 2079
1884 2090
1884 2511
1884 2718
1884 2865
1884 2895
1884 2979
1884 3095
1884 3117
1884 3503
1884 3782
1884 4095
1884 4328
1884 4536
1884 4674
1885 2038
1885 2129
1885 2295
1885 2497
1885 2863
1885 3126
1885 3418
1885 3610
1885 4235
1886 1939
1886 2033
1886 2121
1886 2528
1886 2637
1886 2739
1886 2998
1886 3045
1886 3187
1886 3401
1886 3423
1886 3953
1886 4060
1886 4079
1886 4112
1886 4541
1886 4600
1886 4799
1886 4850
1886 4909
1887 1937
1887 2175
1887 2204
1887 2428
1887 3023
1887 3340
1887 3568
1887 3896
1887 3912
1887 4415
1887 4790
1888 2211
1888 2262
1888 2362
1888 2570
1888 2608
1888 2622
1888 2792
1888 2967
1888 3064
1888 3397
1888 3427
1888 3577
1888 3743
1888 3786
1888 4299
1888 4316
1888 4527
1888 4721
1889 2019
1889 2060
1889 2505
1889 2605
1889 2797
1889 2949
1889 3065
1889 3585
1889 4448
1889 4467
1889 4618
1889 4791
1889 4858
1889 4982
1890 1981
1890 2011
1890 2021
1890 2029
1890 2030
1890 2186
1890 2218
1890 2546
1890 2563
1890 2566
1890 2590
1890 2819
1890 3096
1890 3564
1890 3748
1890 3764
1890 3946
1890 3974
1890 4190
1890 4337
1890 4512
1891 1907
1891 1927
1891 1956
1891 2140
1891 2295
1891 2371
1891 2399
1891 2792
1891 2860
1891 2870
1891 2954
1891 3080
1891 3122
1891 3384
1891 3480
1891 3664
1891 3739
1891 3959
1891 4091
1891 4129
1891 4144
1891 4176
1891 4211
1891 4516
1891 4666
1892 1936
1892 2004
1892 2147
1892 2226
1892 2748
1892 2888
1892 3102
1892 3723
1892 4255
1892 4308
1892 4585
1892 4654
1892 4730
1892 4938
1893 2094
1893 2208
1893 2348
1893 2400
1893 2522
1893 2705
1893 2826
1893 2935
1893 3186
1893 3335
1893 3643
1893 3896
1893 3975
1893 4011
1893 4202
1893 4263
1893 4410
1893 4721
1893 4795
1893 4824
1894 2139
1894 2152
1894 2456
1894 2766
1894 3140
1894 3155
1894 3568
1894 3924
1894 4552
1895 2019
1895 2020
1895 2298
1895 2841
1895 2990
1895 3050
1895 3596
1895 3744
1895 4529
1895 4575
1895 4689
1895 4749
1895 4755
1896 1975
1896 2025
1896 2037
1896 2279
1896 2635
1896 2697
1896 3146
1896 3173
1896 3219
1896 3271
1896 3438
1896 3442
1896 3469
1896 3986
1896 4029
1896 4082
1896 4107
1896 4252
1896 4413
1896 4579
1896 4743
1896 4772
1897 1982
1897 1986
1897 1997
1897 2067
1897 2069
1897 2170
1897 2330
1897 2469
1897 2476
1897 2759
1897 3027
1897 3074
1897 3162
1897 3372
1897 3508
1897 3590
1897 3734
1897 4217
1897 4311
1897 4327
1897 4398
1897 4406
1897 4429
1897 4564
1897 4732
1897 4737
1897 4840
1897 4943
1897 4965
1898 2156
1898 2209
1898 2398
1898 2627
1898 2849
1898 3465
1898 3826
1898 4285
1898 4328
1898 4545
1899 2050
1899 2173
1899 2213
1899 2689
1899 2961
1899 3332
1899 3399
1899 3518
1899 3530
1899 3707
1899 3829
1899 3938
1899 4290
1899 4618
1899 4828
1899 4886
1899 4915
1900 2163
1900 2379
1900 2547
1900 2703
1900 3607
1900 3653
1900 4164
1900 4563
1900 4949
1901 2374
1901 2399
1901 2557
1901 2663
1901 2681
1901 3802
1901 3915
1901 4095
1901 4365
1901 4439
1901 4585
1901 4609
1901 4655
1901 4677
1902 2380
1902 2642
1902 2650
1902 3103
1902 3248
1902 4264
1902 4404
1902 4472
1902 4560
1903 2096
1903 2425
1903 2464
1903 2652
1903 3046
1903 3509
1903 3836
1903 4415
1903 4662
1903 4795
1903 4937
1904 2103
1904 2177
1904 2449
1904 3349
1904 3409
1904 4470
1904 4540
1904 4597
1905 2357
1905 2389
1905 2922
1905 3299
1905 3314
1905 3431
1905 3591
1905 3753
1905 4681
1905 4875
1905 4914
1906 2041
1906 2131
1906 2213
1906 2286
1906 2490
1906 2638
1906 3043
1906 3231
1906 3268
1906 3352
1906 3579
1906 3608
1906 4035
1906 4176
1906 4524
1906 4537
1906 4692
1906 4927
1906 4935
1907 1943
1907 1956
1907 2066
1907 2088
1907 2110
1907 2319
1907 2363
1907 2395
1907 2641
1907 2729
1907 2934
1907 2987
1907 3104
1907 3212
1907 3285
1907 4140
1907 4349
1907 4542
1907 4595
1907 4664
1907 4732
1907 4805
1907 4944
1908 1968
1908 2564
1908 2796
1908 3753
1908 3834
1908 4275
1908 4519
1908 4582
1909 2033
1909 2175
1909 2315
1909 2712
1909 2963
1909 3157
1909 3170
1909 3712
1909 3999
1909 4062
1909 4556
1909 4634
1909 4938
1909 4956
1910 2320
1910 2376
1910 2834
1910 2959
1910 3027
1910 3150
1910 3271
1910 3325
1910 3431
1910 3472
1910 3482
1910 3536
1910 3598
1910 3612
1910 3677
1910 3747
1910 4092
1910 4247
1910 4824
1911 2288
1911 2532
1911 2783
1911 2868
1911 2945
1911 3157
1911 3255
1911 3315
1911 3486
1911 3650
1911 3939
1911 4019
1911 4208
1911 4244
1911 4447
1912 2038
1912 2052
1912 2100
1912 2222
1912 2399
1912 2566
1912 2955
1912 3004
1912 3010
1912 3231
1912 3272
1912 3627
1912 3639
1912 3647
1912 3722
1912 3836
1912 3876
1912 4283
1912 4595
1912 4662
1912 4713
1913 3011
1913 3032
1913 3153
1913 3157
1913 3385
1913 3718
1913 4240
1913 4323
1913 4638
1913 4992
1914 1940
1914 2060
1914 2182
1914 2394
1914 3019
1914 3546
1914 3572
1914 3705
1914 4180
1914 4672
1914 4959
1915 2015
1915 2112
1915 2741
1915 2837
1915 4325
1915 4641
1915 4673
1915 4709
1915 4891
1916 2019
1916 2073
1916 3261
1916 3310
1916 3322
1916 3394
1916 3546
1916 3921
1916 4116
1916 4230
1916 4556
1917 2036
1917 2353
1917 2418
1917 2539
1917 2615
1917 2935
1917 3305
1917 3317
1917 3319
1917 3340
1917 3523
1917 3526
1917 3687
1917 4108
1917 4244
1917 4516
1917 4530
1917 4695
1917 4722
1917 4858
1917 4889
1918 2593
1918 2627
1918 3178
1918 3448
1918 4202
1918 4205
1918 4350
1918 4540
1918 4706
1918 4938
1919 1943
1919 1967
1919 2268
1919 2445
1919 2768
1919 3264
1919 3301
1919 3412
1919 3456
1919 3468
1919 3835
1919 3992
1919 4167
1919 4306
1919 4332
1919 4340
1919 4541
1919 4785
1919 4795
1920 3402
1920 3414
1920 3883
1920 3994
1920 4152
1920 4366
1920 4794
1921 1929
1921 1982
1921 2890
1921 3054
1921 3163
1921 3565
1921 3754
1921 4183
1921 4455
1921 4873
1921 4954
1922 2216
1922 2402
1922 2565
1922 2609
1922 2745
1922 3313
1922 4333
1922 4340
1922 4341
1922 4538
1922 4748
1922 4832
1923 2618
1923 3048
1923 3297
1923 3421
1923 3824
1923 4127
1923 4482
1923 4581
1923 4841
1924 2235
1924 2265
1924 2555
1924 2567
1924 2717
1924 2766
1924 2808
1924 2822
1924 2885
1924 2954
1924 3050
1924 3415
1924 3440
1924 3469
1924 3475
1924 3567
1924 3594
1924 3657
1924 3701
1924 3780
1924 3911
1924 3926
1924 4307
1924 4446
1924 4551
1924 4558
1924 4570
1925 2890
1925 3098
1925 3165
1925 3235
1925 3572
1925 3718
1925 3729
1925 3758
1925 3762
1925 3945
1925 4595
1926 1956
1926 2010
1926 2140
1926 2173
1926 2288
1926 2656
1926 2689
1926 3042
1926 3522
1926 3623
1926 3672
1926 3707
1926 3826
1926 3860
1926 3948
1926 4317
1926 4452
1926 4684
1926 4755
1926 4850
1926 4863
1927 2004
1927 2023
1927 2172
1927 2466
1927 2650
1927 2680
1927 2917
1927 2954
1927 3141
1927 3359
1927 3427
1927 3820
1927 3944
1927 4124
1927 4470
1927 4679
1927 4755
1928 2023
1928 2083
1928 2237
1928 2980
1928 3103
1928 3233
1928 3567
1928 4545
1929 1978
1929 1998
1929 2188
1929 2249
1929 2704
1929 3006
1929 3110
1929 3159
1929 3214
1929 3345
1929 3497
1929 3620
1929 3910
1929 4301
1929 4516
1929 4864
1930 2168
1930 2349
1930 2395
1930 2819
1930 3110
1930 3700
1930 3739
1930 3762
1930 3856
1930 4089
1930 4347
1930 4438
1931 2126
1931 2237
1931 2336
1931 2500
1931 2898
1931 3052
1931 3056
1931 3318
1931 3388
1931 3432
1931 3478
1931 3685
1931 3984
1931 4069
1931 4160
1931 4629
1931 4723
1931 4740
1931 4850
1932 2032
1932 2136
1932 2402
1932 2808
1932 2911
1932 2935
1932 3856
1932 4241
1933 1940
1933 2409
1933 2883
1933 3167
1933 3323
1933 3618
1933 3643
1933 3826
1933 3917
1933 3924
1933 4150
1933 4380
1934 2480
1934 2646
1934 3776
1934 3804
1934 4626
1934 4682
1935 2004
1935 2039
1935 2156
1935 2209
1935 2289
1935 2297
1935 2322
1935 2325
1935 2426
1935 2864
1935 2963
1935 3142
1935 3260
1935 3340
1935 3417
1935 3621
1935 3772
1935 3952
1935 3995
1935 4006
1935 4109
1935 4110
1935 4135
1935 4156
1935 4262
1935 4346
1935 4578
1935 4834
1935 4923
1935 4935
1936 2124
1936 2330
1936 2358
1936 2457
1936 2470
1936 2542
1936 2590
1936 2612
1936 2685
1936 2944
1936 3001
1936 3026
1936 3028
1936 3047
1936 3184
1936 3338
1936 3373
1936 3553
1936 3618
1936 3634
1936 3676
1936 3726
1936 3796
1936 3923
1936 3972
1936 3996
1936 4165
1936 4203
1936 4267
1936 4281
1936 4284
1936 4313
1936 4595
1936 4740
1936 4826
1936 4931
1936 4993
1937 1973
1937 2283
1937 2479
1937 2516
1937 2631
1937 2715
1937 2817
1937 2838
1937 2873
1937 2910
1937 3284
1937 3295
1937 3324
1937 3413
1937 3490
1937 3609
1937 3745
1937 3856
1937 3939
1937 4077
1937 4085
1937 4219
1937 4689
1937 4739
1938 2071
1938 2318
1938 2488
1938 2524
1938 2572
1938 3465
1938 3529
1938 3801
1938 4093
1938 4183
1938 4794
1938 4838
1938 4964
1939 2132
1939 2506
1939 2641
1939 2968
1939 3007
1939 3260
1939 3477
1939 3701
1939 3930
1939 4103
1939 4172
1939 4539
1939 4658
1939 4680
1939 4781
1939 4943
1940 2108
1940 3514
1940 3843
1940 4441
1940 4664
1940 4863
1940 4953
1941 2101
1941 2606
1941 2739
1941 2751
1941 2853
1941 3030
1941 3039
1941 3495
1941 3563
1941 3665
1941 3670
1941 3980
1941 4084
1941 4731
1941 4829
1941 4967
1942 2166
1942 2344
1942 2363
1942 2519
1942 2628
1942 3007
1942 3043
1942 3152
1942 3773
1942 4035
1942 4154
1943 2269
1943 2286
1943 2645
1943 2689
1943 3034
1943 3060
1943 3124
1943 3916
1943 4140
1943 4250
1943 4278
1943 4351
1943 4470
1943 4594
1943 4670
1943 4677
1943 4797
1943 4962
1944 2048
1944 2520
1944 2746
1944 3555
1944 3786
1944 3977
1944 4405
1944 4628
1944 4795
1944 4885
1945 2234
1945 2303
1945 2701
1945 2898
1945 2979
1945 3005
1945 3071
1945 3193
1945 3374
1945 3493
1945 3998
1945 4039
1945 4040
1945 4268
1945 4415
1945 4459
1945 4480
1945 4547
1945 4633
1946 2375
1946 2418
1946 2587
1946 2997
1946 3088
1946 3308
1946 3328
1946 3433
1946 3874
1946 4410
1946 4555
1946 4597
1946 4788
1947 2159
1947 2253
1947 2584
1947 2912
1947 3005
1947 3196
1947 4026
1947 4145
1947 4214
1947 4416
1947 4522
1947 4531
1947 4830
1947 4869
1947 4915
1947 4955
1948 2024
1948 2053
1948 2329
1948 2333
1948 2786
1948 3022
1948 3285
1948 3702
1948 3925
1948 4038
1948 4179
1948 4294
1948 4337
1948 4543
1948 4639
1948 4934
1949 2640
1949 2697
1949 2754
1949 3278
1949 4224
1949 4709
1949 4939
1950 1989
1950 2265
1950 2270
1950 3193
1950 3234
1950 3407
1950 3409
1950 3492
1950 4137
1950 4180
1950 4512
1950 4893
1951 1979
1951 2906
1951 2967
1951 3379
1951 3426
1951 3898
1951 3943
1951 4689
1951 4901
1951 4937
1952 2052
1952 2143
1952 2190
1952 2405
1952 2909
1952 3033
1952 3173
1952 3465
1952 4174
1952 4460
1952 4652
1952 4809
1953 1954
1953 2562
1953 2722
1953 2805
1953 2863
1953 2967
1953 3028
1953 3386
1953 3627
1953 4764
1954 2015
1954 2046
1954 2056
1954 2367
1954 3066
1954 3110
1954 3512
1954 3751
1954 4154
1954 4488
1955 2486
1955 2488
1955 2515
1955 2954
1955 3015
1955 3042
1955 3432
1955 3509
1955 3625
1955 3714
1955 3910
1955 4037
1955 4117
1955 4238
1955 4446
1955 4959
1956 1999
1956 2052
1956 2109
1956 2132
1956 2447
1956 2486
1956 2540
1956 2560
1956 2593
1956 2594
1956 2704
1956 2761
1956 2784
1956 2813
1956 2828
1956 2858
1956 2912
1956 2916
1956 2964
1956 3031
1956 3065
1956 3110
1956 3196
1956 3255
1956 3328
1956 3432
1956 3457
1956 4188
1956 4379
1956 4447
1956 4470
1956 4655
1956 4730
1956 4931
1956 4942
1956 4955
1956 4983
1957 2067
1957 2081
1957 2352
1957 2537
1957 2576
1957 2590
1957 2830
1957 3091
1957 3282
1957 3400
1957 3549
1957 3701
1957 3770
1957 3941
1957 3975
1957 4032
1957 4391
1957 4396
1957 4399
1957 4563
1957 4623
1957 4672
1957 4749
1957 4795
1957 4877
1957 4942
1958 2016
1958 2037
1958 2369
1958 2638
1958 2813
1958 2990
1958 3280
1958 3387
1958 3451
1958 3592
1958 4333
1958 4442
1958 4556
1958 4819
1959 2307
1959 2361
1959 2588
1959 3163
1959 3629
1959 3919
1959 4067
1959 4082
1959 4591
1959 4626
1960 2232
1960 2567
1960 3166
1960 3840
1960 4048
1960 4320
1960 4395
1960 4476
1960 4491
1960 4822
1961 2834
1961 2915
1961 2967
1961 3178
1961 3469
1961 3570
1961 3789
1961 3808
1961 3838
1961 3957
1961 4116
1961 4253
1962 2834
1962 2994
1962 3015
1962 3157
1962 3470
1962 3485
1962 3980
1962 4626
1962 4953
1963 3745
1963 3928
1963 3944
1963 4213
1963 4309
1963 4314
1963 4344
1963 4529
1963 4858
1964 1988
1964 2187
1964 2483
1964 2588
1964 2818
1964 3306
1964 3624
1964 3669
1964 3844
1964 3910
1964 4169
1964 4278
1964 4448
1964 4470
1964 4498
1964 4673
1964 4952
1964 4962
1964 4988
1965 2269
1965 3156
1965 3181
1965 3416
1965 3426
1965 3434
1965 4291
1966 2065
1966 2117
1966 2352
1966 2726
1966 2753
1966 3115
1966 3217
1966 3331
1966 3787
1966 4638
1967 1987
1967 2103
1967 2917
1967 3668
1967 3703
1967 3877
1967 3891
1967 3934
1967 4070
1967 4244
1967 4385
1967 4428
1967 4620
1967 4664
1967 4829
1968 2082
1968 2187
1968 2191
1968 2808
1968 3022
1968 3196
1968 3504
1968 3787
1968 4189
1968 4396
1968 4432
1968 4555
1969 2172
1969 2302
1969 2466
1969 2532
1969 2614
1969 2704
1969 2946
1969 3032
1969 3166
1969 3506
1969 3860
1969 4139
1969 4359
1969 4560
1969 4584
1969 4874
1970 2151
1970 2600
1970 2892
1970 3048
1970 3167
1970 3555
1970 3713
1970 3726
1970 3975
1970 4043
1970 4880
1970 4931
1970 4998
1971 2257
1971 2367
1971 2373
1971 2481
1971 2748
1971 3017
1971 3480
1971 3709
1971 3737
1971 3853
1971 4536
1971 4580
1971 4583
1971 4769
1971 4786
1971 4801
1971 4865
1971 4880
1971 4930
1972 1995
1972 2176
1972 2225
1972 2280
1972 2340
1972 2717
1972 2986
1972 3049
1972 3094
1972 3350
1972 3430
1972 3745
1972 3922
1972 4175
1972 4287
1973 2014
1973 2228
1973 2388
1973 2533
1973 2768
1973 2789
1973 2921
1973 3018
1973 3054
1973 3156
1973 3435
1973 3576
1973 3688
1973 3753
1973 3802
1973 4052
1973 4244
1973 4267
1973 4297
1973 4893
1973 4907
1973 4924
1974 2274
1974 2327
1974 2683
1974 2749
1974 2797
1974 2906
1974 3473
1974 3479
1974 3574
1974 3940
1974 4109
1974 4385
1974 4930
1975 2202
1975 2819
1975 2851
1975 2880
1975 3479
1975 3788
1975 3930
1975 4144
1975 4406
1975 4634
1976 2083
1976 2319
1976 2637
1976 2687
1976 3024
1976 3466
1976 3652
1976 3674
1976 3840
1976 3939
1976 4227
1976 4396
1976 4539
1976 4897
1977 2053
1977 2105
1977 2127
1977 2144
1977 2194
1977 2233
1977 2370
1977 2520
1977 2845
1977 3057
1977 3566
1977 3631
1977 3792
1977 4044
1977 4316
1977 4462
1977 4602
1977 4692
1978 1979
1978 2084
1978 2493
1978 3360
1978 3529
1978 3768
1978 4019
1978 4228
1978 4275
1978 4651
1978 4973
1979 1997
1979 2014
1979 2105
1979 2305
1979 2306
1979 2564
1979 2634
1979 2664
1979 2751
1979 2821
1979 2849
1979 3054
1979 3122
1979 3369
1979 3527
1979 3715
1979 3801
1979 3856
1979 3914
1979 4052
1979 4056
1979 4078
1979 4318
1979 4372
1979 4390
1979 4431
1979 4707
1979 4789
1980 1981
1980 2333
1980 2338
1980 2573
1980 2674
1980 2786
1980 3023
1980 3037
1980 3202
1980 3322
1980 3480
1980 3510
1980 3544
1980 3852
1980 3969
1980 4155
1980 4339
1980 4400
1980 4497
1980 4671
1980 4753
1980 4816
1980 4853
1981 2145
1981 2236
1981 2314
1981 2390
1981 2503
1981 3121
1981 3161
1981 3162
1981 3232
1981 3343
1981 3689
1981 3817
1981 3891
1981 3911
1981 4049
1981 4097
1981 4295
1981 4408
1981 4541
1981 4852
1981 4981
1982 2104
1982 2808
1982 3314
1982 3671
1982 4600
1982 4824
1982 4976
1983 2104
1983 2191
1983 2318
1983 2367
1983 2405
1983 2833
1983 3281
1983 3503
1983 3543
1983 3820
1983 4106
1983 4294
1983 4427
1983 4671
1984 2049
1984 2173
1984 2262
1984 2304
1984 2382
1984 2671
1984 2749
1984 2819
1984 3018
1984 3086
1984 3336
1984 3714
1984 4244
1984 4403
1984 4475
1984 4752
1984 4827
1985 2095
1985 2590
1985 2619
1985 2890
1985 3623
1985 3706
1985 3751
1985 3903
1985 3993
1985 4199
1985 4511
1985 4811
1986 2190
1986 2725
1986 2880
1986 3082
1986 3760
1986 4048
1986 4428
1986 4479
1986 4702
1986 4902
1986 4907
1987 2028
1987 2276
1987 2342
1987 2419
1987 2562
1987 2569
1987 2592
1987 2639
1987 2744
1987 2839
1987 2903
1987 2963
1987 3103
1987 3458
1987 3697
1987 3787
1987 3938
1987 3971
1987 4095
1987 4165
1987 4262
1987 4338
1987 4348
1987 4609
1987 4685
1987 4772
1987 4778
1987 4990
1988 2015
1988 3072
1988 3155
1988 3322
1988 3372
1988 3527
1988 3616
1988 3777
1988 4292
1988 4523
1988 4711
1988 4911
1989 2001
1989 2026
1989 2256
1989 2302
1989 2548
1989 2666
1989 2706
1989 2713
1989 2802
1989 2916
1989 2971
1989 3696
1989 3859
1989 4015
1989 4345
1989 4546
1989 4584
1990 2073
1990 2310
1990 2464
1990 2515
1990 3189
1990 4014
1990 4193
1990 4385
1991 2390
1991 2502
1991 2625
1991 3081
1991 4226
1991 4432
1991 4656
1991 4850
1992 2189
1992 2243
1992 2363
1992 2930
1992 3197
1992 3278
1992 3493
1992 3544
1992 3837
1992 4106
1992 4113
1992 4350
1992 4415
1992 4770
1993 2141
1993 2195
1993 2238
1993 2451
1993 3333
1993 3491
1993 3631
1993 4588
1993 4801
1994 2011
1994 2096
1994 2207
1994 2490
1994 2510
1994 2583
1994 2906
1994 3072
1994 3170
1994 3420
1994 3589
1994 3863
1994 4097
1994 4199
1995 2295
1995 2538
1995 3233
1995 3234
1995 3281
1995 3504
1995 4134
1995 4440
1995 4489
1995 4571
1996 2286
1996 2402
1996 3012
1996 3354
1996 3489
1996 4129
1996 4149
1996 4279
1997 2754
1997 3135
1997 3587
1997 3753
1997 3762
1997 3976
1997 4634
1997 4819
1998 2413
1998 2504
1998 2508
1998 2808
1998 3002
1998 4442
1998 4623
1999 2088
1999 2140
1999 2218
1999 2613
1999 2897
1999 2924
1999 3008
1999 3405
1999 3992
1999 4048
2000 2042
2000 2065
2000 2139
2000 2424
2000 2865
2000 3042
2000 3112
2000 3310
2000 3724
2000 3787
2000 3918
2000 4762
2000 4772
2001 2313
2001 3144
2001 3147
2001 3501
2001 3636
2001 3825
2001 3992
2001 4586
2001 4618
2001 4973
2002 2303
2002 2330
2002 2490
2002 2499
2002 2705
2002 2800
2002 3409
2002 3482
2002 3492
2002 3624
2002 3714
2002 3886
2002 4078
2002 4095
2002 4323
2003 2166
2003 2550
2003 2722
2003 2847
2003 2938
2003 2982
2003 3055
2003 3111
2003 3145
2003 3394
2003 3584
2003 3925
2003 3928
2003 4160
2003 4165
2003 4189
2003 4419
2003 4555
2003 4685
2003 4767
2003 4850
2004 2045
2004 2079
2004 2104
2004 2145
2004 2490
2004 2870
2004 3107
2004 3558
2004 3701
2004 3845
2004 3973
2004 4077
2004 4080
2004 4255
2004 4682
2004 4743
2005 2125
2005 2407
2005 2414
2005 2578
2005 2707
2005 2875
2005 3043
2005 3048
2005 3564
2005 3594
2005 3911
2005 3979
2005 4010
2005 4049
2005 4076
2005 4210
2005 4292
2006 2477
2006 2881
2006 3034
2006 3044
2006 3071
2006 3193
2006 3435
2006 3520
2006 3666
2006 4126
2006 4160
2006 4436
2006 4600
2007 2022
2007 2318
2007 2667
2007 2887
2007 2972
2007 3068
2007 3147
2007 3257
2007 3476
2007 3485
2007 4148
2007 4431
2007 4647
2007 4865
2008 2691
2008 2760
2008 2772
2008 2784
2008 2921
2008 2975
2008 3079
2008 3235
2008 3346
2008 4185
2008 4680
2008 4727
2008 4811
2009 2090
2009 2092
2009 2157
2009 2408
2009 3017
2009 3231
2009 3342
2009 3364
2009 3438
2009 3765
2009 3889
2009 3969
2009 4180
2009 4215
2009 4294
2009 4655
2009 4712
2009 4713
2009 4799
2009 4924
2009 4982
2010 2047
2010 2104
2010 2142
2010 2435
2010 2634
2010 2650
2010 2712
2010 2796
2010 3105
2010 3325
2010 3497
2010 3631
2010 4204
2010 4221
2010 4391
2010 4566
2010 4603
2010 4660
2011 2240
2011 2396
2011 2451
2011 2480
2011 2925
2011 2943
2011 3168
2011 3556
2011 3764
2011 4193
2011 4200
2011 4293
2011 4337
2011 4481
2011 4925
2012 2355
2012 2358
2012 3018
2012 3130
2012 3599
2012 3682
2012 4512
2012 4702
2012 4768
2013 2665
2013 2775
2013 3889
2013 4204
2013 4450
2013 4526
2013 4920
2014 2020
2014 2074
2014 2492
2014 2540
2014 2610
2014 2715
2014 2762
2014 2837
2014 2863
2014 3487
2014 3963
2014 4004
2014 4052
2014 4137
2014 4307
2014 4704
2014 4716
2014 4884
2015 2196
2015 2833
2015 2947
2015 2957
2015 3174
2015 3328
2015 3435
2015 3555
2015 3576
2015 3643
2015 3708
2015 3840
2015 3912
2015 4010
2015 4050
2015 4349
2015 4574
2015 4588
2015 4623
2015 4699
2015 4747
2015 4758
2015 4909
2015 4912
2016 2594
2016 2825
2016 3129
2016 3159
2016 3205
2016 3294
2016 3386
2016 3483
2016 3938
2016 4232
2016 4334
2016 4349
2016 4427
2016 4526
2016 4865
2017 2289
2017 2322
2017 2348
2017 2656
2017 2737
2017 3191
2017 3287
2017 3902
2017 4234
2017 4771
2017 4898
2017 4900
2018 2027
2018 2032
2018 2512
2018 2869
2018 3004
2018 3069
2018 3725
2018 4244
2018 4267
2018 4737
2018 4902
2018 4917
2019 2653
2019 2881
2019 2958
2019 3106
2019 3369
2019 3857
2019 4054
2019 4097
2019 4367
2019 4368
2019 4429
2019 4555
2019 4671
2019 4721
2020 2669
2020 2843
2020 2863
2020 2917
2020 3027
2020 3297
2020 3631
2020 3641
2020 4310
2020 4470
2020 4651
2021 2937
2021 2955
2021 3650
2021 4441
2022 2089
2022 2131
2022 2219
2022 2676
2022 2821
2022 3207
2022 3310
2022 3939
2022 3960
2022 4759
2022 4919
2023 2173
2023 2181
2023 2213
2023 2786
2023 2916
2023 3080
2023 3167
2023 3717
2023 3794
2023 3910
2023 4756
2023 4903
2024 2324
2024 2377
2024 2509
2024 2631
2024 2649
2024 2885
2024 3006
2024 3504
2024 3640
2024 3671
2024 3813
2024 3856
2024 4289
2024 4623
2024 4978
2025 2168
2025 2601
2025 2971
2025 3342
2025 3381
2025 3753
2025 3905
2025 4493
2025 4690
2025 4823
2025 4849
2026 2027
2026 2203
2026 2252
2026 2324
2026 2419
2026 2890
2026 2929
2026 2999
2026 3024
2026 3075
2026 3089
2026 4558
2026 4656
2026 4880
2027 2152
2027 2154
2027 2325
2027 2423
2027 2480
2027 2609
2027 2680
2027 2801
2027 2820
2027 2991
2027 3064
2027 3164
2027 3693
2027 3879
2027 3945
2027 4449
2027 4551
2027 4616
2027 4631
2027 4676
2027 4761
2027 4907
2027 4927
2028 2263
2028 2822
2028 3167
2028 3184
2028 3291
2028 3621
2028 3676
2028 4071
2028 4109
2028 4203
2028 4238
2028 4598
2028 4702
2028 4956
2029 2393
2029 2823
2029 2922
2029 2961
2029 3749
2029 3824
2029 4034
2029 4054
2029 4245
2029 4360
2029 4927
2030 2268
2030 2291
2030 2396
2030 2676
2030 2732
2030 2832
2030 2945
2030 2982
2030 3127
2030 3383
2030 3488
2030 3850
2030 3898
2030 3900
2030 4021
2030 4065
2030 4067
2030 4105
2030 4147
2030 4242
2030 4265
2030 4600
2030 4621
2030 4794
2030 4867
2031 2161
2031 2240
2031 2363
2031 2770
2031 3085
2031 3381
2031 4134
2031 4902
2032 2218
2032 2301
2032 2690
2032 2710
2032 2774
2032 3008
2032 3054
2032 3447
2032 3622
2032 3712
2032 3939
2032 4067
2032 4253
2032 4403
2032 4788
2032 4934
2033 2060
2033 2332
2033 2670
2033 2733
2033 2742
2033 3023
2033 3521
2033 3966
2033 4146
2033 4199
2033 4459
2033 4798
2033 4923
2034 2239
2034 2257
2034 2307
2034 2536
2034 2560
2034 2757
2034 2864
2034 2942
2034 2954
2034 2967
2034 3212
2034 3261
2034 3430
2034 3458
2034 3513
2034 3654
2034 3794
2034 3838
2034 4019
2034 4093
2034 4094
2034 4253
2034 4563
2034 4656
2034 4700
2034 4761
2034 4781
2034 4794
2034 4920
2034 4939
2035 2048
2035 2165
2035 2166
2035 2192
2035 2312
2035 2326
2035 2377
2035 2746
2035 3033
2035 3226
2035 3403
2035 3465
2035 3919
2035 4145
2035 4214
2036 2175
2036 2176
2036 2213
2036 2567
2036 2662
2036 2805
2036 2968
2036 2974
2036 3048
2036 3245
2036 3268
2036 3360
2036 3370
2036 3425
2036 3434
2036 3439
2036 3529
2036 3761
2036 3848
2036 4085
2036 4097
2036 4531
2036 4955
2036 4970
2037 2084
2037 2428
2037 2487
2037 2657
2037 2965
2037 3146
2037 3153
2037 3417
2037 3632
2037 4052
2037 4281
2037 4420
2037 4499
2037 4922
2038 2153
2038 2690
2038 2773
2038 2815
2038 2880
2038 2890
2038 3037
2038 3146
2038 3269
2038 3709
2038 3786
2038 3898
2038 3969
2038 4074
2038 4206
2038 4468
2039 2051
2039 2061
2039 2389
2039 2521
2039 2534
2039 2586
2039 2653
2039 2669
2039 2907
2039 3020
2039 3175
2039 3287
2039 3488
2039 3646
2039 3849
2039 4089
2039 4149
2039 4165
2039 4262
2039 4265
2039 4280
2039 4492
2039 4586
2039 4730
2039 4814
2039 4835
2039 4841
2039 4871
2039 4876
2040 2552
2040 2556
2040 2590
2040 2592
2040 2685
2040 2733
2040 2841
2040 2892
2040 2926
2040 2996
2040 3056
2040 3184
2040 3263
2040 3301
2040 3340
2040 3373
2040 3428
2040 3572
2040 3621
2040 3720
2040 3787
2040 3896
2040 3923
2040 3938
2040 4110
2040 4165
2040 4258
2040 4408
2040 4450
2040 4655
2040 4663
2040 4923
2040 4993
2041 2797
2041 2946
2041 3868
2041 3924
2041 4185
2041 4909
2042 2259
2042 2633
2042 2755
2042 2781
2042 3026
2042 3314
2042 3401
2042 3925
2042 4003
2042 4529
2042 4648
2042 4775
2042 4980
2043 2052
2043 2456
2043 2778
2043 2797
2043 2822
2043 3621
2043 3632
2043 4451
2043 4566
2043 4743
2043 4845
2044 2057
2044 2363
2044 2448
2044 2810
2044 3062
2044 3373
2044 3782
2044 4605
2045 2562
2045 3052
2045 3072
2045 3682
2045 4143
2045 4200
2045 4481
2045 4690
2045 4694
2045 4796
2045 4944
2046 2075
2046 2243
2046 2458
2046 2607
2046 2709
2046 2813
2046 3009
2046 3051
2046 3365
2046 3451
2046 3465
2046 3776
2046 3879
2046 3983
2046 4019
2046 4097
2046 4145
2046 4464
2046 4499
2046 4818
2047 2122
2047 2187
2047 2784
2047 2912
2047 3025
2047 3465
2047 4037
2048 2088
2048 2107
2048 2492
2048 2767
2048 3116
2048 3271
2048 3372
2048 3556
2048 3558
2048 3689
2048 3746
2048 3944
2048 4219
2048 4268
2048 4389
2049 2091
2049 2100
2049 2282
2049 2312
2049 2455
2049 2564
2049 2628
2049 2633
2049 3057
2049 3065
2049 3104
2049 3183
2049 3217
2049 3310
2049 3361
2049 3418
2049 3689
2049 3880
2049 3881
2049 3884
2049 4216
2049 4219
2049 4672
2049 4709
2049 4847
2049 4940
2049 4998
2050 2114
2050 2423
2050 2430
2050 2441
2050 2520
2050 2645
2050 3060
2050 3297
2050 3621
2050 3803
2050 4084
2050 4101
2051 2077
2051 2262
2051 2467
2051 2471
2051 2733
2051 2819
2051 3078
2051 3196
2051 3439
2051 3441
2051 3519
2051 3754
2051 4016
2051 4914
2051 4989
2052 2069
2052 2078
2052 2124
2052 2145
2052 2219
2052 2311
2052 2361
2052 2381
2052 2469
2052 2512
2052 2546
2052 2559
2052 2699
2052 2742
2052 2764
2052 2848
2052 3141
2052 3168
2052 3280
2052 3444
2052 3516
2052 3600
2052 3609
2052 3612
2052 3613
2052 3632
2052 3657
2052 3668
2052 3690
2052 3794
2052 3822
2052 3886
2052 3937
2052 4054
2052 4105
2052 4235
2052 4271
2052 4401
2052 4452
2052 4497
2052 4505
2052 4644
2052 4658
2052 4673
2052 4896
2053 2151
2053 2198
2053 2270
2053 2305
2053 2696
2053 2828
2053 3109
2053 3144
2053 3186
2053 3555
2053 3762
2053 3826
2053 3868
2053 3893
2053 4029
2053 4137
2053 4201
2053 4275
2053 4284
2053 4304
2054 2235
2054 2247
2054 2320
2054 2358
2054 2543
2054 2560
2054 3004
2054 3064
2054 3178
2054 3590
2054 3615
2054 4375
2054 4508
2054 4790
2054 4891
2055 2479
2055 2826
2055 2863
2055 3022
2055 3486
2055 3921
2055 3980
2055 4001
2055 4884
2056 2111
2056 2271
2056 2294
2056 2363
2056 2694
2056 2800
2056 2900
2056 3013
2056 3147
2056 3277
2056 3419
2056 3607
2056 3824
2056 3869
2056 3913
2056 4244
2056 4757
2056 4875
2057 2089
2057 3371
2057 3401
2057 3431
2057 3935
2057 4311
2057 4429
2057 4433
2057 4626
2058 2099
2058 2106
2058 2204
2058 2256
2058 2389
2058 2621
2058 2691
2058 2738
2058 3128
2058 3203
2058 3225
2058 3276
2058 3714
2058 3834
2058 3944
2058 4009
2058 4076
2058 4099
2058 4209
2058 4309
2058 4378
2058 4762
2059 2382
2059 2386
2059 2607
2059 2649
2059 2692
2059 2766
2059 3173
2059 3396
2059 3540
2059 3838
2059 3918
2059 4183
2059 4204
2059 4220
2059 4398
2059 4490
2059 4548
2059 4790
2059 4808
2059 4858
2060 2087
2060 2253
2060 2399
2060 2451
2060 2576
2060 2943
2060 3094
2060 3096
2060 3109
2060 3135
2060 3170
2060 3344
2060 3453
2060 3543
2060 3704
2060 3958
2060 4034
2060 4122
2060 4218
2060 4324
2060 4393
2060 4448
2060 4666
2060 4849
2061 2228
2061 2866
2061 2974
2061 3112
2061 3184
2061 3188
2061 3314
2061 3519
2061 3590
2061 3940
2061 4204
2061 4321
2061 4923
2061 4993
2062 2265
2062 2506
2062 2518
2062 2588
2062 2646
2062 2660
2062 3308
2062 3390
2062 3402
2062 3415
2062 3465
2062 3484
2062 3732
2062 3783
2062 4817
2063 2092
2063 2121
2063 2157
2063 2179
2063 2263
2063 2283
2063 2744
2063 2864
2063 3131
2063 3226
2063 3389
2063 3441
2063 3465
2063 3622
2063 4164
2063 4214
2063 4290
2063 4453
2063 4559
2063 4562
2063 4635
2063 4646
2063 4763
2063 4877
2064 2078
2064 2231
2064 2486
2064 2490
2064 2551
2064 3015
2064 3195
2064 3318
2064 3596
2064 3742
2064 3832
2064 3912
2064 4002
2064 4961
2065 2602
2065 2681
2065 2731
2065 2843
2065 3114
2065 3143
2065 3413
2065 3775
2065 3815
2065 4083
2065 4810
2065 4830
2066 2089
2066 2408
2066 2589
2066 2786
2066 3993
2066 4065
2066 4525
2066 4621
2067 2329
2067 2642
2067 2710
2067 2842
2067 3035
2067 4111
2067 4542
2067 4643
2068 2162
2068 2239
2068 2321
2068 2363
2068 2421
2068 2731
2068 3010
2068 3024
2068 3062
2068 3212
2068 3423
2068 3581
2068 3960
2068 4041
2068 4072
2068 4414
2068 4428
2068 4475
2068 4582
2068 4704
2069 2279
2069 2400
2069 2607
2069 2747
2069 3075
2069 3079
2069 3147
2069 3163
2069 3284
2069 4308
2070 2139
2070 2244
2070 2430
2070 2542
2070 2779
2070 3751
2070 3950
2070 4156
2070 4347
2070 4842
2070 4954
2071 2089
2071 2320
2071 2542
2071 3577
2071 3620
2071 4070
2071 4096
2071 4340
2071 4556
2071 4626
2071 4629
2071 4739
2072 2266
2072 2432
2072 2649
2072 2828
2072 3561
2072 3583
2072 3868
2072 4056
2072 4151
2072 4490
2072 4739
2072 4929
2072 4967
2073 2088
2073 2226
2073 2261
2073 2300
2073 2500
2073 2527
2073 2647
2073 2712
2073 2767
2073 2822
2073 2906
2073 2917
2073 2937
2073 3088
2073 3362
2073 3388
2073 3438
2073 3691
2073 3724
2073 3848
2073 3952
2073 3964
2073 3970
2073 4138
2073 4190
2073 4339
2073 4391
2073 4427
2073 4430
2073 4569
2073 4580
2073 4808
2073 4809
2073 4934
2074 2210
2074 2224
2074 2406
2074 2407
2074 2554
2074 2762
2074 2880
2074 2893
2074 2953
2074 2989
2074 3013
2074 3054
2074 3118
2074 3270
2074 3397
2074 3494
2074 3564
2074 3693
2074 3742
2074 3952
2074 3963
2074 3970
2074 3979
2074 3980
2074 3995
2074 4040
2074 4139
2074 4161
2074 4340
2074 4689
2074 4804
2074 4878
2074 4883
2074 4902
2074 4906
2074 4919
2074 4940
2075 2965
2075 3313
2075 3494
2075 3576
2075 3658
2075 3949
2075 4192
2075 4284
2075 4459
2075 4540
2075 4617
2075 4726
2075 4887
2075 4952
2076 2129
2076 2615
2076 2782
2076 2900
2076 2945
2076 3100
2076 3356
2076 3581
2076 3587
2076 3592
2076 3737
2076 4270
2077 2084
2077 2318
2077 2932
2077 3134
2077 3391
2077 3475
2077 3572
2077 3608
2077 3853
2077 3925
2077 4198
2077 4411
2077 4946
2078 2089
2078 2343
2078 2436
2078 3175
2078 3540
2078 3693
2078 3886
2078 4237
2078 4415
2078 4558
2078 4852
2079 2122
2079 2439
2079 2903
2079 2980
2079 3063
2079 3147
2079 4095
2079 4415
2079 4789
2080 2190
2080 2399
2080 2627
2080 3016
2080 3226
2080 3412
2080 3459
2080 3951
2080 3996
2080 4005
2080 4035
2080 4057
2080 4346
2080 4749
2081 2366
2081 2729
2081 2802
2081 2859
2081 3044
2081 3086
2081 3671
2081 3710
2081 3885
2081 4134
2081 4163
2081 4189
2081 4190
2081 4280
2081 4410
2081 4636
2082 2091
2082 2114
2082 2331
2082 2420
2082 2705
2082 2763
2082 3014
2082 3038
2082 3090
2082 3203
2082 3266
2082 3355
2082 3668
2082 3727
2082 3750
2082 3792
2082 3993
2082 4076
2082 4095
2082 4126
2082 4158
2082 4323
2082 4509
2082 4534
2082 4560
2082 4750
2082 4991
2083 2349
2083 2969
2083 3196
2083 3287
2083 3315
2083 3501
2083 3746
2083 3963
2083 4048
2083 4188
2083 4238
2083 4292
2083 4575
2083 4758
2083 4962
2084 2304
2084 2654
2084 2835
2084 3122
2084 3144
2084 3324
2084 3577
2084 3643
2084 3665
2084 3733
2084 3746
2084 3812
2084 3813
2084 3913
2084 4015
2084 4174
2084 4476
2084 4556
2085 2222
2085 2609
2085 3464
2085 4157
2085 4243
2085 4704
2086 2174
2086 3017
2086 3132
2086 3555
2086 3901
2086 4313
2086 4642
2086 4737
2087 2417
2087 2543
2087 2576
2087 3264
2087 3404
2087 3730
2087 3935
2087 4048
2087 4245
2087 4337
2087 4362
2087 4393
2087 4546
2087 4858
2088 2092
2088 2603
2088 3931
2088 4152
2088 4585
2088 4644
2088 4698
2089 2148
2089 2238
2089 2327
2089 2442
2089 2481
2089 2587
2089 2589
2089 2805
2089 2875
2089 2891
2089 2975
2089 3023
2089 3028
2089 3057
2089 3081
2089 3087
2089 3098
2089 3120
2089 3214
2089 3240
2089 3303
2089 3363
2089 3390
2089 3447
2089 3550
2089 3564
2089 3640
2089 3743
2089 3759
2089 3868
2089 3949
2089 3989
2089 4045
2089 4067
2089 4144
2089 4151
2089 4192
2089 4203
2089 4364
2089 4386
2089 4466
2089 4521
2089 4563
2089 4584
2089 4719
2089 4822
2089 4864
2089 4867
2089 4904
2089 4994
2090 2340
2090 2801
2090 3465
2090 3488
2090 3679
2090 3704
2090 3826
2090 3913
2090 4244
2090 4318
2090 4466
2090 4506
2090 4709
2090 4889
2091 2527
2091 2549
2091 2768
2091 2799
2091 2917
2091 3035
2091 3079
2091 3117
2091 3213
2091 4076
2091 4095
2091 4197
2091 4209
2091 4325
2091 4573
2091 4850
2092 2173
2092 2267
2092 2283
2092 2772
2092 3168
2092 3466
2092 4055
2092 4257
2092 4524
2092 4729
2093 2152
2093 2379
2093 2492
2093 2690
2093 2818
2093 3334
2093 3465
2093 3851
2093 3972
2093 4157
2093 4173
2093 4269
2093 4813
2094 2097
2094 2725
2094 2803
2094 2979
2094 3356
2094 3595
2094 3597
2094 3677
2094 3911
2094 4112
2094 4563
2094 4610
2095 2311
2095 2374
2095 2405
2095 2525
2095 2578
2095 2640
2095 2652
2095 2694
2095 2764
2095 2869
2095 2906
2095 2913
2095 3121
2095 3477
2095 3489
2095 3522
2095 3541
2095 3738
2095 3794
2095 3905
2095 4000
2095 4009
2095 4114
2095 4118
2095 4249
2095 4295
2095 4384
2095 4928
2096 2231
2096 2236
2096 2387
2096 2462
2096 2477
2096 2490
2096 2610
2096 2816
2096 2999
2096 3318
2096 3327
2096 3542
2096 3604
2096 3724
2096 3827
2096 4066
2096 4319
2096 4703
2096 4870
2097 2287
2097 2324
2097 2365
2097 2893
2097 3071
2097 3348
2097 3541
2097 3591
2097 3595
2097 3769
2097 3850
2097 3857
2097 3899
2097 3918
2097 3936
2097 3987
2097 4250
2097 4275
2097 4682
2097 4697
2097 4914
2097 4918
2098 2360
2098 2905
2098 3098
2098 3162
2098 3258
2098 3323
2098 3379
2098 3838
2098 3898
2098 4066
2098 4292
2098 4732
2098 4821
2099 2436
2099 2622
2099 3114
2099 3119
2099 3361
2099 3499
2099 3714
2099 3736
2099 4095
2099 4197
2099 4224
2099 4323
2100 2114
2100 2183
2100 2420
2100 2448
2100 2633
2100 3018
2100 3043
2100 3059
2100 3114
2100 3477
2100 3992
2100 4341
2101 2198
2101 2359
2101 2406
2101 2418
2101 2519
2101 2649
2101 3084
2101 3649
2101 3990
2101 4202
2101 4204
2101 4605
2101 4983
2102 2135
2102 2231
2102 2275
2102 2341
2102 2563
2102 2636
2102 2671
2102 2842
2102 3004
2102 3154
2102 3167
2102 3311
2102 3690
2102 3792
2102 4254
2102 4337
2102 4923
2103 2332
2103 2470
2103 2863
2103 3297
2103 3387
2103 3581
2103 4008
2103 4081
2103 4428
2103 4556
2104 2193
2104 2312
2104 2341
2104 2697
2104 2988
2104 3590
2104 3663
2104 3850
2104 3975
2104 4411
2104 4433
2104 4436
2104 4741
2104 4753
2104 4763
2105 2144
2105 2233
2105 2520
2105 3056
2105 3057
2105 3180
2105 3216
2105 3424
2105 3457
2105 3552
2105 4290
2105 4412
2105 4425
2105 4450
2105 4541
2105 4582
2105 4597
2105 4686
2105 4772
2106 2615
2106 2633
2106 2744
2106 2780
2106 3119
2106 3183
2106 3257
2106 3609
2106 4041
2106 4078
2106 4272
2107 2224
2107 3029
2107 3297
2107 3547
2107 3595
2107 3636
2107 3820
2107 3844
2107 3873
2107 3947
2107 3983
2107 4180
2107 4202
2107 4302
2107 4343
2107 4426
2107 4554
2107 4752
2107 4907
2108 2145
2108 2494
2108 2523
2108 2563
2108 2676
2108 2687
2108 2811
2108 2849
2108 2939
2108 2984
2108 3097
2108 3255
2108 3489
2108 3523
2108 3610
2108 3767
2108 3772
2108 3919
2108 3945
2108 4072
2108 4185
2108 4186
2108 4852
2108 4916
2109 2886
2109 2988
2109 3042
2109 3196
2109 4141
2109 4169
2109 4244
2109 4321
2109 4334
2109 4339
2109 4649
2109 4828
2109 4944
2109 4962
2109 4979
2110 2127
2110 2161
2110 2469
2110 2676
2110 2685
2110 2862
2110 2948
2110 3323
2110 3421
2110 3487
2110 3536
2110 3905
2110 4143
2110 4225
2110 4381
2110 4639
2111 2145
2111 2611
2111 2718
2111 2805
2111 3567
2111 3670
2111 3886
2111 4031
2111 4193
2111 4303
2111 4642
2111 4968
2112 2113
2112 2128
2112 2301
2112 2342
2112 2419
2112 2500
2112 2736
2112 2775
2112 2788
2112 3152
2112 4084
2112 4255
2112 4322
2112 4393
2112 4401
2112 4578
2113 2151
2113 2221
2113 2246
2113 2330
2113 2373
2113 2505
2113 2720
2113 2901
2113 2930
2113 3154
2113 3485
2113 3564
2113 4000
2113 4084
2113 4923
2113 4951
2114 2168
2114 2532
2114 2974
2114 3119
2114 3247
2114 3430
2114 3468
2114 3574
2114 4030
2114 4095
2114 4291
2114 4505
2114 4506
2114 4553
2114 4727
2114 4846
2115 2588
2115 2819
2115 2824
2115 2845
2115 3310
2115 3363
2115 3841
2115 3931
2115 4004
2115 4067
2115 4322
2115 4528
2115 4867
2116 2317
2116 2791
2116 2842
2116 3329
2116 3636
2116 4133
2116 4134
2116 4330
2116 4389
2116 4621
2116 4674
2116 4923
2117 2422
2117 2471
2117 2624
2117 3135
2117 3308
2117 3345
2117 3388
2117 3441
2117 3575
2117 3586
2117 3772
2117 4049
2117 4187
2117 4472
2117 4629
2117 4682
2118 2620
2118 2627
2118 2675
2118 2697
2118 3035
2118 3275
2118 3465
2118 3969
2118 4103
2118 4770
2119 2281
2119 2362
2119 2423
2119 2875
2119 2908
2119 2935
2119 2974
2119 3002
2119 3564
2119 3664
2119 3894
2119 4302
2119 4356
2119 4603
2119 4647
2120 2222
2120 2230
2120 2355
2120 2667
2120 3920
2120 4008
2120 4858
2120 4923
2121 2253
2121 2329
2121 2398
2121 2958
2121 3657
2121 3713
2121 3912
2121 4414
2121 4436
2121 4673
2122 2137
2122 2943
2122 3017
2122 3333
2122 3442
2122 3635
2123 2333
2123 2345
2123 2604
2123 2657
2123 2883
2123 2952
2123 3391
2123 3659
2123 3689
2123 3711
2123 4346
2123 4385
2123 4581
2123 4604
2123 4655
2123 4861
2124 2181
2124 2736
2124 3042
2124 3868
2124 3956
2124 4169
2124 4616
2124 4673
2124 4989
2125 2427
2125 2534
2125 2901
2125 3272
2125 3892
2125 4072
2125 4192
2125 4446
2125 4630
2125 4887
2126 2451
2126 2692
2126 3095
2126 3196
2126 3540
2126 3707
2126 3714
2126 4244
2126 4457
2126 4550
2126 4837
2127 2233
2127 2370
2127 2479
2127 2520
2127 2801
2127 3057
2127 3113
2127 3226
2127 3310
2127 3793
2127 3796
2127 4462
2127 4563
2127 4815
2127 4881
2127 4977
2128 2423
2128 2926
2128 3073
2128 3485
2128 3826
2128 3891
2128 4046
2128 4084
2128 4194
2128 4198
2128 4227
2128 4422
2128 4555
2128 4647
2128 4909
2129 2149
2129 2418
2129 2674
2129 2817
2129 2870
2129 3320
2129 3354
2129 3407
2129 3518
2129 3576
2129 3775
2129 4138
2129 4159
2129 4295
2129 4413
2129 4425
2129 4489
2129 4520
2129 4990
2130 2177
2130 2198
2130 2499
2130 2725
2130 3368
2130 3480
2130 3579
2130 3746
2130 4551
2130 4600
2130 4622
2130 4707
2130 4807
2131 2221
2131 2242
2131 2642
2131 2733
2131 2788
2131 3015
2131 3470
2131 3485
2131 4499
2131 4520
2131 4578
2131 4974
2132 2174
2132 2266
2132 2687
2132 2690
2132 2738
2132 2875
2132 2994
2132 3024
2132 3226
2132 3482
2132 4043
2132 4412
2132 4432
2132 4644
2132 4829
2132 4907
2133 2167
2133 2424
2133 2594
2133 3119
2133 3187
2133 3936
2133 4093
2133 4655
2133 4902
2134 2201
2134 2221
2134 2224
2134 2252
2134 2479
2134 2590
2134 2841
2134 2851
2134 2917
2134 3079
2134 3468
2134 3706
2134 3762
2134 3992
2134 4036
2134 4236
2134 4440
2134 4584
2134 4762
2134 4849
2134 4857
2135 2401
2135 2427
2135 3072
2135 3492
2135 3592
2135 3649
2135 3717
2135 4013
2135 4097
2135 4163
2135 4256
2135 4508
2135 4850
2135 4978
2136 2152
2136 2649
2136 2674
2136 2762
2136 2906
2136 2969
2136 3036
2136 3143
2136 3238
2136 3516
2136 3535
2136 3557
2136 3956
2136 4060
2136 4389
2136 4525
2136 4760
2136 4884
2136 4893
2136 4967
2137 2150
2137 2513
2137 2555
2137 2781
2137 2862
2137 2863
2137 2951
2137 3010
2137 3105
2137 3146
2137 3229
2137 3285
2137 3437
2137 3541
2137 3822
2137 3898
2137 3940
2137 4045
2137 4382
2137 4459
2137 4565
2137 4636
2137 4763
2137 4836
2137 4882
2138 2139
2138 2259
2138 2383
2138 2429
2138 2923
2138 3128
2138 3289
2138 3343
2138 3385
2138 3465
2138 3493
2138 4125
2138 4279
2138 4807
2138 4887
2138 4946
2138 4988
2139 2382
2139 2387
2139 2590
2139 2704
2139 2798
2139 2866
2139 2906
2139 3294
2139 3332
2139 3625
2139 3781
2139 3826
2139 3863
2139 3965
2139 3977
2139 4230
2139 4262
2139 4778
2139 4974
2140 2177
2140 2466
2140 2523
2140 2557
2140 2745
2140 3293
2140 3693
2140 3880
2140 4789
2140 4853
2140 4940
2140 4944
2141 3331
2141 3400
2141 3427
2141 3429
2141 3488
2141 3804
2141 4067
2141 4449
2141 4460
2141 4705
2141 4896
2142 2251
2142 2708
2142 2910
2142 3003
2142 3558
2142 3591
2142 3751
2142 3908
2142 4247
2142 4556
2142 4717
2143 2166
2143 2283
2143 3378
2143 3677
2143 4145
2143 4187
2143 4249
2143 4260
2143 4488
2143 4574
2144 2300
2144 2938
2144 3369
2144 3388
2144 3518
2144 3604
2144 3793
2144 3932
2144 4044
2144 4083
2144 4146
2144 4320
2144 4474
2145 2561
2145 2583
2145 2676
2145 2699
2145 2869
2145 2876
2145 2880
2145 3104
2145 3147
2145 3280
2145 3377
2145 3620
2145 3651
2145 4141
2145 4209
2145 4220
2145 4303
2145 4353
2145 4371
2145 4375
2145 4593
2145 4759
2145 4825
2145 4909
2146 2487
2146 3087
2146 3096
2146 3248
2146 3305
2146 3409
2146 3734
2146 3751
2146 4205
2146 4501
2146 4578
2146 4821
2147 2230
2147 2680
2147 3166
2147 3186
2147 3273
2147 3974
2147 4084
2147 4181
2147 4348
2147 4352
2147 4422
2147 4555
2147 4582
2147 4592
2148 2268
2148 2771
2148 3122
2148 3375
2148 3446
2148 3498
2148 3524
2148 3839
2148 3956
2148 4014
2148 4121
2148 4134
2148 4394
2148 4407
2148 4541
2149 2264
2149 2600
2149 2609
2149 2662
2149 2785
2149 2892
2149 2925
2149 3135
2149 3173
2149 3314
2149 3413
2149 3990
2149 4027
2149 4280
2149 4299
2149 4388
2149 4393
2149 4519
2149 4796
2150 2411
2150 2606
2150 3285
2150 3323
2150 3432
2150 3862
2150 3958
2150 4051
2150 4324
2150 4629
2151 2240
2151 2341
2151 2999
2151 3345
2151 3489
2151 3637
2151 3847
2151 3902
2151 4079
2151 4559
2151 4755
2151 4940
2152 2162
2152 2193
2152 2725
2152 3059
2152 4107
2152 4240
2152 4388
2152 4748
2152 4844
2152 4897
2152 4927
2153 2472
2153 2546
2153 3483
2153 3598
2153 3714
2153 3893
2153 4275
2153 4347
2153 4404
2153 4758
2153 4930
2153 4952
2153 4971
2154 2317
2154 2550
2154 2923
2154 2944
2154 3174
2154 3651
2154 4186
2154 4360
2154 4656
2155 2510
2155 2579
2155 2642
2155 2889
2155 3082
2155 3512
2155 3601
2155 3640
2155 3677
2155 3712
2155 3885
2155 3933
2155 3946
2155 4030
2155 4097
2155 4156
2155 4206
2155 4340
2155 4367
2155 4585
2155 4794
2155 4805
2156 2161
2156 2927
2156 3241
2156 3257
2156 3387
2156 3487
2156 3733
2156 4045
2156 4617
2156 4632
2156 4752
2156 4773
2156 4917
2157 2415
2157 2422
2157 2627
2157 2978
2157 3304
2157 3527
2157 4083
2157 4291
2157 4469
2157 4506
2157 4664
2157 4696
2157 4788
2157 4790
2157 4849
2158 2293
2158 2316
2158 2361
2158 2451
2158 2626
2158 2798
2158 2846
2158 2861
2158 2943
2158 3042
2158 3135
2158 3176
2158 3242
2158 3453
2158 3535
2158 3870
2158 4183
2158 4375
2158 4814
2158 4910
2159 2233
2159 2398
2159 2462
2159 2494
2159 2795
2159 2901
2159 2963
2159 3254
2159 3292
2159 3385
2159 4099
2159 4146
2159 4505
2159 4551
2159 4555
2159 4557
2159 4620
2159 4962
2160 2482
2160 2555
2160 2744
2160 2761
2160 2959
2160 2984
2160 3454
2160 3706
2160 3851
2160 3943
2160 4123
2160 4362
2160 4499
2160 4674
2160 4974
2161 2206
2161 2332
2161 2415
2161 2509
2161 2578
2161 2680
2161 2918
2161 2950
2161 3184
2161 3202
2161 3273
2161 3289
2161 3387
2161 3496
2161 3546
2161 3581
2161 3872
2161 3905
2161 3941
2161 3944
2161 3961
2161 4036
2161 4086
2161 4247
2161 4386
2161 4495
2161 4539
2161 4555
2161 4661
2161 4667
2161 4965
2161 4984
2162 2623
2162 2847
2162 2865
2162 2957
2162 3004
2162 3007
2162 3046
2162 3187
2162 3326
2162 3751
2162 4525
2162 4542
2162 4823
2162 4872
2162 4933
2163 2229
2163 2408
2163 2957
2163 3168
2163 3241
2163 3297
2163 3866
2163 4220
2163 4273
2163 4390
2163 4467
2163 4763
2164 2382
2164 2760
2164 2865
2164 3415
2164 4273
2165 2463
2165 2492
2165 2983
2165 3257
2165 3324
2165 3460
2165 3702
2165 3797
2165 4061
2165 4207
2165 4255
2165 4518
2165 4578
2165 4582
2165 4938
2166 2332
2166 2627
2166 2950
2166 3334
2166 3382
2166 3520
2166 3618
2166 3635
2166 3688
2166 4260
2166 4724
2166 4949
2167 2172
2167 2275
2167 2391
2167 2479
2167 2588
2167 2809
2167 2858
2167 2861
2167 3487
2167 3579
2167 3593
2167 3744
2167 4222
2167 4364
2167 4436
2167 4566
2167 4852
2167 4962
2168 2173
2168 2533
2168 2641
2168 2833
2168 3152
2168 3875
2168 4300
2168 4546
2168 4694
2169 2294
2169 2382
2169 2740
2169 2808
2169 2912
2169 3142
2169 3205
2169 3281
2169 3360
2169 3643
2169 3716
2169 4018
2169 4024
2169 4265
2169 4368
2169 4962
2170 2443
2170 2457
2170 3198
2170 3314
2170 3338
2170 3765
2170 4425
2171 2395
2171 2417
2171 2504
2171 2584
2171 3397
2171 3706
2171 4206
2171 4516
2171 4955
2172 2239
2172 2339
2172 2961
2172 2977
2172 3320
2172 3375
2172 3857
2172 4082
2172 4086
2172 4089
2172 4164
2172 4176
2172 4427
2172 4739
2172 4797
2172 4979
2173 2541
2173 2625
2173 2719
2173 2756
2173 3033
2173 3086
2173 3204
2173 3358
2173 3555
2173 3775
2173 4098
2173 4903
2174 2200
2174 2347
2174 2395
2174 2497
2174 2505
2174 2518
2174 2552
2174 2619
2174 2806
2174 2941
2174 3015
2174 3200
2174 3277
2174 3461
2174 3828
2174 4282
2174 4335
2174 4391
2174 4532
2174 4549
2175 2185
2175 2216
2175 2540
2175 2563
2175 2594
2175 2892
2175 3144
2175 3187
2175 3291
2175 3891
2175 3897
2175 4089
2175 4281
2175 4291
2175 4583
2175 4835
2175 4842
2176 2225
2176 2382
2176 3089
2176 3159
2176 3457
2176 4065
2176 4428
2176 4439
2176 4715
2177 2213
2177 2242
2177 2319
2177 2334
2177 2822
2177 3080
2177 3081
2177 3660
2177 4117
2177 4238
2177 4280
2177 4282
2177 4296
2178 2203
2178 2398
2178 2418
2178 2834
2178 3019
2178 3282
2178 3488
2178 3765
2178 3923
2178 4065
2178 4132
2178 4770
2178 4966
2179 2190
2179 2214
2179 2255
2179 2315
2179 2647
2179 2653
2179 2857
2179 3025
2179 3120
2179 3749
2179 4029
2179 4085
2179 4115
2179 4123
2179 4157
2179 4228
2179 4232
2179 4248
2179 4276
2179 4345
2179 4363
2179 4439
2179 4508
2179 4512
2179 4517
2179 4632
2179 4776
2180 2603
2180 2644
2180 2739
2180 2843
2180 3451
2180 3728
2180 4103
2180 4806
2180 4820
2180 4920
2181 2241
2181 2433
2181 2446
2181 2575
2181 2904
2181 2939
2181 3278
2181 3409
2181 3670
2181 3678
2181 3873
2181 4282
2181 4335
2181 4581
2181 4614
2181 4760
2181 4846
2181 4849
2181 4857
2181 4860
2182 2403
2182 2418
2182 2466
2182 2519
2182 2574
2182 2829
2182 2975
2182 3869
2182 4245
2182 4265
2182 4667
2182 4680
2182 4962
2183 2256
2183 2325
2183 2489
2183 2621
2183 2943
2183 3087
2183 3104
2183 3114
2183 3392
2183 4095
2183 4197
2183 4274
2183 4367
2184 2303
2184 2527
2184 2724
2184 2766
2184 2885
2184 2910
2184 3034
2184 3183
2184 3304
2184 3857
2184 3931
2184 4036
2184 4340
2184 4456
2184 4665
2185 2704
2185 2927
2185 3104
2185 3239
2185 3645
2185 3684
2185 3739
2185 4059
2185 4312
2185 4439
2185 4453
2185 4516
2185 4598
2185 4696
2185 4915
2186 2598
2186 2662
2186 3103
2186 3646
2186 3747
2186 4060
2186 4174
2186 4178
2186 4195
2186 4546
2186 4838
2186 4939
2187 2641
2187 2886
2187 2994
2187 3049
2187 3283
2187 3317
2187 3434
2187 3544
2187 3607
2187 3611
2187 3615
2187 3653
2187 3849
2187 4237
2187 4306
2187 4343
2187 4486
2187 4710
2187 4829
2187 4879
2187 4914
2188 2291
2188 2570
2188 2594
2188 3311
2188 3444
2188 3486
2188 3514
2188 3636
2188 3820
2188 4134
2188 4143
2188 4328
2188 4347
2188 4551
2188 4628
2188 4917
2189 2222
2189 2344
2189 2603
2189 2736
2189 2874
2189 3072
2189 3731
2189 3865
2189 3996
2189 4122
2189 4245
2189 4337
2189 4402
2189 4563
2189 4636
2189 4654
2189 4741
2189 4784
2190 2505
2190 2618
2190 2749
2190 3610
2190 4058
2190 4094
2190 4164
2190 4291
2190 4402
2190 4416
2190 4717
2190 4858
2190 4899
2191 2234
2191 2426
2191 2517
2191 2743
2191 2783
2191 2896
2191 3258
2191 3493
2191 3654
2191 3878
2191 3896
2191 4113
2191 4163
2191 4197
2191 4403
2191 4515
2191 4559
2192 2262
2192 2361
2192 2538
2192 2664
2192 3086
2192 3331
2192 3380
2192 3675
2192 4128
2192 4235
2192 4371
2193 2224
2193 2381
2193 2420
2193 2783
2193 2785
2193 3590
2193 3739
2193 4033
2193 4436
2193 4450
2193 4770
2193 4799
2193 4893
2194 2202
2194 2288
2194 2740
2194 3070
2194 3181
2194 4302
2194 4438
2194 4893
2195 2353
2195 2717
2195 2816
2195 2902
2195 2967
2195 3073
2195 3163
2195 3370
2195 3462
2195 3899
2195 4227
2195 4632
2195 4962
2196 2325
2196 2367
2196 2382
2196 2415
2196 2494
2196 2505
2196 3081
2196 3621
2196 4095
2196 4730
2196 4935
2196 4996
2197 2299
2197 2370
2197 2683
2197 2853
2197 3385
2197 4860
2197 4923
2198 2328
2198 2409
2198 2465
2198 2729
2198 2762
2198 2804
2198 2813
2198 3353
2198 3474
2198 3709
2198 3756
2198 4071
2199 2560
2199 2638
2199 2670
2199 2845
2199 2964
2199 3386
2199 3546
2199 3562
2199 3585
2199 3606
2199 4018
2199 4055
2199 4064
2199 4560
2199 4647
2199 4901
2199 4908
2200 2354
2200 2546
2200 2557
2200 2692
2200 2925
2200 2968
2200 3053
2200 3211
2200 3481
2200 3487
2200 3781
2200 3801
2200 3809
2200 3880
2200 3980
2200 4102
2200 4246
2200 4396
2200 4930
2201 2318
2201 2469
2201 2476
2201 2484
2201 2788
2201 2964
2201 3121
2201 3515
2201 3771
2201 3808
2201 3824
2201 3929
2201 4067
2201 4191
2201 4322
2201 4379
2201 4482
2201 4781
2201 4917
2201 4953
2202 2284
2202 3070
2202 3328
2202 3802
2202 3849
2202 3862
2202 3865
2202 4212
2202 4396
2202 4425
2202 4652
2203 2363
2203 2556
2203 2715
2203 3031
2203 3038
2203 3054
2203 3995
2203 4193
2204 2572
2204 2628
2204 2677
2204 2961
2204 3008
2204 3668
2204 3708
2204 4197
2204 4288
2204 4340
2204 4348
2204 4486
2204 4783
2204 4839
2205 2296
2205 2315
2205 2562
2205 3095
2205 3119
2205 3183
2205 3199
2205 3212
2205 4122
2205 4249
2205 4253
2205 4690
2205 4838
2205 4847
2206 2454
2206 3108
2206 3228
2206 3533
2206 3985
2207 2311
2207 2423
2207 2562
2207 2565
2207 2668
2207 2976
2207 3125
2207 3533
2207 4244
2207 4857
2207 4952
2208 2331
2208 2973
2208 3195
2208 3216
2208 4259
2208 4472
2208 4560
2209 2291
2209 2929
2209 2945
2209 3198
2209 3346
2209 3445
2209 3732
2209 4145
2209 4192
2209 4395
2209 4757
2210 2675
2210 2809
2210 2960
2210 2978
2210 3099
2210 3221
2210 4161
2210 4256
2210 4322
2210 4662
2210 4691
2210 4702
2210 4837
2210 4876
2210 4877
2210 4899
2211 2365
2211 2398
2211 2443
2211 2839
2211 2866
2211 3044
2211 3427
2211 4289
2211 4445
2211 4463
2211 4993
2212 2738
2212 2750
2212 3020
2212 3039
2212 3273
2212 3356
2212 3384
2212 3454
2212 3511
2212 3610
2212 4075
2212 4084
2212 4125
2212 4227
2212 4322
2212 4369
2212 4395
2212 4646
2213 2474
2213 2570
2213 2992
2213 3042
2213 3299
2213 3374
2213 3399
2213 4044
2213 4091
2213 4197
2213 4225
2213 4301
2213 4438
2213 4447
2213 4514
2213 4874
2213 4962
2214 2467
2214 2476
2214 2647
2214 2671
2214 3000
2214 3086
2214 3413
2214 3600
2214 3670
2214 4360
2214 4405
2214 4446
2214 4494
2214 4533
2214 4752
2214 4765
2214 4923
2215 2400
2215 2429
2215 2546
2215 2790
2215 2902
2215 3445
2215 3561
2215 3677
2215 3699
2215 3703
2215 4489
2215 4615
2215 4756
2216 2433
2216 2478
2216 2563
2216 2612
2216 2634
2216 3043
2216 3589
2216 3831
2216 4155
2216 4642
2216 4713
2217 2360
2217 2412
2217 2539
2217 3063
2217 3117
2217 3534
2217 3628
2217 4203
2217 4266
2217 4670
2218 2519
2218 2697
2218 2872
2218 2995
2218 3051
2218 4312
2218 4341
2218 4343
2218 4415
2218 4829
2218 4870
2219 2306
2219 2430
2219 2540
2219 2558
2219 2602
2219 2637
2219 2680
2219 3144
2219 3327
2219 3650
2219 3717
2219 3733
2219 4483
2219 4734
2219 4824
2220 2548
2220 2912
2220 3020
2220 3080
2220 3402
2220 3813
2220 3819
2220 3821
2220 4001
2220 4222
2220 4850
2221 2278
2221 2788
2221 2873
2221 2997
2221 3028
2221 3047
2221 3152
2221 3256
2221 3460
2221 3485
2221 3563
2221 3597
2221 3708
2221 3729
2221 3815
2221 4009
2221 4181
2221 4207
2221 4249
2221 4553
2221 4933
2222 2330
2222 2354
2222 2480
2222 2519
2222 2570
2222 2736
2222 2832
2222 3022
2222 3028
2222 3039
2222 3391
2222 3396
2222 3432
2222 3610
2222 3677
2222 3731
2222 3785
2222 3845
2222 4009
2222 4140
2222 4253
2222 4275
2222 4297
2222 4669
2222 4733
2223 2574
2223 2596
2223 2801
2223 2916
2223 3402
2223 3502
2223 4187
2223 4328
2223 4780
2224 2689
2224 2901
2224 2982
2224 3525
2224 3590
2224 3670
2224 4067
2224 4077
2224 4275
2224 4326
2224 4821
2224 4943
2225 2256
2225 2375
2225 2451
2225 2688
2225 2986
2225 3167
2225 3319
2225 3527
2225 3647
2225 3745
2225 4239
2225 4653
2226 2282
2226 2394
2226 2432
2226 2745
2226 3034
2226 3169
2226 3214
2226 3799
2226 3887
2226 4154
2226 4295
2226 4305
2226 4374
2226 4399
2226 4437
2226 4771
2226 4905
2226 4923
2226 4930
2227 2738
2227 2899
2227 3102
2227 3526
2227 3669
2227 3794
2227 4450
2227 4648
2228 2271
2228 2640
2228 2767
2228 2855
2228 2881
2228 3035
2228 3092
2228 3095
2228 3319
2228 3795
2228 4144
2228 4234
2228 4398
2228 4739
2228 4827
2228 4839
2228 4900
2229 2281
2229 2350
2229 2395
2229 2866
2229 2994
2229 3485
2229 3564
2229 3661
2229 3823
2229 4578
2229 4977
2230 2239
2230 2373
2230 2507
2230 2645
2230 2672
2230 2833
2230 3236
2230 3354
2230 3825
2230 3872
2230 4065
2230 4175
2230 4395
2230 4551
2231 2269
2231 2272
2231 2335
2231 2924
2231 3382
2231 3433
2231 3578
2231 3952
2231 4770
2232 2336
2232 2593
2232 2609
2232 2618
2232 2834
2232 2863
2232 2973
2232 3000
2232 3050
2232 3068
2232 3403
2232 3439
2232 3654
2232 3731
2232 4344
2232 4536
2233 2370
2233 2436
2233 2520
2233 2648
2233 3545
2233 3793
2233 4616
2234 2505
2234 2562
2234 2735
2234 2879
2234 3683
2234 3896
2234 4189
2234 4478
2234 4732
2234 4736
2234 4830
2234 4850
2234 4868
2234 4939
2235 2279
2235 2398
2235 2436
2235 2839
2235 3712
2235 3928
2235 4089
2235 4100
2235 4235
2235 4524
2235 4590
2235 4637
2235 4928
2235 4943
2236 2397
2236 2426
2236 2462
2236 2604
2236 3055
2236 3213
2236 3490
2236 3990
2236 4319
2236 4559
2236 4664
2236 4717
2236 4812
2236 4871
2237 2738
2237 2969
2237 3197
2237 3817
2237 4190
2238 2306
2238 2313
2238 2354
2238 2395
2238 2445
2238 2505
2238 2661
2238 2804
2238 3012
2238 3182
2238 3467
2238 4290
2238 4999
2239 2248
2239 2295
2239 2329
2239 2334
2239 2371
2239 2393
2239 2455
2239 2727
2239 2738
2239 3042
2239 3096
2239 3739
2239 4024
2239 4122
2239 4241
2239 4815
2239 4962
2240 2401
2240 2489
2240 2626
2240 2642
2240 3308
2240 3489
2240 3918
2240 3936
2240 4309
2240 4364
2240 4857
2241 2257
2241 2417
2241 2579
2241 2688
2241 2690
2241 2736
2241 2956
2241 3163
2241 3213
2241 3397
2241 3619
2241 4905
2241 4968
2241 4970
2242 2459
2242 2466
2242 2520
2242 2891
2242 3062
2242 3102
2242 3196
2242 3322
2242 3427
2242 3693
2242 3961
2242 4017
2242 4062
2242 4879
2242 4948
2243 2312
2243 2653
2243 2702
2243 2815
2243 2933
2243 3740
2243 3816
2243 4214
2243 4238
2243 4333
2243 4601
2243 4659
2244 2314
2244 3514
2244 3762
2244 4048
2244 4246
2244 4348
2244 4585
2244 4647
2244 4814
2245 2307
2245 2627
2245 2873
2245 2940
2245 2973
2245 4022
2245 4214
2245 4279
2245 4595
2246 2506
2246 3550
2246 3655
2246 4050
2246 4795
2246 4857
2246 4860
2246 4953
2247 3111
2247 3362
2247 3821
2247 4128
2247 4643
2247 4954
2248 2974
2248 3042
2248 3196
2248 3209
2248 3860
2248 3896
2248 3959
2248 4734
2249 2319
2249 2395
2249 2462
2249 2957
2249 3105
2249 3255
2249 3415
2249 3748
2249 4057
2249 4797
2249 4833
2249 4942
2250 2609
2250 2828
2250 3003
2250 3088
2250 3091
2250 3328
2250 3722
2250 3859
2250 4013
2250 4193
2250 4911
2251 2693
2251 3019
2251 4167
2251 4280
2251 4316
2251 4423
2251 4563
2251 4849
2252 2800
2252 3081
2252 3389
2252 4122
2252 4173
2252 4236
2252 4416
2252 4679
2253 2334
2253 2627
2253 2794
2253 3068
2253 3465
2253 4019
2253 4263
2253 4321
2253 4519
2253 4524
2253 4667
2253 4767
2254 2475
2254 2572
2254 2666
2254 3042
2254 3596
2254 4010
2254 4613
2254 4819
2255 2379
2255 2603
2255 2605
2255 2671
2255 2685
2255 3124
2255 4029
2255 4328
2255 4501
2255 4642
2255 4688
2255 4702
2255 4717
2255 4752
2256 2455
2256 2774
2256 2850
2256 3012
2256 3018
2256 3024
2256 3169
2256 3305
2256 3516
2256 3589
2256 3975
2256 4664
2256 4737
2257 2618
2257 2625
2257 2840
2257 2845
2257 3631
2257 3834
2257 3908
2257 4046
2257 4050
2257 4082
2257 4311
2257 4596
2257 4841
2258 2286
2258 2322
2258 2478
2258 2844
2258 2906
2258 2994
2258 3244
2258 3417
2258 3516
2258 3653
2258 3670
2258 3727
2258 3761
2258 4132
2258 4133
2258 4260
2258 4280
2258 4556
2258 4617
2259 2554
2259 2613
2259 2957
2259 3471
2259 4102
2259 4389
2259 4737
2259 4751
2259 4825
2259 4955
2260 2554
2260 2577
2260 2786
2260 3035
2260 3164
2260 3204
2260 3471
2260 3514
2260 4102
2260 4955
2260 4986
2261 2281
2261 2498
2261 2877
2261 3029
2261 3069
2261 3118
2261 3695
2261 3854
2261 3861
2261 3891
2261 3943
2261 3970
2261 4179
2261 4339
2261 4400
2261 4428
2261 4497
2261 4557
2261 4580
2261 4669
2261 4810
2261 4813
2261 4840
2261 4853
2262 2384
2262 2851
2262 3183
2262 3204
2262 3447
2262 3574
2262 4139
2262 4609
2262 4618
2262 4931
2263 2687
2263 2782
2263 3203
2263 3650
2263 3863
2263 3984
2264 2505
2264 2641
2264 3014
2264 4188
2265 2299
2265 2673
2265 2753
2265 2976
2265 3020
2265 3057
2265 3082
2265 3103
2265 3156
2265 3387
2265 3409
2265 3440
2265 3592
2265 3657
2265 3677
2265 3803
2265 3986
2265 3993
2265 4736
2265 4741
2266 2558
2266 2583
2266 3405
2266 3807
2266 3943
2266 4187
2266 4412
2266 4532
2266 4794
2267 2507
2267 2740
2267 2952
2267 3181
2267 3688
2267 3874
2267 4306
2267 4326
2267 4424
2268 2341
2268 2504
2268 2844
2268 3161
2268 3753
2268 4187
2268 4432
2268 4643
2268 4692
2268 4818
2269 2284
2269 2462
2269 2752
2269 3062
2269 4139
2269 4514
2269 4559
2269 4620
2269 4857
2269 4989
2270 2345
2270 2462
2270 2479
2270 2487
2270 2780
2270 3125
2270 3379
2270 3405
2270 3564
2270 3631
2270 3782
2270 3978
2270 4005
2270 4006
2270 4158
2270 4637
2270 4697
2271 2279
2271 2915
2271 3154
2271 3600
2271 3729
2271 3983
2271 4403
2271 4494
2271 4628
2271 4801
2271 4918
2272 2856
2272 2875
2272 3152
2272 3235
2272 3665
2272 3801
2272 3808
2272 4257
2272 4320
2272 4626
2272 4646
2272 4670
2273 2284
2273 2548
2273 2652
2273 3374
2273 3420
2273 3676
2273 3677
2273 4144
2273 4280
2273 4717
2274 2318
2274 2534
2274 2843
2274 2903
2274 2962
2274 3676
2274 3826
2274 4293
2274 4429
2274 4997
2275 2402
2275 2575
2275 2592
2275 2917
2275 3580
2275 3692
2275 3716
2275 3920
2275 4428
2275 4664
2275 4792
2276 2289
2276 2367
2276 2894
2276 3032
2276 3237
2276 3322
2276 3340
2276 3491
2276 3615
2276 4061
2276 4109
2276 4154
2276 4221
2276 4625
2276 4722
2276 4763
2276 4876
2276 4974
2276 4988
2277 2785
2277 3024
2277 3982
2277 4703
2278 2315
2278 2423
2278 2547
2278 2650
2278 2883
2278 3008
2278 3095
2278 3564
2278 3657
2278 3751
2278 3832
2278 3921
2278 4091
2278 4373
2278 4395
2278 4797
2279 2663
2279 2801
2279 2842
2279 2890
2279 2955
2279 3113
2279 3383
2279 3409
2279 3460
2279 3531
2279 3641
2279 3672
2279 4009
2279 4019
2279 4083
2279 4269
2279 4581
2279 4620
2279 4728
2279 4780
2279 4831
2279 4857
2280 2319
2280 2914
2280 2986
2280 3050
2280 3775
2280 4068
2280 4616
2281 2664
2281 2791
2281 2844
2281 3265
2281 3316
2281 3485
2281 3573
2281 3804
2281 3812
2281 4194
2281 4499
2282 2348
2282 2377
2282 2423
2282 2507
2282 2554
2282 3122
2282 3683
2282 3969
2282 4171
2282 4198
2282 4398
2282 4422
2282 4717
2282 4773
2283 2354
2283 2402
2283 3104
2283 3203
2283 3446
2283 3684
2283 4018
2283 4096
2283 4254
2283 4279
2283 4374
2283 4552
2283 4621
2284 2326
2284 2392
2284 2474
2284 2498
2284 2524
2284 2552
2284 2563
2284 2665
2284 2728
2284 2788
2284 2839
2284 3002
2284 3059
2284 3089
2284 3170
2284 3203
2284 3222
2284 3236
2284 3450
2284 3473
2284 3648
2284 3713
2284 3740
2284 3779
2284 3806
2284 3809
2284 3939
2284 4259
2284 4296
2284 4322
2284 4339
2284 4540
2284 4645
2284 4717
2284 4894
2284 4945
2284 4972
2285 2565
2285 2837
2285 2882
2285 3022
2285 3109
2285 3186
2285 3211
2285 3530
2285 3664
2285 3980
2285 4381
2285 4451
2285 4543
2285 4880
2285 4934
2285 4962
2285 4989
2286 2321
2286 2322
2286 2517
2286 2655
2286 2673
2286 2729
2286 2944
2286 2972
2286 3216
2286 3264
2286 3314
2286 3325
2286 3363
2286 3430
2286 3433
2286 3478
2286 3488
2286 3585
2286 3609
2286 3787
2286 3856
2286 3988
2286 4154
2286 4258
2286 4348
2286 4402
2286 4435
2286 4450
2286 4475
2286 4739
2286 4773
2286 4858
2286 4869
2286 4949
2286 4970
2287 2434
2287 2859
2287 2918
2287 3110
2287 3954
2287 4050
2287 4337
2287 4464
2287 4476
2287 4483
2287 4539
2287 4974
2288 2319
2288 2343
2288 2463
2288 2466
2288 2548
2288 3124
2288 3392
2288 3865
2288 4016
2288 4037
2288 4188
2288 4198
2288 4522
2289 2639
2289 2974
2289 3259
2289 3294
2289 3414
2289 3496
2289 3621
2289 4129
2289 4251
2289 4430
2289 4728
2289 4816
2289 4909
2289 4974
2290 2330
2290 2405
2290 2628
2290 2880
2290 3330
2290 3990
2290 4155
2290 4247
2290 4321
2290 4547
2290 4991
2291 2627
2291 2862
2291 2872
2291 2873
2291 2915
2291 2968
2291 2971
2291 3319
2291 3467
2291 3714
2291 4622
2291 4771
2291 4860
2292 2467
2292 2537
2292 2568
2292 2832
2292 2922
2292 2962
2292 3173
2292 3191
2292 3489
2292 3902
2292 3995
2292 4465
2292 4482
2292 4797
2292 4874
2292 4974
2293 2575
2293 2994
2293 3147
2293 3279
2293 3562
2293 4280
2293 4283
2294 2740
2294 2994
2294 3046
2294 3129
2294 3243
2294 3590
2294 3824
2294 4012
2294 4029
2294 4305
2294 4856
2294 4934
2295 2446
2295 2491
2295 3042
2295 3138
2295 3405
2295 3475
2295 3615
2295 3656
2295 3997
2295 4140
2295 4144
2295 4354
2295 4470
2295 4499
2295 4948
2295 4962
2295 4996
2296 2533
2296 2652
2296 3355
2296 3808
2296 3840
2296 4157
2296 4179
2296 4458
2297 2418
2297 3073
2297 3345
2297 3427
2297 3677
2297 4186
2297 4244
2297 4281
2298 2322
2298 2376
2298 2418
2298 2475
2298 2949
2298 3717
2298 3815
2298 3964
2298 4062
2298 4189
2298 4355
2298 4496
2298 4555
2298 4600
2298 4926
2299 2339
2299 2363
2299 2890
2299 3157
2299 3458
2299 3486
2299 3813
2299 4082
2299 4241
2299 4791
2299 4962
2300 2487
2300 2518
2300 2520
2300 2645
2300 3054
2300 3056
2300 3250
2300 3296
2300 3328
2300 3435
2300 3793
2300 3859
2300 4019
2300 4044
2300 4225
2300 4241
2300 4411
2300 4684
2300 4791
2301 2766
2301 2837
2301 2863
2301 3118
2301 3785
2301 3942
2301 4019
2301 4325
2301 4538
2301 4541
2301 4851
2301 4934
2301 4941
2301 4976
2302 2473
2302 2552
2302 2653
2302 2747
2302 3144
2302 3307
2302 3677
2302 3818
2302 4607
2302 4609
2303 2689
2303 2843
2303 3012
2303 3126
2303 3212
2303 3300
2303 3334
2303 3572
2303 4022
2303 4290
2303 4582
2303 4672
2303 4801
2303 4813
2304 2515
2304 2532
2304 2572
2304 2615
2304 2732
2304 2758
2304 2916
2304 3088
2304 3166
2304 3230
2304 3308
2304 3309
2304 3326
2304 3411
2304 3444
2304 3471
2304 3508
2304 3540
2304 3542
2304 3876
2304 3996
2304 4037
2304 4077
2304 4436
2304 4464
2304 4667
2304 4939
2305 2617
2305 2914
2305 3051
2305 3335
2305 3571
2305 3608
2305 3868
2305 3950
2305 4053
2305 4413
2305 4543
2305 4787
2305 4923
2306 2396
2306 2531
2306 2598
2306 2791
2306 2819
2306 2988
2306 3047
2306 3166
2306 3477
2306 3963
2306 4023
2306 4461
2306 4555
2306 4621
2307 2567
2307 2777
2307 2998
2307 3092
2307 3569
2307 3693
2307 3705
2307 3762
2307 3914
2307 4403
2307 4417
2307 4463
2307 4548
2307 4980
2308 2439
2308 2490
2308 2555
2308 2835
2308 2911
2308 3106
2308 3212
2308 3403
2308 3596
2308 3696
2308 3976
2308 4234
2308 4277
2308 4458
2308 4560
2308 4623
2308 4682
2309 2409
2309 3050
2309 3072
2309 3106
2309 3158
2309 3731
2309 4114
2309 4155
2309 4166
2309 4311
2309 4890
2310 3301
2310 3427
2310 3459
2310 3605
2310 3788
2310 3967
2310 4055
2310 4098
2310 4144
2310 4703
2311 2416
2311 2471
2311 2474
2311 2574
2311 2702
2311 2885
2311 3180
2311 3188
2311 3209
2311 3277
2311 3394
2311 3486
2311 3662
2311 3868
2311 3913
2311 4025
2311 4294
2311 4352
2311 4468
2311 4737
2311 4917
2311 4919
2311 4974
2312 2364
2312 2393
2312 2549
2312 2966
2312 3010
2312 3017
2312 3030
2312 3043
2312 3082
2312 3104
2312 3106
2312 3211
2312 3226
2312 3233
2312 3381
2312 3442
2312 3447
2312 3797
2312 3816
2312 3951
2312 4019
2312 4113
2312 4117
2312 4145
2312 4214
2312 4260
2312 4282
2312 4524
2312 4597
2312 4668
2312 4670
2312 4872
2312 4921
2312 4973
2313 2486
2313 2604
2313 2634
2313 2782
2313 2825
2313 2867
2313 2984
2313 3215
2313 3228
2313 3441
2313 4051
2313 4217
2313 4569
2313 4685
2314 2502
2314 2503
2314 2632
2314 2635
2314 2967
2314 3052
2314 3544
2314 3574
2314 3762
2314 3891
2314 4279
2314 4359
2314 4533
2314 4569
2314 4578
2314 4981
2315 2559
2315 2611
2315 2730
2315 2807
2315 2909
2315 2926
2315 3046
2315 3273
2315 3280
2315 3620
2315 3794
2315 3847
2315 3873
2315 4160
2315 4332
2315 4502
2315 4524
2315 4743
2315 4870
2315 4943
2315 4997
2316 2394
2316 2657
2316 2712
2316 2759
2316 3440
2316 3470
2316 3624
2316 4054
2316 4230
2316 4373
2316 4729
2316 4749
2316 4781
2316 4811
2316 4864
2317 2778
2317 3141
2317 3231
2317 3820
2317 3844
2317 4096
2317 4183
2317 4197
2317 4233
2317 4710
2317 4803
2318 2367
2318 2459
2318 2472
2318 2477
2318 2500
2318 2527
2318 2835
2318 2921
2318 3073
2318 3121
2318 3177
2318 3380
2318 3390
2318 3510
2318 3520
2318 3539
2318 3560
2318 3648
2318 3728
2318 3729
2318 3760
2318 3769
2318 3829
2318 3853
2318 3856
2318 3970
2318 4189
2318 4198
2318 4228
2318 4255
2318 4422
2318 4427
2318 4559
2318 4598
2318 4599
2318 4629
2318 4917
2318 4957
2318 4992
2319 2466
2319 2483
2319 2486
2319 2543
2319 2704
2319 3032
2319 3077
2319 3102
2319 3187
2319 3725
2319 4214
2319 4537
2319 4562
2319 4696
2319 4709
2319 4859
2320 2446
2320 2551
2320 2638
2320 2707
2320 2808
2320 2870
2320 3261
2320 3300
2320 3328
2320 3425
2320 3429
2320 4158
2320 4196
2320 4342
2320 4536
2320 4555
2320 4650
2320 4747
2320 4826
2320 4864
2321 2434
2321 3723
2321 4540
2321 4560
2321 4663
2321 4858
2321 4970
2322 2364
2322 2398
2322 2709
2322 2978
2322 3244
2322 3343
2322 3397
2322 3585
2322 3794
2322 3923
2322 4510
2322 4581
2322 4848
2322 4984
2323 2641
2323 2652
2323 2653
2323 2728
2323 2739
2323 3115
2323 3165
2323 3826
2323 4008
2323 4273
2323 4283
2324 3138
2324 3422
2324 3821
2324 4275
2324 4317
2325 2330
2325 2641
2325 2712
2325 2773
2325 2786
2325 3018
2325 3026
2325 3333
2325 3642
2325 3985
2325 4203
2325 4230
2325 4256
2325 4572
2325 4814
2326 2554
2326 2820
2326 3188
2326 3213
2326 3269
2326 3466
2326 3843
2326 3873
2326 3937
2326 3974
2326 3994
2326 4236
2326 4276
2326 4293
2326 4385
2326 4703
2326 4795
2326 4929
2327 2687
2327 2847
2327 2863
2327 2894
2327 2918
2327 3054
2327 3281
2327 3835
2327 4037
2327 4343
2327 4392
2327 4502
2327 4766
2328 2353
2328 2397
2328 2497
2328 2515
2328 2518
2328 2551
2328 2663
2328 2670
2328 2681
2328 2691
2328 2842
2328 2845
2328 2892
2328 2903
2328 2979
2328 3170
2328 3210
2328 3242
2328 3274
2328 3429
2328 3731
2328 3809
2328 3829
2328 3834
2328 3990
2328 4107
2328 4158
2328 4191
2328 4438
2328 4531
2328 4563
2328 4620
2328 4623
2328 4675
2328 4817
2329 3288
2329 3374
2329 3405
2329 3482
2329 3555
2329 3650
2329 4668
2329 4843
2329 4861
2329 4944
2330 2450
2330 2496
2330 2803
2330 3165
2330 3294
2330 3319
2330 3475
2330 3914
2330 4104
2330 4278
2330 4384
2330 4515
2330 4586
2330 4593
2330 4961
2330 4969
2331 3244
2331 3609
2331 4363
2331 4661
2331 4724
2332 2445
2332 2911
2332 3889
2332 3925
2332 4028
2332 4212
2332 4424
2333 2410
2333 2472
2333 3075
2333 3414
2333 3466
2333 3895
2333 4274
2333 4393
2333 4893
2334 2613
2334 2650
2334 2746
2334 3102
2334 3196
2334 3209
2334 3705
2334 4371
2334 4578
2334 4779
2335 2837
2335 2920
2335 2932
2335 2949
2335 3718
2335 4042
2335 4148
2335 4264
2335 4422
2335 4843
2336 2382
2336 2406
2336 2453
2336 2571
2336 3408
2336 3540
2336 3693
2336 3916
2336 4191
2336 4600
2336 4629
2336 4673
2336 4686
2337 2505
2337 3066
2337 3596
2337 3716
2337 3769
2337 3872
2337 3965
2337 4138
2337 4288
2337 4563
2337 4654
2337 4868
2337 4964
2338 2530
2338 2652
2338 2812
2338 2983
2338 3232
2338 3243
2338 3294
2338 3831
2338 4428
2338 4664
2338 4703
2338 4967
2339 2344
2339 2382
2339 2979
2339 3628
2339 3834
2339 3851
2339 3993
2339 4083
2339 4114
2339 4225
2339 4234
2339 4246
2339 4328
2339 4367
2339 4503
2339 4598
2340 2627
2340 2644
2340 3386
2340 3579
2340 4254
2340 4260
2340 4269
2340 4271
2340 4479
2340 4996
2341 2346
2341 2651
2341 2856
2341 3245
2341 3573
2342 2363
2342 2474
2342 2640
2342 2686
2342 2728
2342 2765
2342 2831
2342 3224
2342 3339
2342 3425
2342 3500
2342 3551
2342 3798
2342 3816
2342 3918
2342 3921
2342 4057
2342 4290
2342 4394
2342 4623
2342 4660
2342 4924
2343 2657
2343 3167
2343 3195
2343 3265
2343 3308
2343 3312
2343 3636
2343 3685
2343 3837
2343 3932
2343 4042
2343 4529
2343 4530
2344 2347
2344 2854
2344 2917
2344 3555
2344 3662
2344 3674
2344 3851
2344 4009
2344 4282
2344 4316
2344 4830
2345 2469
2345 2604
2345 2631
2345 2782
2345 4476
2345 4512
2345 4599
2346 2609
2346 2913
2346 3121
2346 3403
2346 4690
2346 4934
2347 2380
2347 2533
2347 3370
2347 3390
2347 4144
2347 4148
2347 4162
2347 4200
2347 4837
2347 4857
2348 3524
2348 3566
2348 4063
2348 4230
2348 4299
2348 4510
2349 2426
2349 2683
2349 2906
2349 2986
2349 3067
2349 3618
2349 3693
2349 3739
2349 3795
2349 3810
2349 3909
2349 3910
2349 4089
2349 4208
2349 4471
2349 4551
2349 4800
2350 2364
2350 3653
2350 3956
2350 4084
2350 4091
2350 4182
2350 4288
2350 4732
2351 2486
2351 3695
2351 3997
2351 4087
2351 4520
2351 4526
2352 3073
2352 3090
2352 3172
2352 3294
2352 3568
2352 4093
2352 4203
2352 4413
2352 4487
2352 4556
2352 4714
2352 4808
2353 2471
2353 2512
2353 3028
2353 3247
2353 3734
2353 3864
2353 4022
2353 4038
2353 4267
2353 4691
2354 2465
2354 2467
2354 2563
2354 2736
2354 2747
2354 2876
2354 2926
2354 2990
2354 3160
2354 3403
2354 3458
2354 3677
2354 3730
2354 3991
2354 4056
2354 4332
2354 4762
2354 4791
2354 4817
2354 4832
2354 4849
2355 2596
2355 3413
2355 3441
2355 3981
2355 4210
2355 4234
2355 4655
2355 4691
2355 4969
2356 2630
2356 2710
2356 2750
2356 2980
2356 3106
2356 4070
2356 4171
2356 4304
2356 4681
2356 4810
2356 4871
2357 2771
2357 2899
2357 3070
2357 3301
2357 3325
2357 3446
2357 3468
2357 3846
2357 3983
2357 4023
2357 4024
2357 4306
2357 4510
2357 4538
2357 4717
2357 4945
2358 2373
2358 2378
2358 2743
2358 2779
2358 2822
2358 2985
2358 3011
2358 3354
2358 3378
2358 3434
2358 3583
2358 4084
2358 4348
2358 4422
2358 4732
2358 4754
2359 2367
2359 2418
2359 2449
2359 2947
2359 2974
2359 3226
2359 3313
2359 3400
2359 3588
2359 3927
2359 4074
2359 4265
2359 4939
2360 2561
2360 3427
2360 3668
2360 4231
2360 4380
2360 4634
2360 4682
2361 2438
2361 2467
2361 2616
2361 2797
2361 3130
2361 3526
2361 3537
2361 3637
2361 4089
2361 4191
2361 4249
2361 4311
2361 4446
2361 4853
2361 4901
2362 2950
2362 3394
2362 3496
2362 3543
2362 3843
2362 4458
2362 4561
2363 2692
2363 2696
2363 2767
2363 2827
2363 2848
2363 2856
2363 2938
2363 3117
2363 3134
2363 3143
2363 3201
2363 3222
2363 3228
2363 3268
2363 3310
2363 3349
2363 3356
2363 3531
2363 3544
2363 3570
2363 3699
2363 3848
2363 3854
2363 3885
2363 3975
2363 4087
2363 4349
2363 4408
2363 4418
2363 4637
2363 4922
2363 4998
2364 2783
2364 2784
2364 2879
2364 3199
2364 3664
2364 3706
2364 3759
2364 3767
2364 3779
2364 4233
2364 4244
2364 4249
2364 4283
2364 4558
2364 4602
2365 2631
2365 3248
2365 3378
2365 3727
2365 3927
2366 2426
2366 2867
2366 2922
2366 3171
2366 3268
2366 3859
2366 3875
2366 3953
2366 3971
2366 4011
2366 4170
2367 2428
2367 2468
2367 2472
2367 2706
2367 2956
2367 2987
2367 3236
2367 3371
2367 3452
2367 3475
2367 3510
2367 3543
2367 3553
2367 3751
2367 4366
2367 4405
2367 4471
2367 4584
2367 4598
2367 4599
2367 4823
2367 4827
2367 4926
2367 4957
2367 4992
2368 2431
2368 2449
2368 2618
2368 2839
2368 2950
2368 3100
2368 3200
2368 3349
2368 3451
2368 3806
2368 4160
2368 4219
2368 4287
2368 4404
2368 4442
2368 4902
2369 2907
2369 2982
2369 3582
2369 3835
2369 4173
2370 2520
2370 2922
2370 3057
2370 3224
2370 3444
2370 3685
2370 3793
2370 3898
2370 4044
2370 4357
2370 4692
2371 2446
2371 2473
2371 2524
2371 2529
2371 2591
2371 2622
2371 2714
2371 2760
2371 2905
2371 2916
2371 2954
2371 3042
2371 3910
2371 4117
2371 4140
2371 4270
2371 4337
2371 4439
2371 4827
2371 4944
2371 4962
2372 2621
2372 2744
2372 2933
2372 3046
2372 3838
2372 4789
2372 4790
2372 4929
2373 2419
2373 2488
2373 2576
2373 2711
2373 3144
2373 3254
2373 3393
2373 3566
2373 3706
2373 3969
2373 4198
2373 4356
2373 4395
2373 4403
2373 4425
2373 4588
2373 4624
2373 4633
2373 4677
2373 4966
2374 2451
2374 2465
2374 2670
2374 2750
2374 3015
2374 3023
2374 3067
2374 3094
2374 3591
2374 3657
2374 3904
2374 4967
2375 2508
2375 2724
2375 2928
2375 2995
2375 3024
2375 3062
2375 3636
2375 4094
2375 4102
2375 4385
2375 4416
2375 4424
2375 4488
2375 4898
2376 3300
2376 3342
2376 3431
2376 3476
2376 3950
2376 4138
2376 4179
2376 4432
2376 4907
2376 4944
2377 2401
2377 2581
2377 4133
2377 4368
2377 4528
2377 4895
2377 4924
2378 2799
2378 2957
2378 3087
2378 3193
2378 3450
2378 3683
2378 4070
2378 4255
2378 4470
2378 4717
2379 2863
2379 3393
2379 3489
2379 3775
2379 4415
2379 4535
2379 4651
2379 4909
2380 2497
2380 2533
2380 2743
2380 2746
2380 2760
2380 2790
2380 2968
2380 3352
2380 3505
2380 3729
2380 3991
2380 4158
2380 4163
2380 4804
2380 4855
2381 2568
2381 2726
2381 2796
2381 2809
2381 2961
2381 3593
2381 4016
2381 4625
2381 4974
2382 2615
2382 2711
2382 2715
2382 2731
2382 2745
2382 2787
2382 2794
2382 2818
2382 2893
2382 2979
2382 3194
2382 3320
2382 3330
2382 3570
2382 3610
2382 3639
2382 3643
2382 3645
2382 3730
2382 3871
2382 3954
2382 3979
2382 3997
2382 4115
2382 4192
2382 4220
2382 4229
2382 4244
2382 4251
2382 4408
2382 4444
2382 4455
2382 4474
2382 4500
2382 4640
2382 4644
2382 4703
2382 4725
2382 4788
2382 4864
2383 2462
2383 2664
2383 2730
2383 3038
2383 3433
2383 3770
2383 4120
2383 4314
2383 4319
2383 4538
2383 4566
2383 4780
2383 4831
2384 2431
2384 2460
2384 2515
2384 2750
2384 2855
2384 2961
2384 3428
2384 3709
2384 4254
2384 4286
2384 4447
2384 4482
2385 2736
2385 2811
2385 3202
2385 3381
2385 3973
2385 4064
2385 4185
2385 4323
2385 4414
2385 4463
2385 4521
2386 2445
2386 2812
2386 2984
2386 3861
2386 4019
2386 4560
2386 4709
2386 4865
2387 2591
2387 3184
2387 3307
2387 3413
2387 3787
2387 3965
2387 4009
2387 4143
2387 4165
2387 4222
2387 4314
2387 4432
2387 4558
2387 4623
2387 4997
2388 2433
2388 2526
2388 2605
2388 2686
2388 3068
2388 3540
2388 3726
2388 3877
2388 4289
2388 4320
2388 4342
2388 4488
2388 4902
2388 4977
2389 2853
2389 3422
2389 3499
2389 3633
2389 3638
2389 4274
2389 4360
2389 4426
2389 4892
2390 2627
2390 2747
2390 2966
2390 3123
2390 3465
2390 3864
2390 3893
2390 4291
2390 4401
2390 4667
2390 4717
2391 2522
2391 2681
2391 2771
2391 3181
2391 3190
2391 3281
2391 3372
2391 3383
2391 3397
2391 4005
2391 4448
2391 4541
2391 4641
2391 4647
2391 4875
2391 4966
2392 2499
2392 2731
2392 2797
2392 2890
2392 3214
2392 3574
2392 4011
2392 4326
2392 4480
2392 4585
2392 4686
2392 4979
2393 2407
2393 2409
2393 3091
2393 3096
2393 3260
2393 3582
2393 3628
2393 3738
2393 4034
2393 4095
2393 4118
2393 4245
2393 4641
2394 2442
2394 2641
2394 2900
2394 3115
2394 3191
2394 4163
2394 4442
2394 4506
2395 2404
2395 2483
2395 2830
2395 2903
2395 2954
2395 3079
2395 3102
2395 3196
2395 3306
2395 3343
2395 3531
2395 3643
2395 3739
2395 3950
2395 3959
2395 3961
2395 3969
2395 4070
2395 4089
2395 4169
2395 4388
2395 4451
2395 4547
2396 2510
2396 2855
2396 3054
2396 3121
2396 3491
2396 4055
2396 4470
2396 4571
2396 4614
2396 4683
2397 2426
2397 2532
2397 2627
2397 2721
2397 2771
2397 2861
2397 2894
2397 2930
2397 3208
2397 3302
2397 3321
2397 3861
2397 4611
2397 4740
2397 4890
2397 4953
2397 4998
2398 2461
2398 2512
2398 2740
2398 2975
2398 3009
2398 3229
2398 3345
2398 3455
2398 3663
2398 3802
2398 4111
2398 4214
2398 4244
2398 4412
2398 4567
2398 4805
2399 2404
2399 2419
2399 2435
2399 2774
2399 4526
2400 2521
2400 2681
2400 2704
2400 2779
2400 3412
2400 3476
2400 3562
2400 3642
2400 4127
2400 4410
2400 4440
2400 4938
2401 2506
2401 2665
2401 2785
2401 2892
2401 3223
2401 3319
2401 3753
2401 4005
2401 4410
2401 4430
2401 4870
2402 2821
2402 3084
2402 3490
2402 3492
2402 3690
2402 4256
2402 4272
2402 4314
2402 4381
2402 4399
2402 4428
2402 4558
2402 4868
2402 4968
2403 2922
2403 3054
2403 3319
2403 3939
2404 2569
2404 2928
2404 3993
2404 4113
2404 4472
2404 4578
2404 4747
2404 4853
2405 2739
2405 2771
2405 3173
2405 3188
2405 3451
2405 3738
2405 3773
2405 3855
2405 3875
2405 3928
2405 4121
2405 4507
2405 4665
2405 4780
2405 4932
2405 4970
2406 2856
2406 3205
2406 3731
2406 3819
2406 3939
2406 4321
2406 4837
2407 2541
2407 2577
2407 2814
2407 2828
2407 2838
2407 2987
2407 2995
2407 3096
2407 3453
2407 4072
2407 4245
2408 2505
2408 2683
2408 2747
2408 2781
2408 2911
2408 3095
2408 3096
2408 3222
2408 3266
2408 3328
2408 3362
2408 3462
2408 3683
2408 3688
2408 3882
2408 3964
2408 3988
2408 4010
2408 4087
2408 4138
2408 4158
2408 4163
2408 4203
2408 4220
2408 4227
2408 4315
2408 4325
2408 4338
2408 4413
2408 4423
2408 4436
2408 4503
2408 4567
2408 4634
2408 4641
2408 4734
2408 4740
2408 4801
2408 4863
2409 2451
2409 2541
2409 2741
2409 2941
2409 3024
2409 3173
2409 3298
2409 3548
2409 3588
2409 3703
2409 3749
2409 3820
2409 4020
2409 4337
2409 4393
2409 4448
2409 4512
2409 4626
2409 4721
2409 4750
2410 2560
2410 3016
2410 3178
2410 3357
2410 3826
2410 4598
2410 4647
2410 4749
2411 3111
2411 3285
2411 3754
2411 3898
2411 3916
2411 4152
2411 4180
2411 4228
2411 4333
2411 4365
2412 2570
2412 2825
2412 2924
2412 3238
2412 3544
2412 4266
2412 4606
2412 4620
2413 2537
2413 2716
2413 2820
2413 3052
2413 3537
2413 3589
2413 4128
2413 4246
2413 4490
2413 4897
2413 4932
2414 2445
2414 2468
2414 2706
2414 3663
2414 4106
2414 4340
2415 2447
2415 2522
2415 2625
2415 2641
2415 2767
2415 2772
2415 2788
2415 2801
2415 2877
2415 2919
2415 3021
2415 3028
2415 3082
2415 3148
2415 3193
2415 3238
2415 3261
2415 3362
2415 3374
2415 3395
2415 3397
2415 3399
2415 3500
2415 3572
2415 3586
2415 3606
2415 3640
2415 3717
2415 3784
2415 3808
2415 3881
2415 3952
2415 4043
2415 4125
2415 4141
2415 4168
2415 4188
2415 4189
2415 4191
2415 4268
2415 4564
2415 4632
2415 4645
2415 4665
2415 4748
2415 4767
2415 4850
2415 4851
2415 4958
2415 4984
2416 2461
2416 2527
2416 2738
2416 2943
2416 3115
2416 3180
2416 3566
2416 3724
2416 3826
2416 4035
2416 4207
2416 4262
2416 4352
2416 4453
2416 4488
2416 4565
2416 4737
2416 4778
2417 2448
2417 2678
2417 2754
2417 3080
2417 3082
2417 3280
2417 3657
2417 3729
2417 3773
2417 3851
2417 4246
2417 4283
2417 4317
2417 4832
2417 4929
2418 2529
2418 2667
2418 2768
2418 2787
2418 2824
2418 2895
2418 2951
2418 2989
2418 3039
2418 3095
2418 3177
2418 3229
2418 3311
2418 3328
2418 3443
2418 3464
2418 3471
2418 3508
2418 3574
2418 3633
2418 3841
2418 4103
2418 4112
2418 4185
2418 4287
2418 4358
2418 4375
2418 4432
2418 4447
2418 4939
2418 4946
2418 4966
2419 2618
2419 2695
2419 3016
2419 3152
2419 3246
2419 3265
2419 3564
2419 3706
2419 3911
2419 4298
2419 4311
2419 4615
2420 2898
2420 3012
2420 3200
2420 3404
2420 3714
2420 3821
2420 3830
2420 3931
2420 4126
2420 4540
2420 4828
2420 4969
2421 2595
2421 3729
2421 3796
2421 3956
2421 4226
2421 4232
2421 4369
2421 4381
2421 4780
2421 4807
2422 2471
2422 3072
2422 3537
2422 3851
2422 3864
2422 4218
2422 4406
2422 4724
2422 4792
2423 2696
2423 2765
2423 2869
2423 2977
2423 3241
2423 3261
2423 3273
2423 3354
2423 3407
2423 3454
2423 3552
2423 3597
2423 3608
2423 3706
2423 3714
2423 3734
2423 4080
2423 4302
2423 4314
2423 4471
2423 4578
2423 4609
2423 4732
2423 4789
2424 2482
2424 2609
2424 2705
2424 3142
2424 3337
2424 3402
2424 3692
2424 4396
2424 4478
2424 4576
2425 2724
2425 3066
2425 3344
2425 3384
2425 3555
2425 3641
2425 3724
2425 3953
2425 4226
2425 4306
2425 4329
2425 4402
2426 2462
2426 3925
2426 4440
2427 2592
2427 2763
2427 3020
2427 3311
2427 3363
2427 4563
2427 4623
2427 4951
2428 3147
2428 3160
2428 3629
2428 3733
2428 3744
2428 3804
2428 4174
2428 4210
2429 2676
2429 2824
2429 2936
2429 2943
2429 2972
2429 3035
2429 3073
2429 3114
2429 3243
2429 3747
2429 3878
2429 4051
2429 4065
2429 4133
2429 4482
2429 4891
2429 4978
2430 2521
2430 3420
2430 3928
2430 4038
2430 4157
2430 4194
2430 4320
2430 4593
2430 4646
2430 4952
2430 4969
2431 2467
2431 2771
2431 2945
2431 3677
2431 4004
2431 4025
2431 4277
2431 4518
2431 4644
2431 4811
2431 4857
2431 4871
2431 4968
2432 2460
2432 2546
2432 2706
2432 2713
2432 2819
2432 3194
2432 3403
2432 3533
2432 3601
2432 3696
2432 3966
2432 4136
2432 4307
2432 4491
2432 4589
2432 4602
2433 2443
2433 2652
2433 3230
2433 3331
2433 3851
2433 4237
2433 4356
2433 4636
2433 4764
2433 4798
2433 4884
2433 4885
2434 2865
2434 3682
2434 3796
2434 4304
2434 4524
2434 4906
2434 4998
2435 3631
2435 3832
2435 4128
2435 4175
2435 4328
2436 2982
2436 3047
2436 3263
2436 3338
2436 3385
2436 3517
2436 3561
2436 3596
2436 4085
2436 4115
2436 4132
2436 4250
2436 4385
2436 4407
2436 4647
2436 4696
2436 4751
2436 4797
2436 4800
2436 4836
2437 2958
2437 3442
2437 3693
2437 3925
2437 4433
2437 4625
2437 4755
2437 4968
2438 2459
2438 2977
2438 3270
2438 3605
2438 3898
2438 3925
2438 3997
2438 4155
2438 4407
2438 4599
2438 4611
2438 4992
2439 2483
2439 2845
2439 3008
2439 3426
2439 3472
2439 3540
2439 3610
2439 4315
2439 4524
2439 4723
2439 4788
2440 2678
2440 2777
2440 3250
2440 3448
2440 3762
2440 4085
2440 4145
2440 4424
2440 4488
2440 4495
2440 4545
2440 4717
2440 4976
2441 2488
2441 2548
2441 3328
2441 3574
2441 4698
2442 3136
2442 3402
2442 3473
2442 3509
2442 3679
2442 3751
2442 4062
2442 4066
2442 4216
2442 4320
2442 4939
2442 4950
2443 2549
2443 3064
2443 3668
2443 3977
2443 4198
2443 4295
2443 4471
2443 4738
2443 4846
2444 3143
2444 3151
2444 3489
2444 3625
2444 3753
2444 4450
2444 4458
2444 4884
2445 2771
2445 2830
2445 2837
2445 3181
2445 3252
2445 3456
2445 3517
2445 3762
2445 3800
2445 3846
2445 3875
2446 2480
2446 2727
2446 2806
2446 3312
2446 3688
2446 3885
2446 4096
2446 4100
2446 4610
2446 4622
2446 4888
2447 2480
2447 3427
2447 3515
2447 3731
2447 4111
2447 4196
2447 4219
2447 4300
2447 4555
2447 4600
2447 4974
2447 4979
2448 2467
2448 2707
2448 3377
2448 3567
2448 3767
2448 4023
2448 4380
2448 4461
2449 2453
2449 2537
2449 2781
2449 2844
2449 2900
2449 2915
2449 2950
2449 2971
2449 3065
2449 3281
2449 3412
2449 3424
2449 3442
2449 3502
2449 3512
2449 3746
2449 3756
2449 4017
2449 4212
2449 4273
2449 4331
2450 3050
2450 3364
2450 3636
2450 3760
2450 3962
2450 4093
2450 4169
2450 4344
2450 4388
2450 4424
2450 4547
2450 4583
2450 4655
2450 4781
2451 2617
2451 2666
2451 2706
2451 2943
2451 2995
2451 3051
2451 3127
2451 3266
2451 3415
2451 3420
2451 3719
2451 3748
2451 3821
2451 4166
2451 4178
2451 4325
2451 4448
2451 4605
2451 4971
2451 4978
2452 3090
2452 3516
2452 4114
2452 4236
2452 4689
2452 4718
2452 4887
2452 4993
2453 3002
2453 3257
2453 4229
2453 4664
2453 4819
2453 4982
2453 4999
2454 2706
2454 2723
2454 2758
2454 2944
2454 3020
2454 3202
2454 3292
2454 3335
2454 3525
2454 4487
2454 4588
2454 4640
2454 4803
2454 4943
2454 4984
2455 2837
2455 3114
2455 3212
2455 3759
2455 3911
2455 4516
2455 4995
2456 3057
2456 3151
2456 3829
2456 4051
2456 4067
2456 4148
2456 4409
2456 4728
2456 4825
2457 2467
2457 2498
2457 2536
2457 2630
2457 2724
2457 2768
2457 2843
2457 3159
2457 3532
2457 3570
2457 3584
2457 3775
2457 3945
2457 4225
2457 4245
2457 4399
2457 4488
2457 4963
2458 2915
2458 2980
2458 3001
2458 3113
2458 3213
2458 3504
2458 3546
2458 3744
2458 3919
2458 4085
2458 4310
2458 4393
2458 4417
2458 4656
2458 4663
2459 2477
2459 2512
2459 2711
2459 2848
2459 2906
2459 3021
2459 3323
2459 3389
2459 3420
2459 3442
2459 3475
2459 3491
2459 3510
2459 3574
2459 3670
2459 3789
2459 3853
2459 3902
2459 4003
2459 4119
2459 4129
2459 4149
2459 4155
2459 4186
2459 4213
2459 4254
2459 4350
2459 4397
2459 4422
2459 4527
2459 4598
2459 4723
2459 4752
2460 2666
2460 2706
2460 3049
2460 3176
2460 3459
2460 3811
2460 3829
2460 4307
2460 4321
2460 4345
2461 2974
2461 3117
2461 3135
2461 3732
2461 3789
2461 3794
2461 3895
2461 4034
2461 4245
2461 4448
2461 4689
2461 4819
2461 4959
2462 2490
2462 2572
2462 2901
2462 2962
2462 3000
2462 3088
2462 3246
2462 3249
2462 3284
2462 3423
2462 3453
2462 3471
2462 3538
2462 3596
2462 3656
2462 3748
2462 3843
2462 3881
2462 3931
2462 3948
2462 3981
2462 3996
2462 4083
2462 4099
2462 4150
2462 4559
2462 4751
2462 4791
2462 4812
2462 4826
2462 4989
2463 2473
2463 2492
2463 2643
2463 3205
2463 3320
2463 3697
2463 3811
2463 4092
2463 4277
2463 4448
2463 4488
2463 4643
2464 2666
2464 2706
2464 2782
2464 3114
2464 3386
2464 3533
2464 3737
2464 4029
2464 4463
2464 4491
2464 4529
2464 4651
2465 2560
2465 2618
2465 2665
2465 2691
2465 2797
2465 3487
2465 3538
2465 3607
2465 3928
2465 3941
2465 4297
2465 4771
2465 4785
2465 4855
2466 2950
2466 3006
2466 3110
2466 3375
2466 3399
2466 3525
2466 3739
2466 3808
2466 3851
2466 3952
2466 3987
2466 4081
2466 4116
2466 4230
2466 4514
2466 4645
2466 4677
2466 4948
2467 2485
2467 2494
2467 2503
2467 2531
2467 2563
2467 2599
2467 2608
2467 2707
2467 2832
2467 2931
2467 2954
2467 3061
2467 3103
2467 3157
2467 3171
2467 3181
2467 3226
2467 3341
2467 3391
2467 3617
2467 3725
2467 3915
2467 3923
2467 4080
2467 4082
2467 4088
2467 4317
2467 4608
2467 4753
2467 4813
2468 2525
2468 2750
2468 3451
2468 3564
2468 3696
2468 4003
2468 4273
2468 4306
2468 4519
2468 4746
2468 4971
2469 2604
2469 2649
2469 2690
2469 2889
2469 2984
2469 3700
2469 3800
2469 3824
2469 4013
2469 4052
2469 4104
2469 4286
2469 4632
2469 4788
2469 4907
2469 4955
2470 2485
2470 2745
2470 3775
2470 4487
2470 4684
2471 2530
2471 2559
2471 2580
2471 2624
2471 2662
2471 2809
2471 2858
2471 2860
2471 2863
2471 2888
2471 2986
2471 3003
2471 3089
2471 3115
2471 3117
2471 3345
2471 3441
2471 3470
2471 3612
2471 3718
2471 3836
2471 3845
2471 3861
2471 3864
2471 3904
2471 3906
2471 3931
2471 3981
2471 4120
2471 4191
2471 4210
2471 4261
2471 4405
2471 4478
2471 4524
2471 4691
2471 4922
2471 4934
2472 3100
2472 3121
2472 3380
2472 3399
2472 3449
2472 3592
2472 4122
2472 4485
2472 4801
2473 2492
2473 2721
2473 2747
2473 2792
2473 2857
2473 2929
2473 2948
2473 3138
2473 3499
2473 3572
2473 3602
2473 3870
2473 3908
2473 3922
2473 3965
2473 4006
2473 4024
2473 4102
2473 4136
2473 4256
2473 4277
2473 4536
2473 4557
2473 4619
2473 4690
2473 4695
2473 4768
2473 4932
2474 2652
2474 2675
2474 2680
2474 2855
2474 3043
2474 3117
2474 3141
2474 3747
2474 3838
2474 4000
2474 4283
2474 4331
2474 4339
2474 4390
2474 4453
2475 2671
2475 3272
2475 3636
2475 4248
2475 4355
2475 4618
2475 4752
2476 2578
2476 2638
2476 2877
2476 3046
2476 3524
2476 4442
2476 4574
2477 2542
2477 2880
2477 3162
2477 3310
2477 3537
2477 3569
2477 4102
2477 4440
2477 4575
2478 2566
2478 2612
2478 2700
2478 2851
2478 2932
2478 3333
2478 3476
2478 3668
2478 4065
2478 4642
2478 4700
2479 2554
2479 2706
2479 2785
2479 2874
2479 3036
2479 3054
2479 3137
2479 4040
2479 4434
2479 4737
2479 4739
2479 4841
2479 4930
2480 2519
2480 2670
2480 2804
2480 2943
2480 3119
2480 3492
2480 4461
2480 4546
2480 4551
2480 4575
2480 4839
2481 2504
2481 2640
2481 3172
2481 3467
2481 3511
2481 4182
2481 4292
2482 2655
2482 2730
2482 2979
2482 3259
2482 3446
2482 3933
2482 4380
2482 4692
2482 4834
2482 4882
2483 2491
2483 2837
2483 3080
2483 3095
2483 3197
2483 3514
2483 3707
2483 3794
2483 3803
2483 4046
2483 4209
2483 4276
2483 4309
2483 4516
2483 4797
2483 4901
2483 4915
2483 4962
2484 2498
2484 2834
2484 3216
2484 3677
2484 3729
2484 4941
2485 2506
2485 2608
2485 3107
2485 3242
2485 4081
2485 4305
2485 4439
2485 4687
2485 4791
2485 4896
2485 4897
2486 2496
2486 2604
2486 2671
2486 2736
2486 2932
2486 3106
2486 3410
2486 3494
2486 3532
2486 3626
2486 3719
2486 3837
2486 4180
2486 4519
2486 4662
2486 4705
2486 4815
2486 4862
2486 4863
2486 4958
2486 4996
2487 2696
2487 2702
2487 2863
2487 2928
2487 3208
2487 3306
2487 3339
2487 3977
2487 4052
2487 4082
2487 4389
2487 4566
2487 4585
2487 4934
2488 2710
2488 2763
2488 3067
2488 3106
2488 3465
2488 3637
2488 3796
2488 3905
2488 4386
2488 4789
2488 4901
2489 2661
2489 3020
2489 3147
2489 3568
2489 3693
2489 4253
2489 4415
2490 2703
2490 3230
2490 3302
2490 3447
2490 3637
2490 3693
2490 3696
2490 3736
2490 3768
2490 3881
2490 3996
2490 4089
2490 4277
2490 4357
2490 4401
2490 4713
2490 4778
2490 4911
2490 4969
2491 2519
2491 2576
2491 2596
2491 2906
2491 3010
2491 4090
2491 4233
2491 4812
2491 4913
2491 4941
2492 2493
2492 3049
2492 3100
2492 3438
2492 3572
2492 3689
2492 3693
2492 3777
2492 3919
2492 4073
2492 4319
2492 4788
2492 4961
2493 2622
2493 2784
2493 3012
2493 3043
2493 3353
2493 3436
2493 4048
2493 4116
2493 4178
2493 4448
2493 4537
2493 4546
2493 4899
2494 3048
2494 3187
2494 3567
2494 3876
2494 4027
2494 4072
2494 4237
2494 4417
2494 4562
2494 4860
2495 2929
2495 3046
2495 4436
2495 4812
2496 2834
2496 2847
2496 3252
2496 3273
2496 4039
2496 4166
2496 4233
2496 4326
2496 4669
2496 4681
2496 4813
2497 2793
2497 3103
2497 3178
2497 3267
2497 3413
2497 4414
2497 4605
2497 4782
2497 4795
2498 2630
2498 2949
2498 3553
2498 4559
2498 4680
2498 4772
2499 2906
2499 3470
2499 3773
2499 3884
2499 4000
2499 4578
2499 4629
2499 4697
2500 2523
2500 2756
2500 3305
2500 3394
2500 3427
2500 3647
2500 3850
2500 3954
2500 4291
2500 4306
2500 4514
2500 4582
2500 4620
2500 4791
2500 4819
2501 3241
2501 3254
2501 3282
2501 3293
2501 3990
2501 4008
2501 4183
2501 4828
2501 4905
2502 2590
2502 2775
2502 2954
2502 3004
2502 3051
2502 3149
2502 3505
2502 4246
2502 4396
2503 2540
2503 2687
2503 2690
2503 2735
2503 2988
2503 3825
2503 3891
2503 4033
2503 4089
2503 4171
2503 4359
2504 2554
2504 2584
2504 2629
2504 2683
2504 2791
2504 3602
2504 4102
2504 4596
2504 4867
2504 4955
2505 2506
2505 2515
2505 2654
2505 2692
2505 2736
2505 2841
2505 2873
2505 2956
2505 3000
2505 3025
2505 3268
2505 3278
2505 3385
2505 3396
2505 3461
2505 3630
2505 4255
2505 4290
2505 4769
2505 4781
2505 4892
2505 4916
2506 3169
2506 3366
2506 3488
2506 3671
2506 3784
2506 4246
2506 4261
2506 4468
2506 4479
2506 4771
2506 4791
2506 4879
2507 2637
2507 2730
2507 2967
2507 3103
2507 3344
2507 3735
2507 3745
2507 3751
2507 4559
2507 4594
2507 4969
2507 4970
2508 2512
2508 2580
2508 2611
2508 2883
2508 3155
2508 3422
2509 2905
2509 3086
2509 3313
2509 3933
2509 4206
2509 4618
2509 4795
2510 2573
2510 3111
2510 3423
2510 4023
2510 4121
2510 4430
2510 4431
2510 4780
2511 2568
2511 2859
2511 2860
2511 2884
2511 3105
2511 3124
2511 3127
2511 3186
2511 3584
2511 3686
2511 3828
2511 3875
2511 4260
2511 4653
2511 4918
2512 2909
2512 3086
2512 3151
2512 3422
2512 3620
2512 3681
2512 3886
2512 4027
2512 4054
2512 4209
2512 4285
2512 4624
2512 4723
2512 4915
2513 2740
2513 2751
2513 2773
2513 3038
2513 3218
2513 3714
2513 3882
2514 2621
2514 3289
2514 3305
2514 3893
2514 4265
2514 4429
2514 4551
2515 2563
2515 2839
2515 2862
2515 2915
2515 2929
2515 3183
2515 3398
2515 3635
2515 4189
2515 4394
2515 4620
2515 4623
2515 4943
2516 3328
2516 3357
2516 3701
2516 3888
2516 3980
2516 4026
2516 4280
2517 2524
2517 3159
2517 3293
2517 3315
2517 4159
2517 4199
2517 4443
2518 2774
2518 2776
2518 2832
2518 3163
2518 3181
2518 3391
2518 3420
2518 3743
2518 4049
2518 4124
2518 4335
2518 4496
2518 4939
2518 4973
2519 2957
2519 3156
2519 3294
2519 3934
2519 4038
2519 4109
2519 4412
2520 2917
2520 3352
2520 3793
2520 4044
2520 4403
2520 4550
2520 4969
2520 4994
2521 2542
2521 2814
2521 3725
2521 3737
2521 3875
2521 3965
2521 4183
2521 4262
2521 4376
2521 4791
2521 4978
2522 2772
2522 2823
2522 2899
2522 3023
2522 3563
2522 3804
2522 4096
2522 4100
2522 4724
2523 2614
2523 2665
2523 2764
2523 3321
2523 3335
2523 3411
2523 3419
2523 3540
2523 3658
2523 3787
2523 4157
2523 4886
2523 4915
2524 2687
2524 2816
2524 3057
2524 3404
2524 3521
2524 3599
2524 3862
2524 4448
2524 4717
2525 2718
2525 3350
2525 3434
2525 4140
2525 4169
2525 4208
2525 4217
2525 4293
2525 4302
2525 4438
2526 2999
2526 3062
2526 3195
2526 3767
2526 3861
2526 3870
2526 3966
2526 4009
2526 4294
2526 4318
2526 4698
2527 2898
2527 3011
2527 3018
2527 3038
2527 3053
2527 3208
2527 3297
2527 3336
2527 3383
2527 3413
2527 3418
2527 3559
2527 3685
2527 3714
2527 3723
2527 4041
2527 4095
2527 4134
2527 4169
2527 4263
2527 4272
2527 4323
2527 4401
2527 4444
2527 4509
2527 4831
2527 4982
2528 3327
2528 3342
2528 3641
2528 4577
2528 4582
2528 4600
2528 4824
2528 4940
2529 2666
2529 2706
2529 2713
2529 2818
2529 2956
2529 3155
2529 3590
2529 4075
2529 4344
2529 4345
2529 4602
2529 4959
2530 2539
2530 2681
2530 3813
2530 4469
2530 4553
2530 4554
2530 4639
2531 2608
2531 3229
2531 3385
2531 3430
2531 3482
2531 3750
2531 4198
2531 4311
2531 4463
2531 4728
2531 4983
2532 2714
2532 2790
2532 3110
2532 3498
2532 3596
2532 3744
2532 4089
2532 4276
2532 4516
2532 4843
2532 4922
2532 4979
2533 2704
2533 2733
2533 2753
2533 2759
2533 3469
2533 3615
2533 3666
2533 3731
2533 4080
2533 4246
2533 4506
2533 4672
2533 4930
2534 2563
2534 2771
2534 2786
2534 2873
2534 2883
2534 2930
2534 3151
2534 3340
2534 3406
2534 3429
2534 3553
2534 3676
2534 3894
2534 3977
2534 4073
2534 4262
2534 4399
2534 4710
2534 4816
2535 2555
2535 3053
2535 3664
2535 3729
2535 3762
2535 4083
2535 4576
2535 4739
2536 2640
2536 3051
2536 3055
2536 3080
2536 3167
2536 4189
2536 4269
2536 4552
2536 4643
2536 4650
2536 4845
2537 2547
2537 3040
2537 3046
2537 3059
2537 3254
2537 4701
2537 4859
2538 2653
2538 2667
2538 2796
2538 2797
2538 2825
2538 2862
2538 2943
2538 2960
2538 2975
2538 3472
2538 3573
2538 3661
2538 3756
2538 4224
2538 4353
2538 4558
2538 4615
2538 4720
2538 4775
2538 4795
2538 4842
2538 4845
2538 4936
2538 4965
2538 4982
2539 3101
2539 3570
2539 4338
2539 4684
2539 4798
2539 4973
2540 2609
2540 2705
2540 3136
2540 3147
2540 3150
2540 3223
2540 3271
2540 3356
2540 3426
2540 3437
2540 3646
2540 3673
2540 3716
2540 3824
2540 3843
2540 3844
2540 3866
2540 3896
2540 3957
2540 3966
2540 3973
2540 4085
2540 4118
2540 4127
2540 4234
2540 4268
2540 4438
2540 4485
2540 4729
2540 4797
2540 4914
2541 3104
2541 3106
2541 3197
2541 3308
2541 4280
2541 4716
2541 4719
2542 2590
2542 2645
2542 2712
2542 2814
2542 2967
2542 3245
2542 3681
2542 3972
2542 4065
2542 4109
2542 4262
2542 4347
2542 4445
2542 4510
2542 4589
2542 4664
2542 4692
2543 3304
2543 3453
2543 3490
2543 3686
2543 3920
2543 4013
2543 4095
2543 4188
2543 4209
2543 4316
2543 4439
2543 4562
2543 4874
2543 4961
2544 2811
2544 3289
2544 3655
2544 3792
2544 3824
2544 4414
2544 4434
2544 4551
2544 4956
2545 2584
2545 2590
2545 2610
2545 2616
2545 2827
2545 2974
2545 3000
2545 3497
2545 4092
2545 4093
2545 4262
2545 4271
2545 4432
2545 4570
2545 4840
2545 4916
2545 4923
2545 4961
2545 4962
2545 4963
2546 3037
2546 3138
2546 3180
2546 3229
2546 3422
2546 3465
2546 3632
2546 3993
2546 4039
2546 4054
2546 4243
2546 4601
2546 4749
2546 4847
2546 4975
2547 2740
2547 2938
2547 2979
2547 3068
2547 3877
2547 4159
2547 4319
2547 4355
2547 4612
2547 4904
2548 2613
2548 3080
2548 3315
2548 3363
2548 3851
2548 4116
2548 4422
2548 4447
2548 4962
2549 2832
2549 2923
2549 2960
2549 3032
2549 3082
2549 3331
2549 3805
2549 4099
2549 4156
2549 4177
2549 4416
2549 4417
2549 4973
2550 2850
2550 3079
2550 3668
2550 4070
2550 4383
2550 4568
2551 2951
2551 3374
2551 3717
2551 4017
2551 4556
2551 4623
2551 4889
2551 4962
2552 2709
2552 3112
2552 3218
2552 3718
2552 3795
2552 3894
2552 3950
2552 3952
2552 4531
2552 4625
2552 4814
2553 2577
2553 2893
2553 3352
2553 3495
2553 3577
2553 3898
2553 4152
2554 2577
2554 2584
2554 2655
2554 2791
2554 2843
2554 2981
2554 3047
2554 3048
2554 3342
2554 3379
2554 3426
2554 3471
2554 3623
2554 3678
2554 3710
2554 3876
2554 3885
2554 4069
2554 4102
2554 4227
2554 4430
2554 4717
2554 4867
2554 4901
2554 4955
2555 3113
2555 3285
2555 3560
2555 3579
2555 3642
2555 3674
2555 3861
2555 3898
2555 4067
2555 4152
2555 4244
2555 4459
2555 4623
2555 4889
2556 2576
2556 2866
2556 2912
2556 3056
2556 3060
2556 3135
2556 3294
2556 3373
2556 3673
2556 3843
2556 3854
2556 4281
2556 4993
2556 4997
2557 2576
2557 3004
2557 3186
2557 3187
2557 3607
2557 3731
2557 3889
2557 3999
2557 4138
2557 4702
2557 4714
2557 4771
2557 4949
2558 2939
2558 3348
2558 3379
2558 3740
2558 3753
2558 4187
2558 4892
2559 2562
2559 3679
2559 4524
2559 4603
2559 4644
2559 4781
2559 4835
2559 4999
2560 2608
2560 2621
2560 2764
2560 3067
2560 3178
2560 3289
2560 3539
2560 3872
2560 4191
2560 4543
2560 4553
2560 4735
2561 4436
2561 4445
2561 4485
2561 4498
2561 4709
2562 3207
2562 3482
2562 3642
2562 3963
2562 4237
2562 4298
2562 4639
2562 4659
2562 4816
2563 2618
2563 2653
2563 2655
2563 2661
2563 2750
2563 2861
2563 2982
2563 3103
2563 3115
2563 3121
2563 3124
2563 3170
2563 3273
2563 3361
2563 3366
2563 3409
2563 3434
2563 3448
2563 3465
2563 3657
2563 3676
2563 3788
2563 3851
2563 3930
2563 4104
2563 4158
2563 4186
2563 4216
2563 4335
2563 4370
2563 4387
2563 4482
2563 4499
2563 4548
2563 4588
2563 4728
2563 4759
2563 4857
2564 3024
2564 3025
2564 3070
2564 3167
2564 3212
2564 3392
2564 3656
2564 3703
2564 3720
2564 4041
2564 4412
2565 2644
2565 3622
2565 4178
2565 4593
2565 4854
2566 2811
2566 3052
2566 3162
2566 3453
2566 3555
2566 3777
2566 3976
2566 4451
2566 4702
2566 4734
2567 2750
2567 2776
2567 2898
2567 3213
2567 3477
2567 3788
2567 3896
2567 4358
2567 4541
2567 4857
2568 2730
2568 2738
2568 2885
2568 4354
2568 4459
2568 4541
2568 4542
2568 4835
2569 2733
2569 2974
2569 3142
2569 3737
2569 3938
2569 4479
2570 2834
2570 3342
2570 3536
2570 4068
2570 4824
2571 2602
2571 2956
2571 3135
2571 3209
2571 3343
2571 3400
2571 3875
2571 4010
2571 4060
2571 4081
2571 4780
2571 4842
2572 2601
2572 2635
2572 2726
2572 2792
2572 3289
2572 3293
2572 3302
2572 3958
2572 4051
2572 4064
2572 4099
2572 4430
2572 4836
2572 4914
2572 4983
2573 2713
2573 3027
2573 3054
2573 3193
2573 3300
2573 3342
2573 3536
2573 3756
2573 3767
2573 3923
2573 3969
2573 4233
2573 4254
2573 4394
2573 4448
2573 4601
2573 4681
2573 4788
2574 2625
2574 2717
2574 3180
2574 3566
2574 3816
2574 4162
2574 4321
2574 4352
2574 4376
2574 4487
2574 4632
2575 2586
2575 3546
2575 4022
2575 4111
2575 4551
2576 2682
2576 2768
2576 2861
2576 2871
2576 2994
2576 3004
2576 3075
2576 3077
2576 3351
2576 3383
2576 3524
2576 3547
2576 3612
2576 3706
2576 3730
2576 3946
2576 4111
2576 4467
2576 4721
2576 4969
2577 2791
2577 2823
2577 3016
2577 3124
2577 3204
2577 3209
2577 4102
2577 4846
2577 4889
2578 2694
2578 2728
2578 2913
2578 3039
2578 3432
2578 3629
2578 4114
2578 4472
2578 4553
2578 4790
2579 3046
2579 4269
2579 4780
2579 4869
2580 2719
2580 3756
2580 4084
2580 4244
2580 4307
2580 4349
2580 4563
2580 4613
2580 4850
2580 4891
2580 4900
2581 2947
2581 2985
2581 3222
2581 3555
2581 3864
2581 3868
2581 4109
2581 4262
2582 2861
2582 3167
2582 3281
2582 3442
2582 3540
2582 3574
2582 4611
2582 4792
2582 4848
2583 2752
2583 3092
2583 3457
2583 3586
2583 3646
2583 4091
2583 4122
2583 4179
2583 4417
2584 2702
2584 2709
2584 3712
2584 4077
2584 4102
2584 4846
2585 2662
2585 2723
2585 3420
2585 3671
2585 3761
2585 4046
2585 4112
2585 4150
2585 4275
2585 4296
2585 4398
2585 4670
2585 4712
2585 4713
2585 4875
2586 2676
2586 2677
2586 2718
2586 2733
2586 2866
2586 2903
2586 2948
2586 3070
2586 3648
2586 3760
2586 3912
2586 4111
2586 4542
2586 4586
2586 4625
2587 2599
2587 2615
2587 2627
2587 2758
2587 2973
2587 2982
2587 2994
2587 3200
2587 3736
2587 3742
2587 3788
2587 4954
2588 2862
2588 2899
2588 2910
2588 3020
2588 3051
2588 3435
2588 3699
2588 4282
2588 4439
2588 4450
2588 4571
2588 4722
2588 4873
2588 4888
2589 2624
2589 4344
2589 4604
2589 4858
2589 4936
2589 4997
2590 2639
2590 2703
2590 2866
2590 2906
2590 2974
2590 3028
2590 3102
2590 3144
2590 3165
2590 3192
2590 3258
2590 3332
2590 3553
2590 3719
2590 3782
2590 3792
2590 3965
2590 3971
2590 3977
2590 3990
2590 3992
2590 4014
2590 4109
2590 4169
2590 4315
2590 4504
2590 4547
2590 4625
2590 4805
2590 4809
2590 4961
2590 4963
2590 4978
2590 4989
2591 2666
2591 2883
2591 2906
2591 3920
2591 4156
2591 4230
2591 4370
2591 4586
2591 4648
2591 4849
2591 4956
2591 4978
2592 2656
2592 2813
2592 2974
2592 3097
2592 3340
2592 3555
2592 3711
2592 4674
2593 2654
2593 2681
2593 2929
2593 3478
2593 3578
2593 3723
2593 3726
2593 3854
2593 4156
2593 4247
2593 4666
2593 4892
2593 4939
2594 2770
2594 2885
2594 3400
2594 3457
2594 3657
2594 3964
2594 4160
2594 4319
2594 4506
2594 4671
2594 4858
2594 4909
2594 4999
2595 2676
2595 2919
2595 3458
2595 3589
2595 3606
2595 3838
2595 3920
2595 3948
2595 4096
2595 4105
2595 4323
2595 4513
2595 4522
2596 2603
2596 2644
2596 2784
2596 2897
2596 3000
2596 3097
2596 3105
2596 3380
2596 3435
2596 3527
2596 3652
2596 3658
2596 4277
2596 4317
2596 4347
2596 4391
2596 4420
2596 4872
2596 4939
2597 2801
2597 2828
2597 2940
2597 3077
2597 3181
2597 3297
2597 3488
2597 3553
2597 3755
2597 3809
2597 4046
2597 4072
2597 4513
2598 2885
2598 3129
2598 3812
2598 4200
2598 4441
2598 4577
2598 4782
2598 4937
2598 4938
2598 4996
2599 2692
2599 2967
2599 3434
2599 3499
2599 3607
2599 3772
2599 3984
2599 4097
2599 4148
2599 4453
2599 4533
2599 4955
2600 2895
2600 3288
2600 3753
2600 3879
2600 3966
2600 4500
2600 4858
2601 2656
2601 2819
2601 2963
2601 3083
2601 3938
2601 3952
2601 3965
2601 4038
2601 4061
2601 4147
2601 4225
2601 4447
2601 4503
2601 4679
2601 4978
2602 2658
2602 2767
2602 3026
2602 3144
2602 3204
2602 3235
2602 3469
2602 3628
2602 3733
2602 3758
2602 3986
2602 4320
2602 4605
2602 4627
2602 4646
2602 4845
2602 4941
2602 4944
2603 2644
2603 2956
2603 2958
2603 3341
2603 3387
2603 3430
2603 3517
2603 3652
2603 3859
2603 3904
2603 4052
2603 4096
2603 4165
2603 4351
2603 4922
2604 2769
2604 2782
2604 2818
2604 2917
2604 2984
2604 3098
2604 3106
2604 3385
2604 3403
2604 3426
2604 3494
2604 3540
2604 3554
2604 3675
2604 3699
2604 3811
2604 3873
2604 3891
2604 3905
2604 4027
2604 4094
2604 4281
2604 4286
2604 4346
2604 4457
2604 4560
2604 4702
2604 4877
2604 4913
2605 2687
2605 2936
2605 3230
2605 3279
2605 3567
2605 3676
2605 3695
2605 3758
2605 3889
2605 4029
2605 4132
2605 4242
2605 4412
2605 4444
2605 4615
2605 4817
2605 4850
2605 4972
2606 2747
2606 2806
2606 3241
2606 3898
2606 4152
2606 4631
2606 4923
2607 2629
2607 3326
2607 3605
2607 3808
2607 3901
2607 3911
2607 4004
2607 4242
2607 4562
2607 4683
2607 4914
2608 3094
2608 3120
2608 3653
2608 4205
2608 4711
2608 4774
2608 4798
2608 4808
2608 4809
2608 4979
2609 2731
2609 2808
2609 3042
2609 3063
2609 3400
2609 3452
2609 3481
2609 3590
2609 4681
2609 4926
2609 4972
2610 2648
2610 3039
2610 3059
2610 3195
2610 3254
2610 3262
2610 3973
2610 4374
2610 4655
2611 2699
2611 2778
2611 3362
2611 3794
2611 3886
2611 3964
2611 4112
2611 4202
2611 4206
2611 4303
2611 4550
2611 4653
2611 4770
2611 4955
2612 2855
2612 3257
2612 3270
2612 3300
2612 3405
2612 3750
2612 4241
2612 4642
2613 2700
2613 3178
2613 3271
2613 3765
2613 3824
2613 4739
2613 4785
2613 4942
2613 4979
2614 2736
2614 2794
2614 3044
2614 3540
2614 3645
2614 3882
2614 4012
2614 4086
2614 4676
2614 4688
2615 2646
2615 2725
2615 2997
2615 3771
2615 3940
2615 4054
2615 4715
2615 4933
2616 2765
2616 3065
2616 3608
2616 4441
2616 4592
2616 4751
2616 4850
2616 4936
2617 2627
2617 3528
2617 3906
2617 4025
2617 4052
2617 4164
2617 4237
2617 4539
2617 4713
2617 4985
2618 3095
2618 3175
2618 3262
2618 3431
2618 3478
2618 3710
2618 3828
2618 4239
2618 4288
2618 4798
2618 4995
2619 2668
2619 3181
2619 3349
2619 3574
2619 3589
2619 3697
2619 3708
2619 3733
2619 3867
2619 4183
2619 4207
2619 4269
2619 4966
2620 2625
2620 2697
2620 2764
2620 3084
2620 3652
2620 3964
2620 4462
2621 2656
2621 3203
2621 3225
2621 3453
2621 3714
2621 4177
2621 4948
2622 2798
2622 2911
2622 3096
2622 3170
2622 3934
2622 4097
2622 4178
2622 4231
2622 4337
2622 4363
2622 4766
2623 2806
2623 2824
2623 3116
2623 3177
2623 3300
2623 3424
2623 3690
2623 3756
2623 3823
2623 4219
2623 4231
2623 4925
2623 4951
2623 4984
2624 4141
2624 4261
2624 4393
2624 4478
2624 4678
2624 4904
2625 2757
2625 2769
2625 2790
2625 2928
2625 2985
2625 2989
2625 2999
2625 3288
2625 3671
2625 4093
2625 4940
2626 2671
2626 2705
2626 2774
2626 2828
2626 3143
2626 3268
2626 3273
2626 3311
2626 3636
2626 3859
2626 4133
2626 4144
2626 4191
2626 4379
2626 4405
2626 4699
2627 2845
2627 2956
2627 3105
2627 3145
2627 3153
2627 3226
2627 3328
2627 3339
2627 3528
2627 3662
2627 3826
2627 3899
2627 4015
2627 4117
2627 4334
2627 4524
2627 4825
2628 3178
2628 3225
2628 3228
2628 3336
2628 3369
2628 3493
2628 3501
2628 3714
2628 3869
2628 4914
2629 3183
2629 3564
2629 3571
2629 3574
2629 3839
2629 4690
2629 4812
2629 4889
2629 4955
2630 2854
2630 3467
2630 3636
2630 3699
2630 3761
2630 3860
2630 3985
2630 4114
2630 4143
2630 4347
2630 4399
2630 4405
2630 4690
2631 2714
2631 3347
2631 3856
2631 3941
2631 4376
2631 4477
2631 4839
2631 4934
2631 4952
2632 2785
2632 4019
2632 4193
2632 4265
2632 4499
2632 4858
2633 2753
2633 3197
2633 3275
2633 3555
2633 4041
2633 4194
2633 4377
2633 4627
2633 4652
2633 4735
2633 4820
2634 2877
2634 2941
2634 2953
2634 3000
2634 3002
2634 3060
2634 3315
2634 3345
2634 3424
2634 3448
2634 3608
2634 3611
2634 3886
2634 3901
2634 3964
2634 4096
2634 4219
2634 4513
2634 4646
2634 4822
2634 4823
2635 3092
2635 3177
2635 3234
2635 3709
2635 3800
2635 4171
2635 4359
2635 4522
2635 4561
2635 4684
2635 4715
2635 4871
2635 4906
2636 2947
2636 3159
2636 3164
2636 3746
2636 3765
2636 4879
2637 3117
2637 3297
2637 3410
2637 3456
2637 3540
2637 3561
2637 3646
2637 3657
2637 3744
2637 3850
2637 4073
2637 4112
2637 4221
2637 4226
2637 4275
2637 4316
2637 4323
2637 4386
2637 4487
2637 4840
2638 2643
2638 3132
2638 3321
2638 3421
2638 3541
2638 3721
2638 3790
2638 4002
2638 4451
2638 4512
2638 4632
2639 2712
2639 3426
2639 3508
2639 3536
2639 3972
2639 4003
2639 4242
2639 4412
2639 4586
2639 4756
2640 2728
2640 2736
2640 3068
2640 3140
2640 3213
2640 3484
2640 3675
2640 3680
2640 3715
2640 3767
2640 3853
2640 3915
2640 3987
2640 4042
2640 4146
2640 4185
2640 4250
2640 4394
2640 4504
2640 4515
2640 4529
2640 4693
2640 4792
2640 4825
2640 4957
2641 2964
2641 3269
2641 3318
2641 3583
2641 3771
2641 3821
2641 3825
2641 3831
2641 4218
2641 4280
2641 4321
2641 4508
2641 4597
2641 4633
2641 4717
2641 4719
2642 2656
2642 2662
2642 2922
2642 2999
2642 3195
2642 3337
2642 3362
2642 3546
2642 3718
2642 3861
2642 3898
2642 4254
2642 4309
2642 4333
2642 4624
2642 4885
2643 2670
2643 2715
2643 3244
2643 3321
2643 3503
2643 3571
2643 4497
2643 4858
2643 4866
2643 4984
2644 3095
2644 3146
2644 3197
2644 3253
2644 3287
2644 3721
2644 3975
2644 4057
2644 4298
2644 4317
2644 4324
2644 4678
2644 4872
2645 3004
2645 3308
2645 3537
2645 3588
2645 3683
2645 3953
2645 4066
2645 4073
2645 4613
2646 2783
2646 2840
2646 2909
2646 2928
2646 3020
2646 3624
2646 3729
2646 4209
2646 4396
2646 4647
2646 4672
2646 4790
2646 4997
2647 2692
2647 2769
2647 3261
2647 3321
2647 3444
2647 3820
2647 3840
2647 4097
2647 4180
2647 4547
2648 2734
2648 2738
2648 2984
2648 3276
2648 3598
2648 3602
2648 3716
2648 4079
2648 4189
2648 4704
2648 4850
2648 4851
2648 4887
2649 2771
2649 2939
2649 3685
2649 3931
2649 4056
2649 4194
2649 4234
2649 4643
2649 4930
2650 2812
2650 2818
2650 3038
2650 3230
2650 3344
2650 3389
2650 3585
2650 3768
2650 4185
2650 4199
2650 4339
2650 4612
2650 4648
2650 4682
2650 4692
2650 4838
2650 4863
2651 2926
2651 3809
2651 4154
2651 4237
2651 4436
2651 4836
2652 2749
2652 2839
2652 2908
2652 3040
2652 3366
2652 3425
2652 3812
2652 3838
2652 3847
2652 3900
2652 4083
2652 4321
2652 4322
2652 4409
2652 4491
2652 4658
2652 4932
2653 2775
2653 2969
2653 2997
2653 3072
2653 3162
2653 3229
2653 3417
2653 3529
2653 3681
2653 3832
2653 3897
2653 3910
2653 3992
2653 4003
2653 4123
2653 4501
2653 4622
2653 4664
2653 4676
2653 4681
2653 4855
2653 4988
2654 3004
2654 3129
2654 3297
2654 3413
2654 3449
2654 4273
2654 4439
2654 4555
2654 4804
2654 4809
2655 2672
2655 2987
2655 2995
2655 3028
2655 3195
2655 3289
2655 3449
2655 3465
2655 3633
2655 4197
2655 4346
2655 4463
2655 4546
2655 4599
2656 2744
2656 2802
2656 2917
2656 2936
2656 3266
2656 3695
2656 3970
2656 4056
2656 4480
2656 4535
2656 4545
2656 4698
2656 4765
2656 4891
2656 4929
2657 3217
2657 3284
2657 3445
2657 3550
2657 3982
2657 4027
2657 4587
2657 4719
2657 4962
2658 3578
2658 3580
2658 3937
2658 4168
2658 4242
2658 4359
2658 4461
2658 4547
2658 4795
2659 2720
2659 3113
2659 3894
2659 4655
2659 4711
2660 2841
2660 3020
2660 4111
2660 4212
2660 4790
2661 3223
2661 3245
2661 4089
2661 4102
2661 4110
2661 4155
2661 4247
2661 4545
2662 2800
2662 2856
2662 3347
2662 3618
2662 3804
2662 3824
2662 3895
2662 4308
2662 4426
2662 4649
2662 4870
2663 3110
2663 3171
2663 3449
2663 3989
2663 4161
2663 4297
2663 4359
2663 4600
2663 4857
2663 4896
2663 4953
2664 2723
2664 2840
2664 3004
2664 3027
2664 3423
2664 3608
2664 3624
2664 3685
2664 4528
2664 4649
2665 2871
2665 3462
2665 3596
2665 3598
2665 3658
2665 3688
2665 3761
2665 3848
2665 3999
2665 4378
2665 4411
2665 4526
2665 4800
2665 4931
2666 2706
2666 2737
2666 3268
2666 3276
2666 3960
2666 4170
2666 4307
2666 4327
2666 4491
2666 4921
2666 4988
2667 2739
2667 2786
2667 4052
2667 4169
2667 4238
2668 2778
2668 2834
2668 2888
2668 3120
2668 3993
2669 2715
2669 2867
2669 2878
2669 3004
2669 3128
2669 3197
2669 3250
2669 3358
2669 3671
2669 3868
2669 4524
2669 4730
2669 4809
2669 4884
2670 2678
2670 2692
2670 2866
2670 3167
2670 3556
2670 4003
2670 4417
2670 4432
2670 4604
2670 4678
2670 4745
2670 4892
2671 2674
2671 2917
2671 2918
2671 3066
2671 3074
2671 3130
2671 3167
2671 3315
2671 3379
2671 3734
2671 3983
2671 4008
2671 4228
2671 4347
2671 4426
2671 4710
2672 2673
2672 2750
2672 2903
2672 3014
2672 3128
2672 3378
2672 3392
2672 4144
2672 4311
2672 4323
2672 4502
2673 2729
2673 2789
2673 2835
2673 2855
2673 2887
2673 3353
2673 3555
2673 3631
2673 3734
2673 3736
2673 4027
2673 4102
2673 4520
2673 4720
2674 3040
2674 3345
2674 3368
2674 3426
2674 3744
2674 3751
2674 3807
2674 3863
2674 4311
2674 4435
2674 4702
2675 2695
2675 2821
2675 3226
2675 4789
2675 4822
2676 2915
2676 3089
2676 3241
2676 3397
2676 3503
2676 3567
2676 3795
2676 4089
2676 4556
2676 4604
2676 4654
2676 4849
2676 4951
2676 4987
2676 4996
2677 2772
2677 2839
2677 3121
2677 3294
2677 3313
2677 4474
2677 4532
2678 2721
2678 3074
2678 3336
2678 3567
2678 3579
2678 3594
2678 3954
2678 4489
2678 4938
2679 3124
2679 3236
2679 3413
2679 3450
2679 3714
2679 4001
2679 4470
2679 4668
2680 3544
2680 3551
2680 3849
2680 4737
2680 4874
2681 2698
2681 2894
2681 3262
2681 3300
2681 3489
2681 3521
2681 3695
2681 3915
2681 4153
2681 4302
2681 4541
2681 4717
2681 4724
2681 4729
2681 4744
2681 4750
2681 4790
2681 4862
2681 4901
2682 2695
2682 2770
2682 2833
2682 2898
2682 4048
2682 4207
2682 4303
2682 4377
2682 4395
2682 4435
2682 4532
2683 3042
2683 3110
2683 3124
2683 3343
2683 3379
2683 3494
2683 3602
2683 3617
2683 3650
2683 3677
2683 3693
2683 3919
2683 3953
2683 4078
2683 4116
2683 4164
2683 4447
2683 4470
2683 4755
2683 4950
2683 4979
2684 2759
2684 3162
2684 3540
2684 3810
2684 3844
2684 4073
2684 4096
2684 4149
2684 4215
2684 4894
2685 2883
2685 2974
2685 3112
2685 3165
2685 3556
2685 3757
2685 3952
2685 3965
2685 3977
2685 4148
2685 4281
2685 4512
2685 4627
2686 3307
2686 4097
2686 4255
2686 4428
2686 4583
2686 4789
2687 2863
2687 3025
2687 3036
2687 3346
2687 3385
2687 3685
2687 3963
2688 3064
2688 3275
2688 3323
2688 3578
2688 3657
2688 3672
2688 3787
2688 3925
2688 4560
2688 4598
2689 2918
2689 3042
2689 3092
2689 3100
2689 3157
2689 3178
2689 3953
2689 3959
2689 4378
2690 2759
2690 2903
2690 3098
2690 3353
2690 3941
2690 4174
2690 4324
2690 4872
2691 2719
2691 2789
2691 2832
2691 3161
2691 3251
2691 3379
2691 3432
2691 3762
2691 3805
2691 3824
2691 3902
2691 4226
2691 4308
2691 4717
2691 4798
2692 2739
2692 2806
2692 2873
2692 3355
2692 3381
2692 3391
2692 3427
2692 3727
2692 3851
2692 4105
2692 4578
2692 4669
2692 4741
2692 4936
2693 2869
2693 2935
2693 3230
2693 3703
2693 3714
2693 3884
2693 3886
2693 3893
2693 4219
2693 4377
2693 4767
2694 2902
2694 2913
2694 3522
2694 3540
2694 4038
2695 3026
2695 4207
2695 4395
2695 4518
2695 4645
2695 4664
2696 2863
2696 3192
2696 3200
2696 4013
2696 4334
2696 4752
2697 2844
2697 2912
2697 2957
2697 3036
2697 3109
2697 3174
2697 3214
2697 3216
2697 3243
2697 3288
2697 3488
2697 3500
2697 3510
2697 3619
2697 3631
2697 3658
2697 3730
2697 3766
2697 3869
2697 4107
2697 4689
2697 4711
2697 4715
2697 4720
2697 4921
2698 2955
2698 3097
2698 3157
2698 3244
2698 3323
2698 3437
2698 4265
2698 4784
2698 4886
2699 2797
2699 2799
2699 2834
2699 2956
2699 2971
2699 3801
2699 3923
2699 4037
2700 3521
2700 3563
2700 3736
2700 4037
2700 4048
2700 4160
2700 4689
2700 4765
2701 2751
2701 3047
2701 3193
2701 3268
2701 3830
2701 3900
2701 4664
2701 4800
2701 4899
2701 4982
2702 2817
2702 3156
2702 3576
2702 3719
2702 3778
2702 3963
2702 3965
2702 4002
2702 4136
2702 4146
2702 4162
2702 4269
2702 4450
2702 4642
2702 4690
2702 4709
2702 4934
2703 3318
2703 3342
2703 4077
2703 4148
2703 4690
2703 4936
2704 3023
2704 3124
2704 3460
2704 3578
2704 3802
2704 3803
2704 3953
2704 4087
2704 4452
2704 4664
2704 4828
2704 4830
2705 2746
2705 4261
2705 4283
2705 4403
2705 4501
2706 2764
2706 2779
2706 2828
2706 3014
2706 3132
2706 3141
2706 3176
2706 3185
2706 3387
2706 3459
2706 3555
2706 3574
2706 3593
2706 3696
2706 3846
2706 3930
2706 4132
2706 4204
2706 4307
2706 4350
2706 4428
2706 4491
2706 4602
2707 2892
2707 2953
2707 4283
2707 4321
2707 4414
2707 4758
2708 2739
2708 3136
2708 3360
2708 3522
2708 3789
2708 3824
2708 3854
2708 3924
2708 4194
2708 4482
2708 4732
2709 3091
2709 3471
2709 3661
2709 3666
2709 3708
2709 4008
2709 4069
2709 4102
2709 4535
2709 4580
2709 4726
2709 4955
2710 3178
2710 3289
2710 4151
2710 4567
2711 2803
2711 3420
2711 4125
2711 4129
2711 4352
2711 4414
2711 4439
2711 4598
2712 2883
2712 2964
2712 3054
2712 3328
2712 3810
2712 3999
2712 4506
2712 4691
2712 4923
2712 4924
2713 2737
2713 2967
2713 3575
2713 3592
2713 3646
2713 3810
2713 3890
2713 4094
2713 4750
2713 4770
2713 4960
2714 2754
2714 3127
2714 3144
2714 3179
2714 3953
2714 3962
2714 4060
2714 4066
2714 4208
2714 4570
2714 4944
2715 2854
2715 3261
2715 3320
2715 3365
2715 3379
2715 3387
2715 3504
2715 3521
2715 3687
2715 3759
2715 3881
2715 3895
2715 4192
2715 4299
2715 4635
2715 4679
2716 3002
2716 3017
2716 3073
2716 3202
2716 3963
2716 4278
2716 4551
2716 4672
2716 4752
2717 2738
2717 2954
2717 3297
2717 3487
2717 3814
2717 3894
2717 4090
2717 4352
2717 4376
2717 4513
2717 4599
2717 4632
2717 4737
2717 4996
2718 2993
2718 3108
2718 3516
2718 3590
2718 3607
2718 3941
2719 3861
2719 4083
2719 4211
2719 4482
2720 3299
2720 3661
2720 3860
2720 4120
2720 4772
2721 2823
2721 3751
2721 3990
2721 4024
2721 4175
2721 4508
2721 4513
2721 4662
2721 4725
2721 4768
2722 3422
2722 3544
2722 3784
2722 4253
2722 4984
2723 2978
2723 3095
2723 3590
2723 3608
2723 3731
2723 3818
2723 3939
2723 4125
2723 4319
2723 4682
2723 4813
2723 4923
2724 2952
2724 3911
2724 4212
2724 4474
2724 4488
2724 4495
2724 4556
2724 4976
2725 2836
2725 2931
2725 2986
2725 3023
2725 3246
2725 3579
2725 3915
2725 4139
2725 4152
2725 4241
2725 4261
2725 4428
2725 4543
2725 4628
2725 4666
2725 4686
2726 2739
2726 2814
2726 2892
2726 2955
2726 3257
2726 3290
2726 3298
2726 3356
2726 3379
2726 3462
2726 4728
2726 4865
2726 4958
2727 3762
2727 3799
2727 4047
2727 4097
2727 4188
2727 4238
2727 4250
2727 4278
2727 4674
2727 4802
2727 4944
2728 2883
2728 3169
2728 3359
2728 3683
2728 3708
2728 3744
2728 3950
2728 3997
2728 4149
2728 4205
2728 4322
2728 4820
2728 4924
2729 3072
2729 3291
2729 3933
2729 3990
2729 4067
2729 4097
2729 4600
2730 2983
2730 2993
2730 3704
2730 4249
2730 4583
2730 4826
2730 4851
2731 2828
2731 2831
2731 2967
2731 3003
2731 3053
2731 3131
2731 3210
2731 3298
2731 3310
2731 3402
2731 3443
2731 3567
2731 3661
2731 3792
2731 3831
2731 3925
2731 3989
2731 4172
2731 4299
2731 4420
2731 4589
2731 4612
2731 4649
2731 4687
2731 4702
2731 4863
2731 4982
2731 4989
2732 2915
2732 3750
2732 4399
2732 4772
2732 4832
2732 4950
2733 2830
2733 2866
2733 2970
2733 3009
2733 3184
2733 3245
2733 3483
2733 3687
2733 3694
2733 3847
2733 4165
2733 4297
2734 2791
2734 2994
2734 3028
2734 3271
2734 3537
2734 3581
2734 3670
2734 3721
2734 3822
2734 4169
2734 4466
2734 4504
2734 4699
2735 2736
2735 3051
2735 3206
2735 3589
2735 3900
2735 4385
2735 4485
2735 4569
2735 4669
2735 4672
2735 4713
2735 4968
2736 2795
2736 3000
2736 3015
2736 3046
2736 3175
2736 3187
2736 3226
2736 3415
2736 3417
2736 3429
2736 3640
2736 3664
2736 3701
2736 3914
2736 4172
2736 4206
2736 4298
2736 4314
2736 4529
2736 4804
2736 4862
2736 4870
2737 2743
2737 3247
2737 3438
2737 3533
2737 4491
2737 4950
2738 2749
2738 2912
2738 3115
2738 3209
2738 3642
2738 3705
2738 4012
2738 4101
2738 4328
2738 4376
2738 4461
2738 4536
2738 4595
2738 4610
2738 4668
2738 4719
2739 2827
2739 2850
2739 3293
2739 3319
2739 3360
2739 3462
2739 3631
2739 3699
2739 3717
2739 3875
2739 3920
2739 3958
2739 4209
2739 4283
2739 4531
2739 4865
2739 4887
2739 4901
2740 3123
2740 3307
2740 3368
2740 3455
2740 4220
2740 4358
2740 4377
2740 4408
2740 4659
2740 4695
2740 4921
2740 4939
2741 2834
2741 2849
2741 2869
2741 3001
2741 3130
2741 3483
2741 3544
2741 3927
2741 4144
2742 2754
2742 3196
2742 3217
2742 4104
2742 4170
2742 4254
2742 4777
2742 4845
2743 3274
2743 3403
2743 3461
2743 3567
2743 3814
2743 3993
2743 4098
2743 4527
2743 4741
2743 4795
2743 4953
2744 2783
2744 2843
2744 3185
2744 3403
2744 3505
2744 3746
2744 3949
2744 3993
2744 4185
2744 4682
2744 4744
2744 4823
2744 4835
2744 4888
2745 3154
2745 3471
2745 3643
2745 3903
2745 4494
2746 2832
2746 2844
2746 2970
2746 2972
2746 2976
2746 2999
2746 3154
2746 3440
2746 3619
2746 3653
2746 3660
2746 3825
2746 3836
2746 4137
2746 4282
2746 4370
2746 4439
2746 4479
2746 4542
2746 4678
2746 4908
2747 2999
2747 3104
2747 3244
2747 3376
2747 3474
2747 3482
2747 3782
2747 3839
2747 4274
2747 4277
2747 4707
2748 3428
2748 3488
2748 3772
2748 3824
2748 3980
2748 4033
2749 3328
2749 3453
2749 3920
2749 4043
2749 4189
2749 4258
2749 4280
2749 4366
2749 4788
2749 4853
2750 3157
2750 3762
2750 3789
2750 4120
2750 4375
2750 4425
2750 4437
2750 4548
2750 4831
2750 4885
2750 4889
2751 2837
2751 2847
2751 2880
2751 3147
2751 3196
2751 3378
2751 3741
2751 3982
2751 4030
2751 4218
2751 4666
2751 4730
2752 3096
2752 3156
2752 3470
2752 3596
2752 3664
2752 4039
2752 4120
2752 4490
2752 4946
2753 2845
2753 2848
2753 2929
2753 3039
2753 3157
2753 3235
2753 3530
2753 4274
2753 4541
2753 4563
2753 4728
2753 4968
2754 3054
2754 3153
2754 3680
2754 3819
2754 3887
2754 4344
2754 4502
2754 4511
2754 4664
2755 3043
2755 3066
2755 3367
2755 3646
2755 3679
2755 3860
2755 4262
2755 4662
2756 3574
2756 3577
2756 3795
2756 4004
2756 4162
2756 4287
2756 4294
2756 4425
2756 4762
2756 4928
2757 2951
2757 2975
2757 3555
2757 3850
2757 4668
2757 4831
2758 2968
2758 3028
2758 3212
2758 3738
2758 3976
2758 4253
2758 4255
2758 4960
2759 2998
2759 3129
2759 3367
2759 3577
2759 3836
2759 3844
2759 3879
2759 3984
2759 4152
2759 4480
2759 4515
2760 2764
2760 2821
2760 2892
2760 2980
2760 3632
2760 4204
2760 4248
2760 4555
2760 4660
2760 4909
2761 3314
2761 4190
2762 2845
2762 3579
2762 4013
2762 4458
2762 4575
2762 4633
2763 2855
2763 2994
2763 3195
2763 3396
2763 3541
2763 4309
2763 4395
2763 4468
2763 4491
2763 4629
2763 4691
2763 4724
2763 4754
2763 4830
2763 4865
2763 4902
2763 4918
2763 4948
2764 3271
2764 3323
2764 3680
2764 3902
2764 4917
2765 2787
2765 3214
2765 3526
2765 3654
2765 4262
2765 4507
2765 4756
2766 3276
2766 3379
2766 3439
2766 3648
2766 3664
2766 3867
2766 4523
2767 3085
2767 3299
2767 3524
2767 3588
2767 3605
2767 3967
2767 4214
2767 4573
2767 4690
2767 4784
2767 4832
2767 4922
2768 2788
2768 3403
2768 3613
2768 3891
2768 3952
2768 4020
2768 4524
2768 4692
2768 4875
2769 2984
2769 3865
2769 3872
2769 4175
2769 4395
2769 4891
2769 4936
2770 3059
2770 3275
2770 3355
2770 3388
2770 3571
2770 3789
2770 4080
2770 4343
2770 4593
2770 4899
2770 4954
2771 2809
2771 3067
2771 3465
2771 3524
2771 3583
2771 3789
2771 3864
2771 4245
2771 4340
2771 4520
2771 4538
2771 4541
2771 4612
2771 4636
2771 4760
2771 4875
2772 3072
2772 3262
2772 3402
2772 3598
2772 3669
2772 4256
2772 4291
2772 4349
2772 4722
2773 2782
2773 3260
2773 3298
2773 3464
2773 4626
2773 4717
2774 2799
2774 2832
2774 2976
2774 3220
2774 3274
2774 3591
2774 3677
2774 4029
2774 4376
2775 3028
2775 3162
2775 3179
2775 3279
2775 3421
2775 3426
2775 3516
2775 3543
2775 3823
2775 4017
2775 4151
2775 4152
2775 4212
2775 4292
2775 4297
2775 4581
2775 4856
2776 2789
2776 3309
2776 3539
2776 3691
2776 3705
2776 4022
2776 4685
2776 4902
2776 4993
2777 3427
2777 3468
2777 3700
2777 3962
2777 4318
2777 4742
2778 2797
2778 2811
2778 3226
2778 4014
2778 4183
2778 4566
2778 4644
2778 4740
2778 4743
2778 4830
2779 2858
2779 3426
2779 4054
2779 4299
2779 4331
2779 4925
2780 3141
2780 3513
2780 3539
2780 3581
2780 4026
2780 4344
2780 4866
2781 3167
2781 3240
2781 3641
2781 3663
2781 3913
2781 4876
2781 4999
2782 3298
2782 3494
2782 3644
2782 4050
2782 4283
2782 4286
2782 4564
2782 4863
2783 2933
2783 3377
2783 3421
2783 3474
2783 3660
2783 3734
2783 3809
2783 3942
2783 4488
2783 4902
2784 2788
2784 3254
2784 3467
2784 3526
2784 4197
2784 4510
2784 4679
2784 4773
2785 2949
2785 3108
2785 3158
2785 3181
2785 3192
2785 3478
2785 3486
2785 3700
2785 3776
2785 3836
2785 3887
2785 3905
2785 4295
2785 4353
2785 4463
2785 4505
2785 4690
2785 4734
2785 4754
2786 2903
2786 3396
2786 3502
2786 3553
2786 4109
2786 4203
2786 4226
2786 4230
2786 4512
2786 4586
2786 4600
2786 4778
2786 4909
2786 4918
2786 4951
2786 4956
2786 4993
2787 2808
2787 2932
2787 3309
2787 3316
2787 3346
2787 3353
2787 3590
2787 4275
2787 4315
2787 4740
2787 4939
2788 3265
2788 3289
2788 3451
2788 3988
2788 4090
2788 4091
2788 4107
2788 4421
2788 4466
2788 4785
2788 4908
2789 2899
2789 2995
2789 3024
2789 3075
2789 3292
2789 3402
2789 4475
2790 2832
2790 2934
2790 2962
2790 3117
2790 3123
2790 3622
2790 3809
2790 4039
2790 4188
2790 4445
2790 4762
2790 4795
2791 2833
2791 2988
2791 3023
2791 3281
2791 3413
2791 4799
2791 4840
2791 4955
2791 4961
2792 3180
2792 3308
2792 3626
2792 3860
2792 4091
2792 4306
2793 2906
2793 2913
2793 3230
2793 3309
2793 3436
2793 3527
2793 4281
2793 4610
2793 4751
2793 4808
2794 2851
2794 2962
2794 3282
2794 3514
2794 3644
2794 3789
2794 3838
2794 3975
2794 3999
2794 4189
2794 4436
2794 4661
2795 2887
2795 3097
2795 4623
2795 4681
2795 4749
2795 4837
2795 4906
2795 4969
2796 3123
2796 3368
2796 3832
2796 4042
2796 4593
2796 4701
2796 4770
2797 2839
2797 2874
2797 2883
2797 3125
2797 3280
2797 3315
2797 3794
2797 3886
2797 3986
2797 4064
2797 4104
2797 4128
2797 4141
2797 4243
2797 4316
2797 4431
2797 4504
2797 4651
2797 4793
2798 3097
2798 3180
2798 3224
2798 3592
2798 3643
2798 3694
2798 3766
2798 4711
2798 4814
2799 2939
2799 3226
2799 3342
2799 3380
2799 3427
2799 3518
2799 3636
2799 3681
2799 3844
2799 4134
2799 4215
2799 4554
2799 4588
2799 4835
2799 4925
2799 4944
2800 2810
2800 3198
2800 3755
2800 4031
2800 4091
2800 4456
2800 4538
2801 2859
2801 3025
2801 3104
2801 3453
2801 3516
2801 3958
2801 3966
2801 4060
2801 4399
2801 4460
2801 4935
2802 2818
2802 3291
2802 3526
2802 3724
2802 4017
2802 4022
2802 4332
2802 4390
2802 4539
2802 4556
2802 4677
2802 4704
2802 4789
2802 4790
2803 2961
2803 3117
2803 3222
2803 4377
2803 4458
2803 4463
2804 2808
2804 3485
2804 3556
2804 4595
2804 4844
2804 4917
2805 3073
2805 3762
2805 3824
2805 4168
2805 4410
2805 4787
2805 4922
2805 4998
2806 2900
2806 3160
2806 3898
2806 4138
2806 4418
2806 4882
2807 3620
2807 3789
2807 3960
2807 4348
2807 4509
2807 4632
2807 4743
2808 2825
2808 3003
2808 3131
2808 3553
2808 3734
2808 4025
2808 4602
2808 4692
2808 4806
2809 3152
2809 3789
2809 3855
2809 4260
2809 4333
2809 4357
2809 4510
2809 4772
2809 4875
2810 2894
2810 2967
2810 3552
2810 3592
2810 4084
2810 4448
2810 4525
2810 4829
2810 4950
2811 3014
2811 3476
2811 3488
2811 3575
2811 3665
2811 4035
2811 4071
2811 4387
2811 4414
2811 4657
2811 4670
2812 2976
2812 3144
2812 3808
2812 3959
2812 4190
2812 4220
2812 4470
2812 4636
2812 4722
2813 3368
2813 4067
2813 4414
2813 4662
2814 2906
2814 2946
2814 2974
2814 3157
2814 3184
2814 3236
2814 3300
2814 3465
2814 3492
2814 3553
2814 3762
2814 3972
2814 4149
2814 4778
2815 2873
2815 2885
2815 3053
2815 3224
2815 3353
2815 4478
2815 4504
2815 4510
2815 4713
2815 4842
2815 4946
2816 3134
2816 3296
2816 3462
2816 3749
2816 3751
2816 3869
2816 3973
2816 4486
2816 4550
2816 4597
2816 4711
2816 4931
2816 4933
2816 4966
2817 3195
2817 3428
2817 3672
2817 3829
2817 4037
2817 4874
2817 4909
2817 4970
2818 3189
2818 3312
2818 3386
2818 3712
2818 3787
2818 3815
2819 3072
2819 3089
2819 3383
2819 3544
2819 3814
2819 3907
2819 4069
2819 4240
2819 4269
2819 4432
2819 4510
2819 4787
2820 2925
2820 3314
2820 3468
2820 3580
2820 3666
2820 4084
2820 4381
2820 4529
2820 4617
2820 4681
2820 4977
2821 3445
2821 3515
2821 3528
2821 3699
2821 3976
2821 4389
2821 4541
2821 4615
2821 4693
2822 3066
2822 3167
2822 3310
2822 3442
2822 3635
2822 3976
2822 4004
2822 4306
2822 4790
2822 4963
2822 4968
2823 3232
2823 3508
2823 4613
2823 4632
2823 4639
2823 4768
2824 2846
2824 3042
2824 3281
2824 3385
2824 3481
2824 3851
2824 4050
2824 4442
2824 4678
2824 4791
2825 3059
2825 3196
2825 3552
2825 3600
2825 4038
2825 4959
2826 2922
2826 2979
2826 3537
2826 3617
2826 4011
2826 4060
2826 4075
2826 4165
2826 4291
2826 4851
2826 4975
2827 2967
2827 3123
2827 3379
2827 3715
2827 3985
2827 4567
2827 4902
2828 2836
2828 2837
2828 2893
2828 2996
2828 3054
2828 3668
2828 3772
2828 3808
2828 3868
2828 3942
2828 4435
2828 4566
2828 4600
2828 4884
2828 4929
2829 3812
2829 3916
2829 4149
2829 4348
2829 4420
2829 4451
2829 4551
2829 4835
2830 2945
2830 3015
2830 3117
2830 3699
2830 3909
2830 4119
2830 4275
2830 4539
2830 4686
2830 4870
2831 3080
2831 3200
2831 3346
2831 3437
2831 3736
2831 3802
2831 4373
2831 4413
2831 4929
2832 2876
2832 2900
2832 3250
2832 3320
2832 3539
2832 3724
2832 4214
2832 4563
2832 4581
2832 4699
2832 4771
2833 2941
2833 2960
2833 3001
2833 3004
2833 3113
2833 3460
2833 3494
2833 3527
2833 3565
2833 3779
2833 3845
2833 3866
2833 4207
2833 4371
2833 4507
2833 4509
2833 4518
2833 4636
2833 4723
2833 4875
2834 2847
2834 2864
2834 2915
2834 2919
2834 3010
2834 3174
2834 3232
2834 3252
2834 3307
2834 3326
2834 3342
2834 3423
2834 3431
2834 3435
2834 3536
2834 3593
2834 3746
2834 3979
2834 4053
2834 4115
2834 4137
2834 4144
2834 4187
2834 4355
2834 4498
2834 4589
2834 4654
2834 4708
2834 4824
2834 4918
2835 3098
2835 3200
2835 3751
2835 4851
2836 3402
2836 3555
2836 3613
2836 3712
2836 3717
2836 3961
2836 4363
2836 4912
2837 3013
2837 3036
2837 3128
2837 3164
2837 3214
2837 3406
2837 3636
2837 3799
2837 3858
2837 3898
2837 3942
2837 3977
2837 3978
2837 3980
2837 4040
2837 4083
2837 4102
2837 4421
2837 4586
2837 4590
2837 4775
2837 4920
2837 4930
2837 4934
2837 4966
2837 4980
2838 3084
2838 3391
2838 3510
2838 4109
2838 4596
2838 4884
2838 4905
2839 3574
2839 3852
2839 3988
2839 4217
2839 4544
2839 4850
2839 4920
2840 2854
2840 3020
2840 3167
2840 3208
2840 3765
2840 3877
2840 4585
2841 3400
2841 3541
2841 3572
2841 3656
2841 3820
2841 4143
2841 4328
2841 4677
2841 4795
2842 2993
2842 3000
2842 3121
2842 3157
2842 3306
2842 3475
2842 3678
2842 3944
2842 4058
2842 4237
2842 4536
2842 4561
2842 4615
2842 4955
2842 4975
2843 2851
2843 2938
2843 2998
2843 3379
2843 3395
2843 3450
2843 3523
2843 3765
2843 3775
2843 4085
2843 4266
2843 4329
2843 4504
2843 4647
2843 4684
2843 4928
2843 4945
2844 2884
2844 2970
2844 3262
2844 3334
2844 3354
2844 3466
2844 3517
2844 3594
2844 3599
2844 3625
2844 3626
2844 3785
2844 3880
2844 4421
2844 4493
2844 4570
2844 4609
2844 4658
2844 4868
2844 4953
2845 2985
2845 3415
2845 3555
2845 3762
2845 3966
2845 4276
2845 4675
2845 4782
2845 4944
2846 2872
2846 2889
2846 3332
2846 3683
2846 3869
2846 3915
2846 4225
2846 4304
2846 4724
2846 4913
2847 3036
2847 3081
2847 3340
2847 3403
2847 3412
2847 3445
2847 3476
2847 3557
2847 3687
2847 3868
2847 3933
2847 3980
2847 4231
2847 4458
2847 4573
2847 4735
2847 4748
2847 4766
2847 4967
2848 3002
2848 3647
2848 3684
2848 3863
2848 4269
2848 4509
2849 2894
2849 2958
2849 3120
2849 3465
2849 3720
2849 3979
2849 4218
2849 4442
2849 4717
2849 4916
2850 2886
2850 3113
2850 3824
2850 3851
2850 4385
2850 4523
2850 4649
2850 4698
2850 4891
2851 3226
2851 3308
2851 3813
2851 4144
2851 4344
2851 4444
2851 4501
2852 2930
2852 2993
2852 3028
2852 3445
2852 3479
2852 3678
2852 3940
2852 3961
2852 4310
2852 4600
2853 3678
2853 3917
2853 4007
2853 4351
2853 4415
2853 4774
2854 2967
2854 2977
2854 3449
2854 3735
2854 4133
2854 4343
2854 4347
2854 4365
2854 4381
2854 4535
2854 4713
2855 2982
2855 3062
2855 3091
2855 3100
2855 3191
2855 3298
2855 3371
2855 3385
2855 3489
2855 3490
2855 3695
2855 3709
2855 3902
2855 4039
2855 4121
2855 4150
2855 4494
2855 4576
2855 4687
2855 4698
2855 4794
2855 4798
2855 4900
2856 3066
2856 3216
2856 3544
2856 3997
2856 4382
2856 4488
2856 4632
2857 3320
2857 3351
2857 3563
2857 3708
2857 3972
2857 4266
2857 4531
2857 4535
2857 4789
2857 4790
2858 2897
2858 3117
2858 3981
2858 4191
2858 4517
2858 4691
2859 2880
2859 2895
2859 3225
2859 3348
2859 3449
2859 3467
2859 3490
2859 3703
2859 3813
2859 3829
2859 3838
2859 4148
2859 4275
2859 4419
2860 2936
2860 3051
2860 3194
2860 3206
2860 3540
2860 3767
2860 3861
2860 4081
2861 2947
2861 3952
2861 4417
2862 2885
2862 2937
2862 3132
2862 3403
2862 3420
2862 4059
2863 2878
2863 2906
2863 3015
2863 3038
2863 3054
2863 3062
2863 3084
2863 3115
2863 3328
2863 3382
2863 3407
2863 3557
2863 3658
2863 3905
2863 3938
2863 3942
2863 3982
2863 4001
2863 4033
2863 4040
2863 4181
2863 4352
2863 4438
2863 4477
2863 4543
2863 4670
2863 4739
2863 4766
2863 4837
2863 4875
2863 4876
2863 4880
2863 4894
2863 4905
2863 4929
2863 4964
2863 4982
2864 3119
2864 3168
2864 3241
2864 3258
2864 3275
2864 3332
2864 3564
2864 3899
2864 4381
2865 2944
2865 2989
2865 3101
2865 3229
2865 3365
2865 3384
2865 3495
2865 3630
2865 3670
2865 3687
2865 3868
2865 3912
2865 3972
2865 4029
2865 4033
2865 4040
2865 4196
2865 4218
2865 4546
2865 4627
2865 4648
2865 4682
2865 4787
2865 4932
2866 2889
2866 3245
2866 3795
2866 3878
2866 3930
2866 3950
2866 4030
2866 4470
2866 4625
2867 3095
2867 3571
2867 3597
2867 4217
2867 4364
2867 4736
2868 3190
2868 3320
2868 3493
2868 3841
2868 3964
2868 4039
2868 4066
2868 4120
2868 4654
2868 4788
2869 2905
2869 2970
2869 3000
2869 3121
2869 3218
2869 3223
2869 3627
2869 3754
2869 3776
2869 4054
2869 4242
2869 4338
2869 4414
2869 4439
2869 4460
2869 4606
2869 4657
2869 4669
2869 4827
2869 4902
2870 3373
2870 4324
2870 4466
2870 4937
2871 2874
2871 3301
2871 3415
2871 3528
2871 3789
2871 3853
2871 3897
2871 3928
2871 3969
2871 4333
2871 4684
2871 4875
2871 4902
2872 2976
2872 3144
2872 4672
2872 4778
2872 4791
2873 2932
2873 2956
2873 3231
2873 3239
2873 3440
2873 3590
2873 3762
2873 4082
2873 4795
2874 2979
2874 3355
2874 3649
2874 3682
2874 3789
2874 3796
2874 3851
2874 3888
2874 4000
2874 4034
2874 4042
2874 4272
2874 4340
2874 4517
2874 4578
2874 4875
2875 3242
2875 3624
2875 3659
2875 4021
2875 4090
2875 4970
2876 2956
2876 3103
2876 3268
2876 3958
2876 4100
2876 4563
2876 4607
2876 4789
2876 4843
2876 4969
2877 3452
2877 4057
2877 4097
2877 4517
2877 4538
2877 4669
2877 4840
2878 2918
2878 3174
2878 3182
2878 3502
2878 3848
2878 3942
2878 4229
2878 4313
2878 4496
2878 4497
2878 4829
2878 4863
2878 4929
2879 3168
2879 3224
2879 3608
2879 3840
2879 4445
2879 4483
2879 4773
2880 3395
2880 3690
2880 3842
2880 3845
2880 3854
2880 4449
2880 4450
2880 4590
2881 2993
2881 3147
2881 3390
2881 3671
2881 4062
2881 4600
2882 3612
2882 4005
2882 4126
2882 4739
2882 4766
2882 4878
2883 2963
2883 3165
2883 3178
2883 3352
2883 3373
2883 3637
2883 3729
2883 3878
2883 3940
2883 3952
2883 4038
2883 4042
2883 4060
2883 4349
2883 4500
2883 4941
2883 4978
2884 2895
2884 2926
2884 2971
2884 3309
2884 3965
2884 4155
2884 4242
2885 2978
2885 3011
2885 3148
2885 3268
2885 3331
2885 3408
2885 3425
2885 3480
2885 3645
2885 3756
2885 3913
2885 3916
2885 3974
2885 4000
2885 4001
2885 4009
2885 4075
2885 4194
2885 4266
2885 4292
2885 4383
2885 4413
2885 4434
2885 4488
2885 4645
2886 2995
2886 3104
2886 3116
2886 3896
2886 4263
2886 4915
2887 2933
2887 3109
2887 3584
2887 3643
2887 3651
2887 3829
2887 4393
2887 4711
2887 4769
2887 4775
2887 4782
2887 4835
2887 4849
2887 4979
2887 4997
2888 3421
2888 3632
2888 4085
2888 4096
2888 4380
2888 4462
2889 3030
2889 3208
2889 3521
2889 3529
2889 3830
2889 3849
2889 3878
2889 3994
2889 4070
2889 4153
2889 4420
2890 2940
2890 2991
2890 3155
2890 3691
2890 4084
2890 4259
2890 4341
2891 2905
2891 3117
2891 3820
2891 4275
2891 4347
2891 4697
2892 2966
2892 3125
2892 3147
2892 3266
2892 3379
2892 3537
2892 3545
2892 3700
2892 3751
2892 3825
2892 3843
2892 4124
2892 4253
2892 4488
2892 4578
2892 4744
2892 4757
2892 4914
2893 3045
2893 3251
2893 3365
2893 3743
2893 4280
2893 4451
2893 4574
2893 4853
2893 4880
2894 4305
2894 4405
2894 4904
2894 4968
2895 3242
2895 3543
2895 3752
2895 4539
2895 4742
2895 4872
2896 3015
2896 4275
2896 4794
2896 4918
2897 3196
2897 3652
2897 3728
2897 4414
2897 4542
2897 4886
2898 2989
2898 3308
2898 3544
2898 3571
2898 3666
2898 3717
2898 4555
2899 2978
2899 3072
2899 3125
2899 3135
2899 3148
2899 3154
2899 3164
2899 3189
2899 3197
2899 3242
2899 3634
2899 3666
2899 3712
2899 3826
2899 4163
2899 4189
2899 4240
2899 4271
2899 4554
2899 4679
2899 4732
2900 3059
2900 3162
2900 3259
2900 3466
2900 3920
2900 3933
2900 4001
2900 4196
2901 2923
2901 2959
2901 3202
2901 3421
2901 3433
2901 3464
2901 3538
2901 3542
2901 3596
2901 3604
2901 3677
2901 3760
2901 3809
2901 3863
2901 3881
2901 3931
2901 3990
2901 4011
2901 4344
2901 4440
2901 4454
2901 4509
2901 4708
2901 4781
2901 4800
2901 4988
2902 3096
2902 3147
2902 3462
2902 3540
2902 3584
2902 3602
2902 3624
2902 3708
2902 3946
2902 4095
2902 4349
2903 3015
2903 3249
2903 3621
2903 3718
2903 3938
2903 3958
2903 4799
2903 4810
2903 4970
2904 3167
2904 3539
2904 3624
2904 3717
2904 3934
2904 4164
2904 4428
2904 4816
2905 3537
2905 3555
2905 3830
2905 3958
2905 4091
2905 4428
2906 2971
2906 3091
2906 3135
2906 3184
2906 3188
2906 3198
2906 3621
2906 3883
2906 3914
2906 3944
2906 4026
2906 4038
2906 4043
2906 4109
2906 4110
2906 4165
2906 4203
2906 4250
2906 4281
2906 4312
2906 4314
2906 4323
2906 4328
2906 4390
2906 4586
2906 4593
2906 4742
2906 4881
2906 4887
2906 4997
2907 3129
2907 3186
2907 3359
2907 3364
2907 3542
2907 3786
2907 4206
2908 3026
2908 3206
2908 3838
2908 4005
2908 4162
2908 4247
2909 3632
2909 3732
2909 3794
2909 4195
2909 4364
2910 2969
2910 3127
2910 3276
2910 3284
2910 3637
2910 3763
2911 3238
2911 3762
2911 3888
2911 4214
2911 4218
2911 4232
2912 2994
2912 3246
2912 3581
2912 4001
2912 4436
2913 3005
2913 3598
2913 3839
2913 4114
2913 4118
2913 4223
2913 4330
2913 4411
2913 4977
2914 3186
2914 3253
2914 3470
2914 3673
2914 3733
2914 3738
2914 3945
2914 4052
2914 4092
2914 4313
2914 4751
2914 4811
2914 4849
2914 4954
2915 2963
2915 2991
2915 3044
2915 3139
2915 3518
2915 3736
2915 4124
2915 4394
2915 4850
2915 4942
2916 3124
2916 3306
2916 3693
2916 3739
2916 4048
2916 4447
2916 4571
2916 4584
2917 2980
2917 3149
2917 3186
2917 3494
2917 3943
2917 4041
2917 4138
2917 4339
2917 4401
2917 4428
2917 4963
2918 3020
2918 3131
2918 3161
2918 3995
2918 4066
2918 4191
2918 4477
2919 3712
2919 3912
2919 3947
2919 4090
2919 4345
2919 4365
2919 4629
2919 4696
2919 4705
2919 4851
2919 4962
2920 3133
2920 3158
2920 3576
2920 4202
2920 4280
2920 4292
2920 4491
2920 4539
2920 4909
2921 3136
2921 3978
2921 4026
2921 4344
2921 4391
2921 4539
2921 4697
2921 4733
2921 4840
2921 4851
2922 2941
2922 2963
2922 2999
2922 3348
2922 3462
2922 3831
2922 3861
2922 4184
2922 4254
2922 4278
2922 4309
2922 4392
2922 4403
2922 4867
2922 4956
2923 3071
2923 3540
2923 3637
2923 3787
2923 4717
2923 4812
2923 4869
2923 4988
2924 3599
2924 4486
2924 4534
2925 3314
2925 3672
2925 3847
2925 4096
2925 4128
2925 4390
2925 4646
2926 3180
2926 3281
2926 3424
2926 3459
2926 4036
2926 4073
2926 4131
2926 4148
2926 4249
2926 4274
2926 4275
2926 4335
2926 4338
2926 4386
2926 4437
2926 4466
2926 4540
2926 4697
2926 4766
2926 4910
2926 4918
2926 4934
2927 3075
2927 3751
2927 4247
2927 4495
2927 4930
2928 3827
2928 4002
2928 4121
2928 4264
2928 4424
2928 4488
2928 4563
2928 4898
2929 3097
2929 3103
2929 3786
2929 4115
2929 4150
2929 4521
2929 4554
2929 4672
2930 3166
2930 3254
2930 3349
2930 3487
2930 3636
2930 4084
2930 4361
2930 4402
2930 4529
2930 4646
2930 4756
2931 2970
2931 3512
2931 3542
2931 3579
2931 3830
2931 4003
2931 4179
2931 4578
2932 3156
2932 3181
2932 3637
2932 4051
2932 4407
2932 4491
2932 4681
2933 3028
2933 3313
2933 3381
2933 3431
2933 3506
2933 3552
2933 3692
2933 3912
2933 3936
2933 4286
2933 4600
2933 4734
2933 4843
2933 4844
2933 4895
2934 3066
2934 3210
2934 3338
2934 3529
2934 3952
2934 4427
2934 4539
2934 4623
2934 4825
2934 4989
2935 2973
2935 3058
2935 3148
2935 3202
2935 3231
2935 3273
2935 3390
2935 3478
2935 3566
2935 3813
2935 4079
2935 4118
2935 4263
2935 4269
2935 4293
2935 4326
2935 4428
2935 4803
2935 4945
2936 3071
2936 3408
2936 3714
2936 3994
2936 4307
2936 4517
2936 4645
2937 3314
2937 3499
2937 3513
2937 3869
2937 3883
2937 4297
2937 4343
2937 4535
2937 4784
2938 3021
2938 3277
2938 3482
2938 3824
2938 3910
2938 4189
2938 4865
2939 2946
2939 3097
2939 3223
2939 3328
2939 3542
2939 3829
2939 4088
2939 4987
2940 3665
2940 3712
2940 4347
2940 4524
2940 4811
2941 2960
2941 2971
2941 3239
2941 3565
2941 4518
2941 4524
2942 3102
2942 3190
2942 3297
2942 3514
2942 3929
2942 3944
2942 4031
2942 4120
2942 4231
2942 4439
2942 4566
2942 4764
2943 3051
2943 3096
2943 3222
2943 3447
2943 3554
2943 3705
2943 3838
2943 4016
2943 4122
2943 4152
2943 4166
2943 4206
2943 4254
2943 4393
2943 4397
2943 4426
2943 4448
2943 4510
2943 4546
2943 4608
2943 4692
2943 4696
2943 4755
2943 4820
2943 4951
2944 3114
2944 3314
2944 3397
2944 3488
2944 3940
2944 4142
2944 4329
2944 4369
2944 4378
2944 4626
2945 3081
2945 3143
2945 3383
2945 3412
2945 3597
2945 3618
2946 3413
2946 3704
2946 3714
2946 3735
2946 4153
2946 4209
2946 4501
2946 4580
2946 4641
2946 4876
2946 4897
2946 4917
2947 3002
2947 3084
2947 3130
2947 3195
2947 3537
2947 3629
2947 4015
2947 4021
2947 4102
2947 4542
2947 4582
2947 4659
2947 4664
2947 4954
2948 3266
2948 3278
2948 3712
2948 4033
2948 4148
2948 4332
2948 4610
2949 3020
2949 3021
2949 3072
2949 3241
2949 3324
2949 3358
2949 3395
2949 3452
2949 3464
2949 3760
2949 3791
2949 3884
2949 3885
2949 3905
2949 3984
2949 4045
2949 4057
2949 4078
2949 4163
2949 4222
2949 4312
2949 4425
2949 4459
2949 4555
2949 4632
2949 4722
2949 4749
2949 4851
2950 3064
2950 3074
2950 3226
2950 3374
2950 3388
2950 4212
2950 4219
2950 4531
2950 4659
2950 4937
2951 3064
2951 3308
2951 3334
2951 3427
2951 3789
2951 4129
2951 4544
2951 4887
2952 3203
2952 3402
2952 3792
2952 3898
2952 4030
2952 4077
2952 4849
2952 4999
2953 3083
2953 3524
2953 3971
2953 4153
2953 4319
2953 4353
2953 4603
2954 2963
2954 2999
2954 3306
2954 3375
2954 3482
2954 3707
2954 3820
2954 3910
2954 3998
2954 4097
2954 4116
2954 4141
2954 4318
2954 4365
2954 4488
2955 3795
2955 3846
2955 3873
2955 4179
2955 4330
2956 3346
2956 3347
2956 3353
2956 3364
2956 3423
2956 3725
2956 3824
2956 3834
2956 4752
2956 4877
2957 3119
2957 3286
2957 3466
2957 3603
2957 4049
2957 4205
2957 4500
2957 4546
2957 4618
2957 4737
2957 4813
2957 4869
2957 4952
2957 4956
2958 3073
2958 3264
2958 3697
2958 3848
2958 4647
2958 4758
2958 4997
2959 2969
2959 3129
2959 3435
2959 3472
2959 3976
2959 4060
2959 4081
2959 4195
2959 4643
2959 4763
2959 4928
2960 2993
2960 3233
2960 3376
2960 4088
2960 4140
2960 4146
2960 4207
2960 4208
2960 4518
2960 4548
2960 4578
2960 4839
2960 4875
2961 3211
2961 3513
2961 3955
2961 4254
2961 4309
2961 4432
2961 4532
2961 4794
2962 3292
2962 3596
2962 3854
2962 3863
2962 3923
2962 4185
2962 4316
2962 4325
2962 4551
2962 4629
2962 4816
2962 4871
2963 3362
2963 3671
2963 3787
2963 3810
2963 4025
2963 4220
2963 4429
2963 4527
2963 4792
2963 4919
2964 3298
2964 3455
2964 3541
2964 3800
2964 4268
2964 4772
2964 4812
2964 4847
2965 3028
2965 3343
2965 4655
2965 4893
2965 4956
2965 4963
2966 3129
2966 3144
2966 3231
2966 3254
2966 3574
2966 3684
2966 3768
2966 3860
2966 4035
2966 4044
2966 4117
2966 4183
2966 4269
2966 4893
2966 4902
2967 2990
2967 3094
2967 3097
2967 3544
2967 3583
2967 3693
2967 3733
2967 3804
2967 4041
2967 4142
2967 4502
2967 4505
2967 4513
2967 4526
2967 4865
2967 4973
2968 3092
2968 3471
2968 3634
2968 3745
2968 3940
2968 4009
2968 4405
2968 4676
2968 4900
2969 3054
2969 3299
2969 3402
2969 3553
2969 3571
2969 3602
2969 3796
2969 3902
2969 3963
2969 3979
2969 3980
2969 4145
2969 4325
2969 4365
2969 4405
2969 4749
2969 4817
2969 4859
2969 4931
2969 4934
2969 4959
2970 3368
2970 3574
2970 4000
2970 4906
2970 4982
2971 3294
2971 3912
2971 4079
2971 4208
2971 4434
2971 4760
2971 4911
2971 4923
2971 4961
2972 3175
2972 3352
2972 3762
2972 3999
2972 4023
2972 4199
2972 4290
2973 3130
2973 3414
2973 3627
2973 4067
2973 4099
2973 4587
2973 4842
2974 3142
2974 3321
2974 3351
2974 3365
2974 3373
2974 3380
2974 3476
2974 3563
2974 3688
2974 3739
2974 3905
2974 3914
2974 3920
2974 3971
2974 3977
2974 4110
2974 4154
2974 4165
2974 4199
2974 4257
2974 4586
2974 4600
2974 4625
2974 4993
2975 3081
2975 3159
2975 3292
2975 3323
2975 3485
2975 3572
2975 3604
2975 3661
2975 4067
2975 4162
2975 4281
2975 4307
2975 4512
2975 4640
2975 4764
2975 4779
2975 4838
2975 4932
2976 3172
2976 3187
2976 3213
2976 3241
2976 3789
2976 3893
2976 4063
2976 4095
2976 4123
2976 4365
2976 4548
2976 4745
2976 4959
2977 3145
2977 3200
2977 3575
2977 4019
2977 4274
2977 4312
2977 4524
2977 4607
2977 4640
2978 3157
2978 3224
2978 3419
2978 3526
2978 3562
2978 4179
2978 4288
2978 4406
2978 4479
2978 4690
2978 4904
2978 4935
2979 2994
2979 3011
2979 3062
2979 3190
2979 3269
2979 3281
2979 3311
2979 3320
2979 3334
2979 3675
2979 3883
2979 3889
2979 4135
2979 4244
2979 4264
2979 4315
2979 4349
2979 4493
2979 4495
2979 4631
2979 4640
2979 4671
2979 4991
2980 3803
2980 4261
2980 4359
2980 4500
2980 4891
2980 4943
2981 3177
2981 3299
2981 3471
2981 3697
2981 4023
2981 4095
2981 4102
2981 4601
2981 4632
2981 4933
2982 2985
2982 2988
2982 3031
2982 3091
2982 3211
2982 3228
2982 3283
2982 3371
2982 3409
2982 3533
2982 3813
2982 3831
2982 3910
2982 4106
2982 4130
2982 4409
2982 4513
2982 4526
2982 4638
2983 3002
2983 3411
2983 3923
2983 4555
2984 3158
2984 3526
2984 3553
2984 3554
2984 3626
2984 3735
2984 3822
2984 3846
2984 3924
2984 4140
2984 4144
2984 4187
2984 4346
2984 4452
2984 4551
2984 4579
2984 4636
2984 4950
2985 3007
2985 3079
2985 3087
2985 3541
2985 4010
2985 4144
2985 4386
2985 4497
2985 4971
2986 3093
2986 3159
2986 3246
2986 3266
2986 3503
2986 3599
2986 3641
2986 3675
2986 3686
2986 3892
2986 4011
2986 4019
2986 4069
2986 4408
2986 4480
2986 4779
2987 3144
2987 3570
2987 4168
2987 4244
2987 4297
2988 3400
2988 3611
2988 3721
2988 3841
2988 4096
2988 4587
2988 4675
2988 4700
2988 4702
2988 4871
2989 3859
2989 4600
2990 3054
2990 3057
2990 3181
2990 3186
2990 3588
2990 4001
2990 4349
2990 4416
2990 4690
2990 4798
2990 4930
2991 3170
2991 4049
2991 4189
2991 4546
2991 4607
2991 4904
2992 3127
2992 3268
2992 3747
2992 4252
2992 4572
2992 4929
2992 4939
2993 3035
2993 3094
2993 3313
2993 4164
2993 4268
2993 4400
2993 4650
2993 4820
2994 3152
2994 3342
2994 3358
2994 3504
2994 3519
2994 3563
2994 3610
2994 3639
2994 3716
2994 3723
2994 3752
2994 3954
2994 4527
2994 4572
2994 4626
2994 4640
2994 4671
2994 4726
2994 4840
2995 3170
2995 3200
2995 3222
2995 3315
2995 3638
2995 4085
2995 4514
2995 4972
2996 3080
2996 3128
2996 3546
2996 3581
2996 3753
2996 3829
2996 3942
2996 4214
2996 4298
2996 4451
2996 4489
2996 4625
2996 4698
2997 3219
2997 3411
2997 3627
2997 3867
2997 4070
2997 4269
2997 4328
2997 4551
2997 4557
2998 3035
2998 3111
2998 3234
2998 3423
2998 3446
2998 3930
2998 3937
2998 4075
2998 4125
2998 4292
2998 4310
2998 4461
2998 4555
2998 4567
2998 4600
2998 4703
2998 4749
2998 4775
2998 4835
2998 4851
2998 4881
2998 4894
2999 3199
2999 3276
2999 3371
2999 3426
2999 3489
2999 3537
2999 3617
2999 4008
2999 4428
2999 4482
2999 4535
2999 4754
2999 4756
2999 4759
2999 4900
3000 3042
3000 3173
3000 3579
3000 3762
3000 4588
3001 3017
3001 3097
3001 3764
3001 3817
3001 4315
3001 4885
3002 3071
3002 3089
3002 3306
3002 3394
3002 3458
3002 3537
3002 3568
3002 3679
3002 3735
3002 4656
3002 4677
3002 4718
3002 4723
3002 4807
3002 4842
3002 4875
3002 4950
3003 3122
3003 3483
3003 3533
3003 3638
3003 3687
3003 3820
3003 4058
3003 4068
3003 4133
3003 4193
3003 4302
3003 4321
3003 4480
3003 4596
3003 4925
3004 3020
3004 3104
3004 3262
3004 3264
3004 3347
3004 3396
3004 3402
3004 3404
3004 3564
3004 3608
3004 3656
3004 3764
3004 3813
3004 3857
3004 3921
3004 3926
3004 3974
3004 3987
3004 4070
3004 4199
3004 4245
3004 4277
3004 4366
3004 4411
3004 4459
3004 4543
3004 4558
3004 4693
3004 4712
3004 4789
3005 3090
3005 3308
3005 3391
3005 3952
3005 4345
3005 4831
3005 4964
3005 4986
3006 3402
3006 3453
3006 4104
3006 4134
3006 4447
3006 4529
3006 4699
3007 3043
3007 3167
3007 3210
3007 3258
3007 3421
3007 4042
3008 3195
3008 3283
3008 3327
3008 3328
3008 3374
3008 3402
3008 3542
3008 3693
3008 3860
3008 4037
3008 4108
3008 4362
3008 4409
3008 4705
3008 4728
3008 4850
3008 4942
3008 4979
3009 3105
3009 3231
3009 4335
3009 4436
3009 4496
3010 3029
3010 3342
3010 3431
3010 3789
3010 4053
3010 4320
3010 4731
3010 4807
3010 4824
3011 3188
3011 3335
3011 3350
3011 4704
3012 3086
3012 3119
3012 3183
3012 3794
3012 3975
3012 4539
3012 4694
3013 3186
3013 3322
3013 3368
3013 3521
3013 3530
3013 3534
3013 3942
3013 4717
3014 3145
3014 3168
3014 3413
3014 4323
3014 4429
3014 4781
3014 4825
3014 4891
3015 3065
3015 3076
3015 3103
3015 3411
3015 3440
3015 3465
3015 3481
3015 3499
3015 3677
3015 3706
3015 3751
3015 3788
3015 3905
3015 3952
3015 4083
3015 4282
3015 4317
3015 4476
3015 4531
3015 4728
3015 4857
3016 3043
3016 3226
3016 3465
3016 3776
3016 4145
3016 4858
3017 3289
3017 3339
3017 3523
3017 3959
3017 3962
3017 4020
3017 4145
3017 4183
3017 4256
3017 4502
3017 4626
3017 4933
3017 4934
3018 3253
3018 3322
3018 3678
3018 3883
3018 4262
3018 4323
3018 4680
3018 4790
3019 3026
3019 3488
3019 3673
3019 3893
3019 4084
3019 4310
3019 4754
3019 4823
3020 3201
3020 3352
3020 3407
3020 3528
3020 3627
3020 3633
3020 3671
3020 3715
3020 3742
3020 3977
3020 4005
3020 4292
3020 4330
3020 4504
3020 4517
3020 4712
3020 4796
3020 4832
3020 4848
3020 4888
3020 4972
3021 3070
3021 3193
3021 3370
3022 3084
3022 3650
3022 3652
3022 3702
3022 3995
3022 4040
3022 4470
3022 4623
3022 4685
3022 4739
3022 4740
3022 4920
3023 3042
3023 3196
3023 3432
3023 3469
3023 3739
3023 3953
3023 4086
3023 4137
3023 4140
3023 4470
3023 4513
3023 4521
3023 4589
3024 3038
3024 3119
3024 3142
3024 3329
3024 3392
3024 3474
3024 3502
3024 3821
3024 3924
3024 3990
3024 4177
3024 4197
3024 4301
3024 4363
3024 4516
3024 4731
3024 4903
3025 4080
3025 4319
3025 4587
3026 3168
3026 4110
3026 4190
3026 4249
3026 4316
3026 4879
3027 3059
3027 3173
3027 3213
3027 3252
3027 3326
3027 3395
3027 3528
3027 3942
3027 3989
3027 4028
3027 4283
3027 4498
3027 4752
3027 4769
3027 4824
3027 4886
3028 3150
3028 3171
3028 3270
3028 3311
3028 3319
3028 3321
3028 3359
3028 3404
3028 3637
3028 3777
3028 3824
3028 4127
3028 4395
3028 4406
3028 4851
3029 3044
3029 3238
3029 3261
3029 3764
3029 4472
3029 4810
3029 4962
3030 3249
3030 3296
3030 4291
3030 4998
3031 3230
3031 3668
3031 3726
3031 4084
3031 4416
3031 4495
3032 3087
3032 3252
3032 3432
3032 3692
3032 4117
3032 4236
3032 4673
3032 4930
3032 4954
3033 3104
3033 3173
3033 3260
3033 4019
3033 4035
3033 4171
3033 4524
3033 4875
3033 4912
3034 3203
3034 3751
3034 3811
3034 3929
3034 4159
3034 4543
3034 4552
3034 4861
3035 3195
3035 3402
3035 3707
3036 3179
3036 3238
3036 3636
3036 3801
3036 4102
3036 4225
3036 4849
3036 4948
3037 3170
3037 3296
3037 4368
3037 4510
3037 4539
3038 3114
3038 3175
3038 3183
3038 3304
3038 4620
3038 4757
3038 4903
3038 4968
3039 3280
3039 3350
3039 3402
3039 3540
3039 3612
3039 3650
3039 4806
3040 3097
3040 3116
3040 3254
3040 3636
3040 3803
3040 3977
3040 4199
3040 4474
3040 4625
3041 3210
3041 3291
3041 3375
3041 3442
3041 3755
3041 3804
3041 3860
3041 3883
3041 4112
3041 4238
3041 4286
3041 4640
3041 4686
3041 4698
3041 4765
3041 4930
3041 4962
3042 3102
3042 3137
3042 3170
3042 3196
3042 3216
3042 3220
3042 3271
3042 3315
3042 3344
3042 3348
3042 3574
3042 3588
3042 3598
3042 3860
3042 3910
3042 4037
3042 4056
3042 4062
3042 4089
3042 4108
3042 4156
3042 4176
3042 4270
3042 4382
3042 4470
3042 4479
3042 4533
3042 4585
3042 4673
3042 4690
3042 4728
3042 4754
3042 4843
3042 4962
3043 3068
3043 3231
3043 3258
3043 3352
3043 3476
3043 3684
3043 3808
3043 3894
3043 4035
3043 4101
3043 4112
3043 4318
3043 4398
3043 4532
3043 4696
3043 4809
3044 3467
3044 3473
3044 3670
3044 4163
3044 4219
3044 4945
3045 3238
3045 3299
3045 3524
3045 3921
3045 3940
3045 4006
3045 4167
3045 4507
3045 4667
3045 4785
3045 4832
3046 3167
3046 3266
3046 3627
3046 3694
3046 3903
3046 4026
3046 4484
3046 4718
3046 4792
3046 4842
3046 4846
3047 3147
3047 4226
3047 4878
3048 3214
3048 3310
3048 3462
3048 3664
3048 3667
3048 4081
3048 4282
3048 4702
3048 4856
3048 4865
3049 3087
3049 3671
3049 4306
3049 4498
3049 4545
3049 4961
3050 3072
3050 3147
3050 3149
3050 3227
3050 3398
3050 3444
3050 3566
3050 3587
3050 3610
3050 3692
3050 3717
3050 3963
3050 4014
3050 4017
3050 4100
3050 4435
3050 4524
3050 4591
3050 4767
3050 4850
3050 4952
3051 3170
3051 3320
3051 3467
3051 3749
3051 3824
3051 4020
3051 4033
3051 4044
3051 4245
3051 4258
3051 4359
3051 4567
3051 4664
3052 3481
3052 3536
3052 3721
3052 3827
3052 3884
3052 4147
3052 4546
3052 4623
3052 4878
3053 3479
3053 3650
3054 3084
3054 3186
3054 3201
3054 3237
3054 3330
3054 3363
3054 3382
3054 3481
3054 3482
3054 3623
3054 3638
3054 3717
3054 3765
3054 3802
3054 3939
3054 3947
3054 3956
3054 3978
3054 3979
3054 4001
3054 4052
3054 4060
3054 4120
3054 4325
3054 4451
3054 4562
3054 4604
3054 4631
3054 4655
3054 4693
3054 4739
3054 4883
3054 4893
3054 4929
3054 4950
3054 4956
3054 4980
3055 3367
3055 3411
3055 3619
3055 3681
3055 3700
3055 3996
3055 4193
3055 4245
3055 4302
3055 4559
3055 4690
3055 4771
3055 4805
3055 4824
3056 3621
3056 4164
3056 4262
3056 4322
3056 4586
3056 4652
3056 4979
3057 3129
3057 3183
3057 3246
3057 3319
3057 3449
3057 4155
3057 4386
3057 4462
3057 4797
3057 4947
3057 4958
3058 3066
3058 3142
3058 3181
3058 3237
3058 4104
3058 4671
3058 4690
3058 4727
3059 3290
3059 4235
3059 4835
3059 4858
3060 3140
3060 3154
3060 3168
3060 3379
3060 3457
3060 4244
3060 4772
3060 4790
3060 4970
3060 4998
3061 3165
3061 3551
3061 3898
3061 4717
3062 3243
3062 3281
3062 3686
3062 4300
3062 4938
3063 3121
3063 3325
3063 4275
3063 4413
3063 4531
3064 3139
3064 3161
3064 3770
3064 4000
3064 4004
3064 4244
3064 4544
3065 3190
3065 3236
3065 3475
3065 3776
3065 3806
3065 3982
3065 4323
3065 4401
3065 4743
3066 3099
3066 3115
3066 3147
3066 3266
3066 3305
3066 3338
3066 3370
3066 3395
3066 3484
3066 3500
3066 3591
3066 3657
3066 3682
3066 3686
3066 3750
3066 3758
3066 3800
3066 3825
3066 3866
3066 3928
3066 3929
3066 4062
3066 4208
3066 4223
3066 4273
3066 4473
3066 4843
3066 4914
3066 4922
3067 3090
3067 3178
3067 3462
3067 3780
3067 4128
3067 4164
3067 4332
3067 4599
3068 3104
3068 3226
3068 3975
3068 4188
3068 4833
3070 3166
3070 3309
3070 3755
3070 3927
3070 4061
3070 4224
3070 4259
3070 4392
3070 4610
3070 4962
3071 3374
3071 3712
3071 3717
3071 3962
3071 4142
3071 4163
3071 4233
3071 4268
3071 4389
3071 4850
3072 3187
3072 3388
3072 3403
3072 3543
3072 3717
3072 3778
3072 3813
3072 3821
3072 3842
3072 3873
3072 3928
3072 3984
3072 4163
3072 4364
3072 4393
3072 4397
3072 4442
3072 4515
3072 4767
3072 4936
3072 4958
3073 3208
3073 3752
3073 3890
3073 3897
3073 4010
3073 4450
3073 4478
3073 4532
3073 4620
3073 4974
3074 3109
3074 3676
3074 4704
3074 4970
3075 3167
3075 3490
3075 3743
3075 3784
3075 4240
3075 4309
3075 4409
3075 4939
3076 3465
3076 4097
3076 4193
3076 4207
3076 4528
3076 4772
3076 4909
3077 3885
3077 4038
3077 4353
3077 4883
3078 3159
3078 3339
3078 3412
3078 3608
3078 3796
3078 3881
3078 3951
3078 4214
3078 4269
3078 4295
3078 4319
3078 4479
3078 4679
3078 4692
3079 3297
3079 3584
3079 4189
3079 4523
3079 4526
3079 4898
3080 3102
3080 3114
3080 3124
3080 3305
3080 3374
3080 3427
3080 3432
3080 3799
3080 3849
3080 3860
3080 3892
3080 3968
3080 3969
3080 3990
3080 4140
3080 4399
3080 4611
3080 4748
3080 4845
3081 3117
3081 3120
3081 3242
3081 3652
3081 4066
3081 4118
3081 4132
3081 4151
3081 4242
3081 4482
3081 4619
3081 4776
3081 4932
3082 3714
3082 3736
3082 3839
3082 3992
3082 4241
3082 4574
3082 4723
3083 3608
3083 3646
3083 4124
3083 4663
3083 4819
3083 4907
3083 4914
3084 3171
3084 3799
3084 3868
3084 4001
3084 4394
3085 3461
3085 3637
3085 3641
3085 3652
3085 4183
3085 4696
3085 4835
3085 4875
3086 3114
3086 3950
3086 4555
3086 4663
3086 4849
3087 3113
3087 3461
3087 3675
3087 3689
3087 3900
3087 4096
3087 4176
3087 4407
3087 4513
3087 4630
3087 4953
3087 4972
3088 3183
3088 3820
3088 4185
3088 4204
3088 4287
3088 4574
3088 4581
3088 4763
3088 4956
3089 3160
3089 3435
3089 3576
3089 4370
3089 4399
3089 4772
3089 4961
3090 3183
3090 3191
3090 3225
3090 3351
3090 3408
3090 3661
3090 3714
3090 4149
3090 4540
3090 4731
3091 3178
3091 3235
3091 3485
3091 3953
3091 4620
3092 3175
3092 3223
3092 3663
3092 3834
3092 4321
3092 4663
3092 4741
3092 4784
3092 4792
3092 4842
3093 3204
3093 3281
3093 3523
3093 4710
3093 4914
3093 4982
3094 3496
3094 3859
3094 4506
3094 4767
3095 3271
3095 3316
3095 3400
3095 3427
3095 3443
3095 3501
3095 3538
3095 3540
3095 3623
3095 3634
3095 3644
3095 3732
3095 3795
3095 4021
3095 4060
3095 4080
3095 4134
3095 4183
3095 4222
3095 4239
3095 4355
3095 4377
3095 4421
3095 4464
3095 4501
3095 4546
3095 4567
3095 4704
3095 4858
3096 3111
3096 3614
3096 3688
3096 3717
3096 3725
3096 4020
3096 4245
3096 4546
3097 3580
3097 3742
3097 3768
3097 3780
3097 4048
3097 4056
3097 4059
3097 4096
3097 4103
3097 4153
3097 4226
3097 4321
3097 4638
3097 4717
3097 4841
3098 3118
3098 3310
3098 3898
3098 4451
3098 4626
3098 4682
3098 4693
3098 4701
3099 3106
3099 3153
3099 3526
3099 3695
3099 3723
3099 3860
3099 3928
3099 4478
3099 4788
3099 4932
3099 4937
3100 3119
3100 3502
3100 3587
3100 3879
3100 3961
3100 4015
3100 4021
3100 4165
3100 4223
3100 4483
3100 4569
3100 4623
3100 4674
3100 4781
3100 4925
3100 4936
3100 4951
3101 3142
3101 3357
3101 3952
3101 4028
3101 4110
3101 4196
3101 4356
3102 3864
3102 3974
3102 4108
3102 4169
3102 4293
3102 4539
3102 4950
3103 3278
3103 3339
3103 3349
3103 3401
3103 3472
3103 3493
3103 3516
3103 3611
3103 3907
3103 3960
3103 4211
3103 4227
3103 4384
3103 4919
3104 3224
3104 3293
3104 3640
3104 3727
3104 4036
3104 4075
3104 4263
3104 4269
3104 4404
3104 4606
3105 3457
3105 3828
3105 4326
3106 3468
3106 3924
3106 4018
3106 4197
3106 4510
3106 4701
3106 4821
3106 4828
3106 4933
3107 3259
3107 3407
3107 4201
3107 4319
3107 4912
3108 3182
3108 3255
3108 3602
3108 4021
3108 4385
3108 4707
3108 4925
3109 3110
3109 3115
3109 3305
3109 3312
3109 3728
3109 3820
3109 3971
3109 4071
3109 4391
3109 4778
3109 4818
3109 4849
3109 4870
3109 4936
3110 3399
3110 3405
3110 4228
3110 4447
3110 4741
3110 4797
3110 4962
3111 3162
3111 3270
3111 3303
3111 3486
3111 3590
3111 3599
3111 3662
3111 3712
3111 3885
3111 4125
3111 4144
3111 4165
3111 4578
3111 4717
3111 4773
3111 4975
3112 3596
3112 3674
3112 3676
3112 3800
3112 3809
3112 3810
3112 3863
3112 3923
3112 3971
3112 4111
3113 3310
3113 3462
3113 3637
3113 3668
3113 3678
3113 3722
3113 3940
3113 3963
3113 4311
3113 4389
3113 4397
3113 4561
3113 4581
3114 3340
3114 3351
3114 3644
3114 3714
3114 4030
3114 4225
3114 4270
3114 4323
3114 4331
3114 4359
3114 4391
3114 4411
3114 4434
3114 4500
3114 4709
3114 4731
3115 3180
3115 4346
3115 4760
3116 3349
3116 3592
3116 4077
3116 4247
3116 4251
3116 4304
3116 4324
3116 4363
3116 4395
3116 4556
3116 4795
3116 4833
3117 3127
3117 3144
3117 3292
3117 3383
3117 3442
3117 3528
3117 3546
3117 3571
3117 3806
3117 4000
3117 4059
3117 4110
3117 4112
3117 4148
3117 4212
3117 4275
3117 4362
3117 4918
3118 3272
3118 3313
3118 3857
3118 3886
3118 4563
3118 4731
3118 4787
3118 4842
3119 3154
3119 3189
3119 3214
3119 3404
3119 3608
3119 3714
3119 4076
3119 4323
3119 4609
3119 4644
3120 3313
3120 3636
3120 3877
3120 3947
3120 4540
3120 4664
3121 3151
3121 3167
3121 3287
3121 3290
3121 3420
3121 3477
3121 3522
3121 3541
3121 3636
3121 3659
3121 3821
3121 4109
3121 4118
3121 4170
3121 4198
3121 4318
3121 4715
3121 4848
3121 4852
3121 4854
3122 3241
3122 3400
3122 3560
3122 3762
3122 3798
3122 3856
3122 4193
3122 4374
3122 4450
3123 3134
3123 3143
3123 3223
3123 3360
3123 3462
3123 3582
3123 3768
3123 3824
3123 3924
3123 3965
3123 4187
3123 4196
3123 4514
3123 4759
3123 4766
3123 4970
3124 3176
3124 3248
3124 3399
3124 3466
3124 3621
3124 3746
3124 3976
3124 4037
3124 4116
3124 4293
3124 4354
3124 4672
3124 4826
3124 4912
3125 3389
3125 3736
3125 3850
3125 4105
3125 4242
3125 4321
3125 4955
3126 3277
3126 3392
3126 3456
3126 3503
3126 3714
3126 4209
3126 4726
3127 3284
3127 3561
3127 4587
3127 4657
3128 3186
3128 3192
3128 3463
3128 3979
3128 4055
3128 4244
3128 4451
3128 4529
3128 4596
3128 4828
3128 4858
3128 4930
3129 3163
3129 3335
3129 3505
3129 3569
3129 3651
3129 3991
3129 4040
3129 4149
3129 4297
3129 4805
3129 4858
3130 3211
3130 3229
3130 3325
3130 3704
3130 3979
3130 4152
3130 4290
3130 4344
3130 4475
3130 4792
3131 3193
3131 3336
3131 3512
3131 3943
3131 4723
3131 4842
3131 4859
3131 4971
3132 4996
3133 3251
3133 3510
3133 3517
3133 3976
3133 4053
3133 4197
3133 4442
3133 4468
3133 4563
3133 4671
3133 4912
3134 3138
3134 3316
3134 3342
3134 3492
3134 3604
3134 3636
3134 3670
3134 4010
3134 4021
3134 4537
3134 4920
3134 4943
3135 3167
3135 3190
3135 3369
3135 3473
3135 3495
3135 3681
3135 3748
3135 3749
3135 3851
3135 3915
3135 3935
3135 4003
3135 4252
3135 4314
3135 4319
3135 4337
3135 4448
3135 4520
3135 4624
3135 4688
3135 4974
3136 3348
3136 3400
3136 4259
3136 4338
3136 4774
3137 3824
3137 4393
3137 4955
3138 3263
3138 3272
3138 3346
3138 3753
3138 4444
3138 4553
3138 4642
3139 3281
3139 3384
3139 3426
3139 3554
3139 3967
3139 4319
3139 4330
3140 3326
3140 3458
3140 3552
3140 3624
3140 3893
3140 4342
3140 4464
3140 4827
3140 4951
3141 3280
3141 3444
3141 3537
3141 3555
3141 3589
3141 3733
3141 3797
3141 3812
3141 4133
3141 4143
3141 4215
3141 4248
3141 4326
3141 4343
3141 4577
3142 3184
3142 3598
3142 3787
3142 4142
3142 4889
3142 4923
3143 3910
3143 3920
3143 4767
3143 4783
3143 4825
3144 3167
3144 3195
3144 3209
3144 3417
3144 3418
3144 3513
3144 3578
3144 3654
3144 3715
3144 3840
3144 3865
3144 3942
3144 3990
3144 4107
3144 4143
3144 4235
3144 4435
3144 4441
3144 4592
3144 4627
3144 4773
3144 4786
3144 4794
3144 4844
3145 3422
3145 3889
3145 4144
3145 4225
3145 4351
3145 4760
3145 4867
3145 4891
3146 3430
3146 3612
3146 3652
3146 3738
3146 4307
3146 4625
3146 4813
3147 3169
3147 3223
3147 3345
3147 3374
3147 3795
3147 3895
3147 3923
3147 4011
3147 4115
3147 4140
3147 4410
3147 4735
3147 4819
3147 4930
3148 3423
3148 3662
3148 3882
3148 3890
3148 3950
3148 4510
3148 4665
3148 4723
3148 4795
3148 4850
3148 4868
3149 3368
3149 3482
3149 3602
3149 3624
3149 3910
3149 4263
3149 4598
3150 3196
3150 3640
3150 3963
3150 3999
3150 4181
3150 4343
3150 4399
3150 4843
3150 4938
3151 3835
3151 3955
3151 4178
3151 4206
3151 4254
3152 3156
3152 3530
3152 3911
3152 4198
3152 4302
3152 4919
3153 3618
3153 3624
3153 3732
3153 3796
3153 3842
3153 4006
3153 4164
3153 4503
3153 4653
3154 3467
3154 3485
3154 3573
3154 4166
3154 4784
3155 3268
3155 3334
3155 4062
3155 4711
3155 4729
3155 4825
3155 4909
3156 3214
3156 4106
3156 4286
3156 4634
3156 4889
3156 4891
3156 4909
3157 3189
3157 3434
3157 3474
3157 3731
3157 3851
3157 3888
3157 3956
3157 4010
3157 4059
3157 4311
3157 4532
3157 4643
3157 4697
3157 4964
3157 4996
3158 3851
3158 3860
3158 4010
3158 4136
3158 4376
3158 4387
3158 4524
3158 4888
3159 3769
3159 4189
3159 4459
3159 4666
3159 4693
3159 4806
3159 4842
3160 3304
3160 3565
3160 3677
3160 3753
3160 3985
3160 4178
3160 4370
3160 4803
3161 3311
3161 3771
3161 3804
3162 3334
3162 3537
3162 3633
3162 4246
3162 4498
3162 4880
3162 4922
3163 3293
3163 3976
3163 4592
3164 3244
3164 3715
3164 3851
3164 4174
3164 4192
3164 4212
3164 4322
3164 4343
3164 4383
3164 4428
3164 4551
3164 4862
3165 3356
3165 3609
3165 3810
3165 3894
3165 4038
3165 4224
3165 4251
3165 4373
3165 4923
3166 3317
3166 3509
3166 3515
3166 3544
3166 3564
3166 4175
3166 4296
3166 4433
3166 4510
3166 4614
3166 4732
3166 4868
3167 3211
3167 3317
3167 3329
3167 3330
3167 3342
3167 3456
3167 3749
3167 3784
3167 3864
3167 3906
3167 3918
3167 3958
3167 4078
3167 4147
3167 4247
3167 4336
3167 4484
3167 4594
3167 4682
3167 4694
3167 4736
3167 4766
3167 4790
3167 4978
3168 3285
3168 3382
3168 3637
3168 4044
3168 4057
3168 4196
3168 4899
3169 3956
3169 4107
3169 4474
3169 4674
3169 4988
3170 3188
3170 3664
3170 3748
3170 3749
3170 4034
3170 4225
3170 4364
3170 4448
3170 4452
3170 4512
3170 4531
3170 4547
3170 4569
3170 4701
3171 3243
3171 4084
3171 4702
3171 4909
3172 3379
3172 3419
3172 4068
3172 4243
3172 4376
3172 4638
3172 4776
3173 3238
3173 3804
3173 3852
3173 4034
3173 4035
3173 4084
3173 4227
3173 4266
3173 4396
3173 4793
3174 3318
3174 3954
3174 4048
3174 4084
3174 4093
3174 4429
3174 4442
3174 4542
3174 4924
3174 4994
3175 3194
3175 3289
3175 3617
3175 3666
3175 3706
3175 3732
3176 3381
3176 4152
3176 4242
3176 4570
3176 4712
3176 4924
3177 3423
3177 3486
3177 3853
3177 4345
3177 4397
3177 4410
3177 4585
3177 4602
3177 4992
3178 3198
3178 3289
3178 3470
3178 3650
3178 3664
3178 3668
3178 3745
3178 3793
3178 3863
3178 4164
3178 4553
3178 4791
3178 4981
3179 3198
3179 3234
3179 3463
3179 3562
3179 3637
3179 4162
3179 4450
3179 4494
3179 4619
3180 3209
3180 3394
3180 3566
3180 3614
3180 3708
3180 3761
3180 3767
3180 3785
3180 4098
3180 4101
3180 4120
3180 4213
3180 4253
3180 4294
3180 4352
3180 4376
3180 4424
3180 4560
3180 4631
3180 4632
3180 4674
3180 4727
3180 4737
3180 4745
3180 4890
3181 3340
3181 3374
3181 3505
3181 3571
3181 3664
3181 3813
3181 4239
3181 4317
3181 4342
3181 4362
3181 4612
3181 4690
3181 4753
3181 4806
3181 4840
3182 3736
3182 3737
3182 3922
3182 3936
3182 4338
3182 4529
3182 4623
3182 4845
3182 4999
3183 3237
3183 3535
3183 3858
3183 4001
3183 4051
3183 4235
3183 4429
3183 4631
3184 3424
3184 3762
3184 3923
3184 3947
3184 4292
3184 4314
3184 4379
3184 4661
3184 4724
3184 4751
3184 4785
3185 3704
3185 3788
3185 4049
3185 4295
3185 4702
3185 4739
3186 3192
3186 3532
3186 3949
3186 4398
3186 4666
3186 4748
3186 4785
3186 4889
3187 4187
3187 4335
3187 4518
3188 3337
3188 3345
3188 3593
3188 3627
3188 4534
3188 4702
3188 4755
3189 3583
3189 3706
3189 3784
3189 4009
3189 4480
3189 4504
3189 4542
3189 4623
3189 4741
3189 4744
3189 4892
3191 3231
3191 3286
3191 3400
3191 3582
3191 3926
3191 4270
3191 4415
3191 4855
3192 3939
3192 4052
3192 4451
3192 4543
3192 4578
3192 4628
3193 3326
3193 3441
3193 3452
3193 3712
3193 3744
3193 3932
3193 4079
3193 4151
3193 4189
3193 4381
3193 4423
3193 4556
3193 4665
3193 4670
3193 4702
3194 3205
3194 3400
3194 3684
3194 3964
3194 4117
3194 4405
3194 4423
3194 4624
3194 4860
3195 3631
3195 3867
3195 4125
3195 4254
3195 4309
3195 4497
3195 4519
3195 4607
3195 4698
3195 4754
3195 4794
3195 4940
3196 3200
3196 3305
3196 3399
3196 3432
3196 3470
3196 3494
3196 3787
3196 3896
3196 3910
3196 3971
3196 4048
3196 4067
3196 4116
3196 4117
3196 4140
3196 4270
3196 4523
3196 4646
3196 4797
3196 4962
3197 3235
3197 3239
3197 4117
3197 4323
3198 3407
3198 3482
3198 3670
3198 4234
3198 4421
3198 4826
3198 4993
3199 3430
3199 3739
3199 3907
3199 4103
3199 4213
3199 4280
3199 4402
3200 3371
3200 4233
3200 4477
3201 3235
3201 3748
3201 3808
3201 3980
3201 4155
3201 4886
3201 4888
3201 4903
3202 3256
3202 3514
3202 3703
3202 3712
3202 3751
3202 3884
3202 3938
3202 4173
3202 4185
3202 4424
3202 4631
3202 4644
3203 3418
3203 3617
3203 3634
3203 3763
3203 3941
3203 4786
3204 3265
3204 3442
3204 3485
3204 3594
3204 4187
3204 4236
3204 4284
3204 4578
3204 4580
3204 4690
3205 3452
3205 3615
3205 4398
3205 4623
3205 4682
3206 3244
3206 3411
3206 3458
3206 3759
3206 3834
3206 4244
3206 4401
3206 4428
3206 4623
3206 4788
3207 3518
3207 4000
3207 4150
3207 4383
3207 4470
3207 4896
3207 4977
3208 3240
3208 3404
3208 3708
3208 3915
3208 4604
3208 4858
3208 4951
3209 3486
3209 4040
3209 4128
3209 4275
3209 4304
3209 4376
3209 4737
3209 4843
3209 4904
3209 4964
3210 3706
3210 3824
3210 3898
3210 3955
3210 4809
3211 3214
3211 3480
3211 3488
3211 3582
3211 3827
3211 3940
3211 4105
3211 4148
3211 4173
3211 4563
3211 4590
3211 4884
3211 4912
3212 3224
3212 3247
3212 3662
3212 3714
3212 3785
3212 3787
3212 4030
3212 4177
3212 4243
3212 4312
3212 4669
3212 4983
3213 3335
3213 4085
3213 4232
3213 4305
3213 4690
3213 4780
3214 3507
3214 3572
3214 3657
3214 3685
3214 4444
3214 4661
3214 4780
3214 4849
3215 3542
3215 3753
3215 3882
3215 3914
3215 4004
3215 4307
3215 4315
3215 4321
3215 4414
3215 4481
3215 4618
3215 4628
3216 3307
3216 4142
3216 4199
3216 4363
3216 4560
3217 3248
3217 3402
3217 3698
3217 4403
3217 4780
3218 3313
3218 3430
3218 3569
3218 3687
3218 3751
3218 3821
3218 4291
3218 4577
3218 4658
3218 4915
3218 4983
3219 3915
3219 3943
3219 4146
3219 4181
3219 4242
3219 4252
3219 4329
3220 3255
3220 3438
3220 3739
3220 3928
3220 4062
3220 4176
3220 4357
3220 4600
3220 4890
3221 3851
3221 4269
3221 4626
3221 4630
3222 3401
3222 3511
3222 3704
3222 3785
3222 4189
3222 4469
3222 4491
3223 3491
3223 4266
3223 4538
3224 3788
3224 3820
3224 4423
3224 4872
3225 3232
3225 3385
3225 3618
3225 3714
3225 3752
3225 4199
3225 4272
3225 4522
3226 3339
3226 3352
3226 3389
3226 3402
3226 3436
3226 3438
3226 3504
3226 3530
3226 3684
3226 3752
3226 3776
3226 3786
3226 3797
3226 3978
3226 4078
3226 4088
3226 4145
3226 4215
3226 4263
3226 4318
3226 4325
3226 4427
3226 4594
3226 4672
3226 4818
3226 4904
3226 4914
3227 3473
3227 3545
3227 3608
3227 3616
3227 3669
3227 3777
3227 4291
3227 4563
3227 4926
3228 3313
3228 3424
3228 3620
3228 3918
3228 4119
3228 4253
3228 4510
3228 4536
3228 4846
3229 3533
3229 3912
3229 3976
3229 4029
3229 4058
3229 4060
3229 4208
3229 4245
3229 4322
3229 4740
3230 3276
3230 3795
3230 4216
3230 4756
3231 3506
3231 4168
3231 4191
3231 4216
3231 4269
3231 4316
3231 4683
3231 4722
3231 4875
3231 4943
3232 3553
3232 3609
3232 4188
3232 4229
3232 4656
3233 3378
3233 3397
3233 3569
3233 3814
3233 4164
3233 4177
3233 4278
3233 4509
3233 4640
3233 4881
3233 4966
3234 3958
3234 3979
3234 3980
3234 4447
3234 4464
3234 4794
3234 4905
3234 4908
3235 3614
3235 3678
3235 3979
3235 4179
3235 4328
3235 4453
3235 4856
3236 3375
3236 4680
3236 4866
3237 3473
3237 3486
3237 3704
3237 3729
3237 3866
3237 3986
3237 3987
3237 4297
3237 4823
3237 4824
3238 4052
3238 4314
3238 4877
3239 3782
3239 3924
3239 4086
3239 4207
3239 4333
3240 3285
3240 3449
3240 3539
3240 3812
3240 4017
3240 4116
3240 4257
3240 4917
3240 4980
3241 3352
3241 3553
3241 4106
3241 4172
3241 4220
3241 4244
3241 4294
3241 4319
3241 4330
3241 4537
3241 4823
3241 4936
3241 4970
3242 3536
3242 3913
3242 3991
3242 4288
3243 3400
3243 3787
3243 3825
3243 3893
3243 4034
3243 4095
3244 3264
3244 3325
3244 3343
3244 3364
3244 3397
3244 3441
3244 3488
3244 3513
3244 3559
3244 3634
3244 3656
3244 4142
3244 4143
3244 4246
3244 4258
3244 4433
3244 4511
3244 4789
3244 4983
3245 3412
3245 3600
3245 3923
3245 4215
3245 4305
3245 4672
3245 4963
3246 3266
3246 3351
3246 4175
3246 4436
3246 4524
3247 3368
3247 3453
3247 3457
3247 3550
3247 3610
3247 3714
3247 3926
3247 4041
3247 4149
3247 4272
3247 4289
3247 4359
3247 4739
3247 4770
3248 3320
3248 3624
3248 3785
3248 3893
3248 4184
3248 4770
3248 4866
3249 3254
3249 3385
3249 3498
3249 3564
3249 4271
3249 4357
3249 4898
3250 3754
3250 3998
3250 4113
3250 4547
3250 4690
3250 4943
3251 3360
3251 3458
3251 3632
3251 4041
3251 4201
3251 4206
3251 4236
3251 4604
3251 4694
3252 3342
3252 3460
3252 3498
3252 3631
3252 4583
3252 4761
3253 3379
3253 3432
3253 3592
3253 3824
3253 3872
3253 4180
3253 4239
3253 4471
3253 4476
3253 4518
3254 3572
3254 4078
3254 4402
3254 4470
3254 4478
3254 4499
3254 4841
3254 4961
3255 3306
3255 3399
3255 3410
3255 3591
3255 3626
3255 3844
3255 4800
3256 3273
3256 3335
3256 3771
3256 3795
3256 4098
3256 4943
3257 3286
3257 3440
3257 3901
3257 4240
3257 4323
3257 4429
3257 4702
3258 3339
3258 3465
3258 3663
3258 3776
3258 3820
3258 4596
3258 4865
3258 4890
3259 4248
3259 4267
3259 4598
3259 4902
3260 3405
3260 3585
3260 3609
3260 4406
3260 4778
3260 4858
3260 4866
3261 3407
3261 3505
3261 3528
3261 3815
3261 3858
3261 3891
3261 4037
3261 4084
3261 4324
3261 4668
3261 4762
3262 3468
3262 3498
3262 3561
3262 3758
3263 3265
3263 3469
3263 3844
3263 4619
3263 4879
3264 3491
3264 4191
3264 4388
3264 4858
3265 3706
3265 4175
3265 4578
3266 3390
3266 3396
3266 3414
3266 3463
3266 3666
3266 4085
3266 4473
3266 4597
3266 4714
3266 4858
3266 4935
3267 3388
3267 3555
3267 3817
3267 4037
3267 4434
3267 4578
3267 4784
3268 3463
3268 3602
3268 4060
3268 4083
3268 4280
3268 4595
3268 4632
3268 4846
3268 4937
3269 3688
3269 3703
3269 3951
3269 4522
3269 4859
3270 3343
3270 3751
3270 3944
3270 4374
3270 4531
3270 4595
3270 4844
3271 3368
3271 3670
3271 3677
3271 3714
3271 3765
3271 4071
3271 4337
3271 4734
3272 3731
3272 4891
3273 3446
3273 3566
3273 3786
3273 4000
3273 4078
3273 4232
3273 4485
3273 4522
3273 4578
3273 4760
3274 3372
3274 3649
3274 3660
3274 3725
3274 3940
3274 4214
3274 4367
3274 4391
3274 4443
3274 4524
3274 4624
3274 4741
3274 4927
3274 4968
3275 3714
3275 3762
3275 4015
3275 4416
3275 4655
3275 4768
3276 3734
3276 3940
3276 4203
3276 4366
3276 4911
3277 3292
3277 3496
3277 3650
3277 4070
3277 4127
3277 4234
3277 4330
3277 4879
3277 4920
3277 4940
3278 3536
3278 3563
3278 3640
3278 3660
3278 3734
3278 3999
3278 4581
3278 4767
3278 4804
3279 3328
3279 3534
3279 4139
3279 4269
3279 4380
3279 4529
3279 4772
3279 4921
3279 4975
3280 3332
3280 3335
3280 3399
3280 3480
3280 3632
3280 4154
3280 4601
3281 3526
3281 3778
3281 3859
3281 4058
3281 4196
3281 4200
3281 4349
3281 4355
3282 3377
3282 3952
3282 4121
3282 4205
3282 4525
3283 3641
3283 3690
3283 3952
3283 3970
3283 4130
3283 4367
3283 4487
3283 4519
3283 4626
3283 4893
3284 3461
3284 3562
3284 3774
3284 4477
3284 4666
3284 4739
3284 4752
3284 4797
3285 3437
3285 3478
3285 3898
3285 4133
3285 4152
3285 4154
3285 4195
3285 4228
3285 4235
3285 4273
3285 4379
3285 4445
3285 4459
3285 4587
3285 4616
3285 4717
3286 3348
3286 3525
3286 3708
3286 3983
3286 4121
3286 4157
3286 4277
3286 4351
3286 4635
3287 3426
3287 4019
3287 4486
3287 4546
3288 3322
3288 3356
3288 4108
3288 4762
3289 3341
3289 3734
3289 4222
3289 4759
3289 4789
3290 3494
3290 3590
3290 4223
3290 4385
3290 4410
3290 4911
3291 3493
3291 4085
3291 4116
3291 4248
3291 4410
3291 4433
3291 4465
3291 4506
3291 4825
3292 3591
3292 3697
3292 3736
3292 3826
3292 4124
3292 4220
3292 4296
3292 4341
3292 4352
3292 4385
3292 4510
3292 4728
3293 3389
3293 3934
3293 4424
3294 3505
3294 3903
3294 3916
3294 4430
3294 4503
3294 4778
3295 3568
3295 3604
3295 3632
3295 3676
3295 3920
3295 4011
3295 4232
3295 4540
3295 4800
3296 3402
3296 3956
3296 4110
3296 4138
3296 4150
3296 4428
3296 4543
3296 4563
3296 4829
3296 4887
3296 4979
3297 3700
3297 3758
3297 4012
3297 4143
3297 4645
3297 4805
3297 4913
3297 4920
3297 4974
3299 3800
3299 4020
3299 4555
3299 4571
3299 4573
3299 4586
3300 3313
3300 3326
3300 3771
3300 3931
3300 4265
3300 4455
3300 4473
3300 4485
3300 4498
3300 4596
3300 4719
3301 3489
3301 4167
3301 4306
3301 4333
3301 4618
3301 4688
3301 4832
3302 3458
3302 3789
3302 4685
3303 3314
3303 3532
3303 3624
3303 3755
3303 3855
3303 4106
3303 4390
3303 4440
3303 4472
3303 4594
3303 4930
3304 3929
3304 4163
3304 4209
3304 4296
3304 4323
3304 4444
3304 4507
3304 4675
3304 4714
3304 4961
3305 3479
3305 4155
3305 4406
3305 4753
3305 4841
3306 3374
3306 3799
3306 4037
3306 4962
3307 3704
3307 3708
3307 4068
3307 4498
3307 4559
3307 4831
3307 4898
3308 3383
3308 3789
3308 3790
3308 3874
3308 4027
3308 4034
3308 4096
3308 4207
3308 4304
3308 4467
3308 4742
3308 4790
3308 4862
3309 3525
3309 3757
3309 4398
3309 4568
3309 4988
3310 3376
3310 3605
3310 4205
3310 4327
3310 4411
3310 4847
3311 3361
3311 3571
3311 3636
3311 3639
3311 4215
3311 4228
3311 4248
3311 4326
3311 4360
3311 4528
3311 4529
3311 4554
3312 3399
3312 3549
3312 3624
3312 3838
3312 4064
3312 4923
3313 3386
3313 3517
3313 3649
3313 3685
3313 3824
3313 3889
3313 3954
3313 4000
3313 4144
3313 4442
3313 4524
3313 4816
3313 4826
3313 4827
3313 4897
3313 4910
3313 4943
3314 3560
3314 4200
3314 4600
3314 4646
3314 4971
3315 3379
3315 3660
3315 4140
3315 4208
3315 4342
3315 4385
3316 3394
3316 3734
3316 3763
3316 3830
3316 3996
3316 4089
3316 4225
3316 4979
3317 3853
3317 3912
3317 4181
3317 4573
3317 4578
3317 4686
3317 4946
3317 4948
3317 4993
3317 4995
3318 3325
3318 3714
3318 4323
3318 4347
3318 4469
3318 4483
3318 4545
3318 4679
3319 3421
3319 3539
3319 4117
3319 4235
3319 4589
3319 4895
3319 4908
3320 3417
3320 3442
3320 3459
3320 3615
3320 3797
3320 3823
3320 4767
3321 4372
3321 4570
3321 4699
3322 4030
3322 4218
3322 4223
3322 4300
3322 4469
3322 4476
3322 4582
3322 4619
3323 3442
3323 3509
3323 3630
3323 3732
3323 3757
3323 3794
3323 4003
3323 4134
3323 4149
3323 4180
3323 4416
3323 4419
3323 4427
3323 4762
3324 3571
3324 3939
3324 4069
3324 4586
3324 4637
3324 4641
3324 4792
3325 3392
3325 3942
3325 4069
3325 4122
3325 4289
3325 4766
3325 4858
3326 3342
3326 3528
3326 3687
3326 3714
3326 3949
3326 4011
3326 4303
3326 4833
3327 3414
3327 3670
3327 3974
3327 4189
3327 4643
3327 4772
3327 4901
3328 3337
3328 3508
3328 3605
3328 3642
3328 3675
3328 3789
3328 3794
3328 3822
3328 3839
3328 3842
3328 3871
3328 3912
3328 3956
3328 4193
3328 4265
3328 4437
3328 4510
3328 4611
3328 4697
3328 4706
3328 4726
3328 4753
3329 3551
3329 3624
3329 4024
3329 4180
3329 4303
3329 4390
3329 4487
3329 4497
3329 4700
3330 3543
3330 3667
3330 3675
3330 4082
3330 4308
3330 4339
3330 4366
3330 4452
3330 4824
3330 4926
3331 3570
3331 3762
3331 3893
3331 4117
3331 4731
3332 3733
3332 3973
3332 4133
3332 4134
3332 4157
3332 4328
3332 4347
3332 4405
3332 4568
3332 4942
3332 4992
3333 3570
3333 3644
3333 3713
3333 4182
3333 4407
3333 4646
3333 4667
3333 4744
3333 4929
3334 3785
3334 3836
3334 3847
3334 4105
3334 4236
3334 4258
3334 4262
3334 4642
3334 4724
3334 4995
3335 3344
3335 4013
3335 4048
3335 4505
3335 4585
3335 4588
3335 4715
3335 4794
3335 4895
3336 3351
3336 3503
3336 4009
3336 4076
3336 4095
3336 4203
3336 4378
3336 4515
3336 4953
3336 4978
3337 3735
3337 4295
3337 4307
3337 4756
3338 3405
3338 3677
3338 3771
3338 4064
3338 4414
3338 4513
3339 3465
3339 3521
3339 3649
3339 4020
3339 4269
3339 4352
3339 4537
3339 4754
3339 4812
3340 3429
3340 3610
3340 3676
3340 4070
3340 4096
3340 4402
3340 4586
3340 4897
3340 4933
3340 4991
3341 3471
3341 3535
3341 3688
3341 3731
3341 4504
3341 4784
3342 4180
3342 4233
3342 4295
3342 4498
3342 4738
3342 4782
3342 4912
3342 4988
3343 3609
3343 4182
3343 4254
3343 4283
3343 4292
3343 4503
3343 4702
3344 3362
3344 3457
3344 3606
3344 3617
3344 3736
3344 4155
3344 4428
3344 4488
3344 4490
3345 3441
3345 3449
3345 3751
3345 3866
3345 4125
3345 4167
3345 4304
3345 4433
3345 4472
3345 4478
3345 4483
3345 4691
3345 4697
3345 4805
3345 4845
3346 3527
3346 4065
3346 4289
3346 4309
3346 4692
3347 3495
3347 3624
3347 3731
3347 4663
3347 4714
3347 4985
3348 3473
3348 3789
3348 3821
3348 4502
3349 3387
3349 3434
3349 3914
3349 4247
3349 4617
3349 4664
3349 4834
3349 4951
3349 4998
3350 3555
3350 3914
3350 4110
3350 4309
3350 4378
3351 3355
3351 3541
3351 3604
3351 4172
3351 4222
3351 4913
3351 4943
3352 3537
3352 3826
3352 3992
3352 4084
3352 4231
3352 4316
3353 3629
3353 3725
3353 3833
3353 3933
3353 4251
3353 4279
3353 4655
3353 4784
3353 4819
3353 4835
3353 4853
3353 4912
3353 4951
3354 3371
3354 3485
3354 3616
3354 4301
3354 4603
3355 3371
3355 3418
3355 3714
3355 3821
3355 4095
3355 4197
3355 4209
3355 4436
3355 4631
3356 3624
3356 3751
3356 3825
3356 3875
3356 4008
3356 4234
3356 4899
3357 3490
3357 3534
3357 4181
3357 4318
3357 4346
3358 3519
3358 4103
3358 4308
3358 4654
3358 4826
3358 4978
3359 3631
3359 3688
3359 3822
3359 4012
3359 4276
3359 4380
3359 4623
3359 4859
3360 3374
3360 3426
3360 3462
3360 3488
3360 3751
3360 3824
3360 3863
3360 3895
3360 3908
3360 4017
3360 4281
3360 4283
3360 4374
3360 4567
3360 4648
3360 4702
3360 4833
3360 4865
3360 4875
3360 4968
3361 3657
3361 3789
3361 4228
3361 4551
3361 4900
3361 4948
3362 3366
3362 3546
3362 3706
3362 4275
3362 4475
3362 4929
3363 3403
3363 3457
3363 3595
3363 3609
3363 3626
3363 3839
3363 4227
3363 4384
3363 4417
3363 4788
3363 4866
3363 4942
3364 3414
3364 4124
3364 4165
3364 4228
3364 4416
3364 4454
3364 4488
3364 4951
3365 4021
3365 4327
3365 4398
3365 4533
3365 4542
3365 4861
3366 3504
3366 3612
3366 4009
3366 4218
3366 4753
3367 3544
3367 3667
3367 3747
3367 3908
3367 4053
3367 4404
3367 4602
3368 3670
3368 3975
3368 4548
3369 3729
3369 3735
3369 3820
3369 3909
3369 3914
3369 4097
3369 4664
3370 3928
3370 4085
3370 4115
3370 4323
3370 4818
3371 3502
3371 3590
3371 4059
3371 4178
3371 4211
3372 3452
3372 3927
3372 4328
3372 4510
3373 3847
3373 3953
3373 4110
3373 4202
3373 4528
3373 4614
3373 4803
3374 3726
3374 3860
3374 4169
3374 4413
3374 4463
3374 4580
3375 4037
3375 4534
3375 4797
3376 3613
3376 3769
3376 4350
3376 4717
3376 4724
3376 4981
3377 3427
3377 3576
3377 4835
3377 4854
3378 3566
3378 3674
3378 3682
3378 3824
3378 3952
3378 4084
3378 4402
3378 4578
3378 4734
3379 3687
3379 3721
3379 3845
3379 4039
3379 4058
3379 4210
3379 4237
3379 4473
3379 4531
3379 4557
3379 4632
3379 4725
3379 4892
3380 3595
3380 3664
3380 3773
3380 4149
3380 4237
3380 4304
3380 4854
3380 4859
3381 3409
3381 4228
3381 4414
3381 4434
3381 4579
3382 3670
3382 3730
3382 3816
3382 3826
3382 3932
3382 3951
3382 4056
3382 4183
3382 4269
3382 4793
3382 4834
3382 4911
3383 4192
3384 4445
3384 4450
3384 4608
3384 4859
3385 3402
3385 3433
3385 3587
3385 3695
3385 3723
3385 3742
3385 3881
3385 4271
3385 4370
3385 4383
3385 4831
3385 4869
3385 4946
3386 3533
3386 3928
3386 4077
3386 4424
3387 3451
3387 3456
3387 3514
3387 3558
3387 3697
3387 3734
3387 3935
3387 3944
3387 3961
3387 3982
3387 4153
3387 4247
3387 4274
3387 4280
3387 4381
3387 4655
3387 4851
3387 4925
3387 4958
3387 4984
3388 3410
3388 3485
3388 3654
3388 4058
3388 4072
3388 4097
3388 4099
3388 4297
3388 4440
3388 4448
3388 4600
3388 4629
3388 4898
3389 3407
3389 4012
3389 4676
3389 4795
3389 4807
3390 3426
3390 3479
3390 3693
3390 3792
3390 4098
3390 4714
3390 4825
3390 4944
3391 4237
3391 4344
3391 4406
3392 3626
3392 3714
3392 4041
3392 4195
3392 4548
3392 4628
3393 3912
3393 3978
3393 4075
3393 4331
3393 4499
3393 4544
3394 3566
3394 3642
3394 3904
3394 4164
3394 4213
3394 4284
3394 4352
3394 4408
3394 4737
3394 4869
3394 4919
3395 3678
3395 4907
3395 4924
3396 3398
3396 3444
3396 3809
3396 4410
3397 3540
3397 3585
3397 3609
3397 4431
3397 4435
3397 4475
3397 4544
3397 4795
3397 4858
3397 4981
3397 4983
3398 3567
3398 3686
3398 3795
3398 3851
3398 4067
3398 4446
3398 4493
3398 4544
3398 4584
3398 4925
3399 3429
3399 3514
3399 3799
3399 3808
3399 3953
3399 3976
3399 4270
3399 4564
3399 4857
3399 4966
3399 4997
3400 3480
3400 3590
3400 3664
3400 3745
3400 4244
3400 4731
3400 4825
3400 4934
3401 3418
3401 3636
3401 3828
3401 3854
3401 4918
3402 3570
3402 3608
3402 3724
3402 3797
3402 3976
3402 4018
3402 4147
3402 4202
3402 4228
3402 4305
3402 4335
3402 4345
3402 4366
3402 4734
3402 4736
3402 4755
3402 4827
3402 4939
3403 3440
3403 3635
3403 3637
3403 3672
3403 4297
3403 4634
3403 4638
3403 4787
3403 4791
3403 4968
3403 4995
3404 3528
3404 4052
3404 4209
3404 4333
3404 4378
3404 4952
3405 3443
3405 3896
3405 4048
3405 4137
3405 4881
3405 4948
3406 3530
3406 3684
3406 3872
3407 3627
3407 3736
3407 4086
3407 4098
3407 4149
3407 4444
3407 4482
3407 4530
3407 4956
3408 3419
3408 3461
3408 4118
3408 4242
3409 3420
3409 3623
3409 3993
3409 4217
3410 3821
3410 4089
3410 4691
3410 4765
3410 4949
3411 3553
3411 3924
3411 4220
3411 4530
3411 4543
3411 4750
3412 3514
3412 3557
3412 3581
3412 3690
3412 3746
3412 4376
3412 4950
3412 4992
3413 4234
3413 4390
3413 4559
3413 4750
3413 4806
3414 3742
3414 4408
3414 4471
3414 4805
3415 3760
3415 3851
3415 3910
3415 3940
3415 4656
3416 3587
3416 3846
3416 3857
3416 3894
3416 3945
3416 4247
3416 4792
3417 3488
3417 3781
3417 3904
3417 4363
3417 4510
3417 4511
3417 4721
3418 3714
3418 3726
3418 3847
3418 4130
3418 4164
3418 4216
3418 4240
3418 4314
3418 4388
3418 4903
3419 3785
3419 4130
3419 4165
3419 4550
3419 4940
3420 3556
3420 3608
3420 3701
3420 4009
3420 4486
3420 4563
3420 4817
3420 4878
3421 3426
3421 3485
3421 3493
3421 3531
3421 3553
3421 3556
3421 3751
3421 3762
3421 3825
3421 4012
3421 4029
3421 4300
3421 4573
3421 4588
3421 4623
3421 4864
3421 4868
3422 3794
3422 3886
3422 4050
3422 4189
3423 3465
3423 3820
3423 4022
3423 4402
3423 4855
3424 3490
3424 3508
3424 3608
3424 4119
3424 4247
3424 4442
3424 4617
3424 4623
3424 4681
3424 4800
3424 4970
3424 4984
3425 4062
3425 4160
3425 4802
3425 4808
3425 4864
3426 3479
3426 3928
3426 3950
3426 3982
3426 4223
3426 4275
3426 4298
3426 4512
3426 4534
3426 4780
3426 4789
3426 4922
3426 4931
3426 4934
3426 4998
3427 3448
3427 3645
3427 4398
3427 4474
3427 4521
3427 4814
3428 4035
3428 4336
3428 4440
3428 4469
3428 4506
3428 4590
3428 4834
3428 4854
3429 4113
3429 4441
3429 4563
3429 4717
3430 3716
3430 3978
3430 4762
3430 4841
3431 3504
3431 3540
3431 4394
3431 4551
3431 4824
3432 3753
3432 3920
3432 3953
3432 4048
3432 4149
3432 4341
3432 4470
3432 4514
3432 4597
3432 4942
3432 4962
3433 3540
3433 3701
3433 3790
3433 3955
3433 3988
3433 4303
3433 4319
3433 4440
3433 4450
3433 4590
3433 4667
3433 4879
3433 4908
3433 4946
3434 3596
3434 3772
3435 3603
3435 3690
3435 4139
3435 4429
3435 4476
3435 4528
3435 4575
3435 4857
3435 4925
3436 3537
3436 3544
3436 3721
3436 3928
3436 4046
3436 4214
3436 4234
3436 4402
3436 4622
3437 3635
3437 3813
3437 3898
3437 3991
3437 4152
3437 4340
3437 4368
3437 4427
3437 4587
3437 4888
3438 3490
3438 4459
3438 4664
3438 4813
3438 4876
3439 3667
3439 3704
3439 3925
3439 4437
3439 4768
3439 4944
3440 3479
3440 3506
3440 3512
3440 3637
3440 3672
3440 3713
3440 3729
3440 3860
3440 3907
3440 4057
3440 4105
3440 4588
3440 4601
3440 4805
3440 4847
3440 4953
3441 3484
3441 4247
3441 4371
3441 4426
3441 4626
3441 4688
3442 3520
3442 3543
3442 3803
3442 3925
3442 4003
3442 4148
3442 4149
3442 4418
3442 4422
3442 4485
3442 4527
3442 4583
3442 4678
3442 4918
3443 3952
3443 4591
3443 4708
3444 3636
3444 3820
3444 4134
3444 4180
3444 4386
3444 4535
3444 4561
3444 4601
3444 4788
3444 4875
3445 3770
3445 4089
3445 4305
3445 4415
3445 4472
3445 4798
3446 3588
3446 3789
3446 3851
3446 3983
3446 4167
3446 4287
3446 4510
3446 4612
3446 4673
3446 4844
3446 4949
3447 3749
3447 4122
3447 4130
3447 4196
3447 4233
3447 4892
3447 4985
3448 4388
3448 4404
3448 4416
3448 4424
3448 4454
3448 4488
3448 4501
3448 4578
3448 4602
3449 3953
3449 4458
3449 4615
3450 4127
3450 4789
3451 3763
3451 4381
3451 4634
3452 3554
3452 3998
3452 4367
3452 4394
3452 4683
3453 3488
3453 3769
3453 3968
3453 4695
3454 3599
3454 3859
3454 4177
3454 4459
3455 3985
3455 3992
3455 4451
3455 4476
3455 4494
3455 4665
3455 4784
3456 3530
3456 3789
3456 4089
3456 4294
3457 3473
3457 3694
3457 4131
3457 4641
3457 4815
3457 4828
3458 3469
3458 3670
3458 3843
3458 4361
3458 4700
3458 4732
3458 4798
3458 4902
3458 4953
3459 3621
3459 3697
3459 3807
3459 3845
3459 4197
3460 4347
3460 4433
3461 3567
3461 3575
3461 4132
3461 4319
3461 4442
3461 4979
3462 3806
3462 3836
3462 3940
3462 3943
3462 4001
3462 4121
3462 4528
3462 4539
3462 4644
3462 4746
3462 4806
3462 4874
3462 4887
3463 3537
3463 3554
3463 3562
3463 3720
3463 3825
3463 3851
3463 3950
3463 4266
3463 4348
3463 4414
3463 4451
3463 4524
3463 4694
3463 4814
3463 4988
3463 4998
3464 3851
3464 3999
3465 3486
3465 3700
3465 3797
3465 3899
3465 3930
3465 3951
3465 3983
3465 3989
3465 4059
3465 4111
3465 4225
3465 4263
3465 4291
3465 4318
3465 4322
3465 4325
3465 4356
3465 4375
3465 4415
3465 4460
3465 4524
3465 4531
3465 4783
3465 4879
3465 4907
3466 3598
3466 3600
3466 3652
3466 3753
3466 4000
3466 4108
3466 4595
3466 4656
3467 3574
3467 3582
3467 3661
3467 3781
3467 3826
3467 4084
3467 4139
3467 4168
3467 4460
3467 4606
3467 4719
3468 3805
3468 3868
3468 4182
3468 4253
3468 4363
3468 4473
3468 4717
3468 4875
3468 4892
3469 3637
3469 3772
3469 4143
3469 4237
3469 4328
3469 4542
3470 3751
3470 3893
3470 3985
3470 4134
3470 4691
3471 3538
3471 3687
3471 4032
3471 4069
3471 4102
3471 4787
3471 4846
3471 4867
3471 4955
3472 3529
3472 3589
3472 3637
3472 3936
3472 4082
3472 4363
3472 4370
3472 4492
3472 4590
3473 3513
3473 3636
3473 3706
3473 3755
3473 4245
3473 4526
3473 4541
3473 4690
3473 4798
3474 3542
3474 3853
3474 4015
3474 4089
3474 4266
3474 4384
3474 4653
3474 4690
3475 3477
3475 4136
3475 4344
3475 4878
3476 4436
3476 4535
3477 3537
3477 3552
3477 4099
3477 4275
3477 4289
3477 4386
3477 4519
3478 3859
3478 3967
3478 4072
3478 4283
3478 4392
3478 4533
3478 4694
3478 4858
3479 3560
3479 3652
3479 3767
3479 3905
3479 3910
3479 4655
3480 3579
3480 3624
3480 3899
3480 4026
3480 4066
3480 4891
3481 3508
3481 3571
3481 3612
3481 4089
3481 4394
3481 4447
3481 4548
3481 4809
3482 3656
3482 3938
3482 4310
3482 4376
3482 4498
3482 4750
3483 3533
3483 3852
3484 4090
3484 4116
3484 4136
3484 4363
3485 3509
3485 3550
3485 3566
3485 3596
3485 3636
3485 3771
3485 3843
3485 3871
3485 3886
3485 4027
3485 4084
3485 4149
3485 4194
3485 4227
3485 4281
3485 4283
3485 4302
3485 4311
3485 4395
3485 4425
3485 4450
3485 4471
3485 4487
3485 4512
3485 4547
3485 4578
3485 4622
3485 4633
3485 4854
3486 3585
3486 3602
3486 3820
3486 3826
3486 4025
3486 4213
3486 4294
3486 4632
3486 4642
3486 4659
3486 4737
3486 4772
3486 4919
3487 3762
3487 3954
3487 4291
3487 4456
3487 4711
3487 4953
3488 3728
3488 3739
3488 4134
3488 4384
3488 4457
3488 4468
3488 4560
3488 4625
3489 3655
3489 3671
3489 3709
3489 3730
3489 4191
3489 4254
3489 4282
3489 4375
3489 4381
3489 4430
3489 4482
3489 4607
3489 4794
3490 3764
3490 3851
3490 3962
3490 4128
3490 4936
3490 4957
3491 3914
3491 4129
3492 3553
3492 3714
3492 4146
3492 4444
3492 4590
3492 4969
3493 3630
3493 3646
3493 3825
3493 4104
3493 4428
3494 4410
3494 4762
3494 4806
3495 3524
3495 3530
3495 3995
3495 4484
3495 4591
3495 4811
3496 4037
3496 4129
3496 4657
3497 3755
3497 3881
3497 3976
3497 4021
3497 4241
3497 4980
3498 3518
3498 3737
3498 3756
3498 3835
3498 4167
3498 4538
3498 4782
3499 3762
3499 3960
3499 4076
3499 4183
3499 4186
3499 4237
3499 4445
3499 4482
3500 3826
3500 3951
3500 4465
3500 4481
3500 4523
3500 4697
3500 4804
3500 4890
3500 4910
3501 3762
3501 4185
3501 4518
3501 4644
3501 4858
3501 4886
3502 3581
3502 3587
3502 3600
3502 3688
3502 3694
3502 3961
3502 4108
3502 4339
3502 4523
3502 4554
3502 4596
3502 4970
3503 3764
3503 3955
3503 4009
3504 3571
3504 3679
3504 3762
3504 3931
3504 4049
3504 4355
3504 4363
3504 4531
3504 4572
3504 4605
3504 4648
3504 4664
3504 4859
3504 4877
3505 3525
3505 3597
3505 3963
3505 4288
3505 4324
3505 4839
3506 3845
3506 3885
3506 4336
3506 4370
3506 4435
3507 4865
3508 3540
3508 4690
3508 4839
3508 4895
3509 4081
3509 4762
3509 4889
3509 4901
3510 3823
3510 4085
3510 4234
3510 4350
3511 3692
3511 3785
3511 3849
3511 4711
3511 4788
3512 4165
3512 4283
3512 4555
3512 4655
3513 3824
3513 4536
3513 4636
3513 4712
3514 3884
3514 4081
3514 4173
3514 4204
3514 4314
3514 4478
3514 4487
3514 4610
3514 4703
3514 4732
3514 4793
3514 4930
3515 3860
3515 4637
3515 4809
3516 4563
3516 4707
3517 4080
3517 4690
3517 4845
3517 4875
3518 4090
3518 4180
3518 4271
3518 4353
3518 4360
3518 4597
3519 3561
3519 3703
3519 4029
3519 4472
3520 4397
3520 4586
3521 3562
3521 3855
3521 4209
3521 4411
3522 3568
3522 3735
3522 3839
3522 4076
3522 4118
3522 4869
3523 3775
3523 3967
3523 4681
3523 4847
3524 4478
3524 4510
3524 4785
3524 4825
3525 3685
3525 4547
3526 3544
3526 3761
3526 3780
3526 4123
3526 4168
3526 4231
3526 4353
3526 4484
3526 4493
3526 4527
3526 4624
3526 4655
3526 4690
3526 4704
3526 4720
3526 4755
3526 4856
3526 4857
3526 4863
3526 4954
3527 3562
3527 3598
3527 3611
3527 3989
3527 4085
3527 4207
3527 4507
3527 4849
3528 3580
3528 3869
3528 3885
3528 4165
3528 4259
3528 4585
3528 4656
3528 4661
3528 4709
3528 4740
3528 4767
3528 4834
3528 4875
3528 4924
3528 4956
3529 3549
3530 3797
3530 4016
3530 4059
3530 4091
3530 4356
3530 4395
3531 4244
3531 4314
3531 4344
3531 4595
3531 4971
3532 3555
3532 3856
3532 4080
3532 4237
3532 4655
3532 4806
3533 3696
3533 4106
3533 4523
3533 4720
3533 4724
3533 4875
3534 3708
3534 4085
3534 4096
3534 4138
3534 4685
3534 4900
3535 3836
3535 3886
3535 4671
3536 3590
3536 3612
3536 4200
3536 4233
3536 4452
3536 4495
3536 4502
3536 4664
3536 4814
3537 3608
3537 3623
3537 3872
3537 4415
3537 4450
3537 4720
3537 4746
3537 4881
3537 4944
3537 4945
3538 3642
3538 4008
3538 4159
3538 4310
3539 3872
3540 3740
3540 3744
3540 3794
3540 3805
3540 3858
3540 3885
3540 3986
3540 4003
3540 4056
3540 4129
3540 4135
3540 4196
3540 4219
3540 4264
3540 4271
3540 4327
3540 4464
3540 4505
3540 4619
3540 4638
3540 4652
3540 4669
3540 4796
3540 4852
3540 4939
3540 4940
3541 3557
3541 3572
3541 3748
3541 3887
3541 4271
3541 4571
3541 4930
3542 3779
3542 3823
3542 4011
3542 4583
3542 4672
3542 4979
3542 4999
3543 3892
3543 4216
3543 4233
3543 4599
3543 4720
3543 4826
3543 4939
3543 4956
3544 3604
3544 3632
3544 3664
3544 3840
3544 3848
3544 3850
3544 3947
3544 4161
3544 4414
3544 4523
3544 4697
3544 4777
3544 4833
3544 4938
3545 3644
3545 3797
3545 4053
3545 4116
3545 4586
3545 4666
3546 3840
3546 4018
3546 4046
3546 4306
3546 4338
3546 4461
3546 4501
3546 4586
3546 4663
3547 4010
3547 4347
3547 4605
3547 4969
3548 3922
3548 3940
3549 3955
3549 4427
3549 4557
3549 4661
3549 4982
3550 3584
3550 3861
3550 4036
3550 4405
3550 4821
3551 4002
3551 4196
3551 4404
3551 4620
3551 4828
3552 4150
3553 3619
3553 3913
3553 3918
3553 3998
3553 4156
3553 4523
3553 4619
3553 4625
3554 4035
3554 4086
3554 4262
3554 4920
3555 3807
3555 3917
3555 3937
3555 4002
3555 4061
3555 4192
3555 4204
3555 4301
3555 4302
3555 4368
3555 4489
3555 4655
3555 4667
3555 4695
3555 4700
3555 4793
3555 4827
3555 4852
3555 4871
3555 4913
3556 3600
3556 4090
3556 4174
3556 4184
3556 4295
3556 4661
3556 4774
3556 4789
3556 4913
3556 4951
3557 4339
3557 4666
3557 4753
3558 3746
3558 3868
3558 3891
3558 4545
3559 3750
3559 3753
3559 3798
3559 3974
3559 4085
3559 4244
3559 4352
3559 4371
3559 4793
3559 4835
3559 4981
3560 3925
3560 4187
3560 4559
3561 4164
3561 4242
3561 4275
3561 4543
3561 4600
3562 3564
3562 3694
3562 3845
3562 3901
3562 3924
3562 4199
3562 4347
3562 4458
3563 4052
3563 4297
3563 4395
3563 4536
3563 4982
3564 4091
3564 4249
3564 4378
3564 4395
3564 4647
3564 4663
3564 4732
3564 4886
3565 3825
3565 4129
3565 4190
3565 4240
3565 4244
3566 4101
3566 4632
3567 3673
3567 3728
3567 3781
3567 3921
3567 3950
3567 4640
3567 4938
3568 4526
3568 4787
3569 3629
3569 3824
3569 3926
3569 4685
3569 4875
3570 4326
3570 4350
3570 4382
3570 4851
3571 3572
3571 3794
3571 3942
3571 4037
3571 4067
3571 4230
3571 4239
3571 4295
3571 4317
3571 4346
3571 4574
3571 4639
3571 4725
3571 4772
3571 4788
3571 4829
3571 4835
3571 4911
3572 3740
3572 3782
3572 4277
3572 4557
3572 4639
3572 4768
3572 4812
3573 3724
3573 3764
3573 4451
3573 4612
3573 4763
3573 4936
3574 3576
3574 3639
3574 3670
3574 3686
3574 3714
3574 3734
3574 4036
3574 4289
3574 4448
3574 4525
3574 4546
3574 4613
3574 4686
3574 4690
3574 4692
3574 4735
3574 4821
3574 4891
3574 4973
3575 3636
3575 3863
3575 4036
3576 3645
3576 4211
3576 4240
3576 4254
3576 4646
3576 4902
3577 3733
3577 4646
3578 3582
3578 4182
3578 4242
3578 4773
3579 3633
3579 3635
3579 3657
3579 4147
3579 4224
3579 4301
3579 4344
3579 4496
3579 4686
3579 4821
3580 3864
3580 3887
3580 4327
3580 4996
3581 3586
3581 3587
3581 3691
3581 3915
3581 4029
3581 4467
3581 4615
3581 4664
3581 4820
3582 3635
3582 4759
3582 4953
3583 3688
3584 3628
3584 3825
3584 3874
3584 4245
3584 4431
3584 4440
3584 4764
3585 3732
3585 3924
3585 4142
3585 4537
3585 4858
3585 4991
3586 3952
3586 3976
3586 4545
3586 4819
3586 4883
3587 3631
3587 3874
3587 3879
3587 3941
3587 4175
3587 4212
3587 4372
3587 4619
3587 4862
3588 3717
3588 3787
3588 3789
3588 3800
3588 4306
3588 4333
3588 4817
3589 4228
3589 4486
3589 4578
3590 3734
3590 3964
3590 3988
3590 4018
3590 4074
3590 4175
3590 4235
3590 4574
3590 4696
3590 4790
3590 4806
3590 4955
3591 4275
3591 4290
3591 4557
3591 4653
3591 4720
3591 4794
3592 3606
3592 3638
3592 3782
3592 3919
3592 3941
3592 4617
3592 4626
3593 3602
3593 3670
3593 3738
3593 3908
3593 4593
3593 4689
3594 4053
3595 3663
3595 3976
3595 4366
3595 4402
3595 4677
3596 3609
3596 3645
3596 3705
3596 3878
3596 4125
3596 4521
3596 4559
3596 4662
3596 4871
3596 4945
3596 4970
3597 3689
3597 3798
3597 3969
3597 4181
3597 4247
3597 4375
3597 4467
3598 3654
3598 3719
3598 3998
3598 4043
3598 4070
3598 4246
3598 4600
3598 4629
3598 4670
3598 4887
3599 4145
3599 4623
3599 4767
3599 4773
3600 3865
3600 3879
3600 4230
3600 4304
3600 4678
3601 3650
3601 4518
3601 4644
3601 4695
3602 3667
3602 3684
3602 3694
3602 3824
3602 3929
3602 4234
3602 4522
3602 4722
3602 4754
3603 3668
3603 3701
3603 3972
3603 4715
3603 4912
3604 3850
3604 4289
3604 4321
3604 4364
3604 4374
3605 4389
3605 4528
3606 3636
3606 4251
3606 4348
3606 4600
3606 4850
3606 4851
3606 4977
3607 3672
3607 3880
3607 4269
3607 4405
3607 4762
3608 3643
3608 3679
3608 3891
3608 4358
3608 4414
3608 4434
3608 4472
3608 4693
3608 4723
3608 4734
3608 4789
3608 4892
3609 3781
3609 3866
3609 4142
3609 4324
3609 4331
3609 4560
3609 4796
3609 4858
3609 4919
3609 4930
3610 3642
3610 4017
3610 4216
3610 4327
3610 4745
3611 3851
3611 4144
3612 3762
3612 3853
3612 4009
3612 4128
3612 4179
3612 4486
3612 4563
3612 4580
3612 4591
3612 4669
3612 4685
3613 3683
3613 3877
3613 4071
3613 4084
3613 4134
3613 4381
3613 4604
3613 4717
3613 4772
3614 4030
3614 4165
3614 4338
3614 4381
3614 4496
3614 4523
3614 4590
3614 4773
3614 4783
3615 3692
3615 3755
3615 3975
3615 4042
3615 4085
3615 4169
3615 4851
3616 3904
3616 4135
3616 4198
3616 4338
3616 4449
3616 4556
3616 4578
3616 4647
3617 3637
3617 4159
3617 4450
3618 3980
3618 4028
3618 4257
3618 4349
3618 4373
3618 4447
3618 4652
3619 3726
3619 4013
3619 4558
3619 4684
3620 4201
3620 4531
3620 4601
3620 4653
3620 4973
3620 4984
3620 4989
3621 3976
3621 4199
3621 4221
3621 4839
3621 4909
3622 3899
3622 4187
3622 4209
3622 4214
3622 4352
3622 4458
3622 4598
3622 4969
3623 4244
3623 4312
3623 4344
3623 4554
3623 4728
3624 3692
3624 3719
3624 3902
3624 4030
3624 4372
3624 4456
3624 4529
3624 4693
3624 4742
3624 4792
3624 4830
3624 4961
3625 3891
3625 4034
3625 4624
3625 4737
3625 4770
3625 4835
3626 3770
3626 3821
3626 4237
3626 4402
3626 4490
3626 4977
3627 3700
3627 3705
3627 3821
3627 3882
3627 4611
3627 4716
3627 4740
3627 4902
3628 4266
3628 4294
3628 4698
3629 3864
3629 3871
3629 3893
3629 3918
3629 4108
3629 4244
3629 4487
3629 4735
3629 4894
3629 4990
3630 3868
3630 4257
3631 3734
3631 3857
3631 3872
3631 4088
3631 4227
3631 4380
3631 4507
3631 4584
3631 4595
3631 4652
3631 4838
3632 3771
3632 3794
3632 3809
3632 4153
3632 4225
3632 4303
3632 4673
3632 4678
3632 4743
3633 3717
3633 4015
3633 4147
3633 4470
3633 4668
3634 3768
3634 4284
3634 4436
3634 4822
3635 3851
3635 3853
3635 4297
3635 4572
3635 4766
3635 4866
3636 3657
3636 3820
3636 3844
3636 3868
3636 3926
3636 3962
3636 4103
3636 4134
3636 4181
3636 4223
3636 4228
3636 4248
3636 4266
3636 4300
3636 4328
3636 4347
3636 4360
3636 4378
3636 4426
3636 4446
3636 4479
3636 4503
3636 4554
3636 4602
3636 4681
3636 4710
3636 4756
3636 4773
3636 4931
3637 3920
3637 4072
3637 4132
3637 4688
3637 4753
3637 4856
3637 4881
3638 4303
3639 3881
3639 4148
3639 4690
3639 4732
3640 3884
3640 4067
3640 4212
3640 4319
3640 4528
3640 4605
3640 4826
3641 3890
3641 4240
3642 3685
3642 3718
3642 4058
3642 4780
3643 4324
3643 4848
3643 4902
3643 4917
3644 4357
3644 4440
3644 4459
3644 4836
3644 4847
3644 4871
3644 4999
3645 4537
3645 4691
3645 4868
3646 3807
3646 3909
3646 3919
3646 4067
3646 4104
3646 4242
3646 4365
3646 4369
3646 4375
3646 4608
3646 4968
3647 3744
3647 3957
3647 4067
3647 4146
3647 4664
3648 3764
3648 3765
3648 4034
3648 4405
3648 4622
3648 4753
3648 4786
3649 3679
3649 4163
3649 4655
3649 4800
3649 4826
3650 3704
3650 3828
3650 3966
3650 4092
3650 4495
3650 4631
3650 4773
3650 4840
3651 3678
3651 4020
3651 4110
3651 4140
3651 4438
3651 4470
3651 4662
3651 4772
3652 3728
3652 3785
3652 4096
3652 4653
3652 4702
3652 4872
3652 4950
3653 3673
3653 3762
3653 3781
3653 4165
3653 4398
3653 4852
3654 3708
3654 3760
3654 3812
3654 4189
3655 3669
3655 4032
3655 4071
3655 4082
3655 4269
3655 4414
3655 4434
3655 4797
3656 4000
3656 4013
3656 4177
3656 4428
3656 4560
3657 3966
3657 4291
3657 4368
3657 4657
3657 4697
3657 4856
3658 3824
3658 3912
3658 4260
3658 4374
3658 4388
3658 4858
3658 4902
3659 3734
3659 3795
3659 3873
3659 4193
3659 4486
3659 4644
3659 4870
3660 3701
3660 3992
3660 3993
3660 4023
3660 4372
3660 4381
3660 4506
3660 4582
3660 4689
3660 4800
3660 4828
3660 4879
3660 4951
3660 4953
3661 4548
3661 4803
3662 3875
3662 3912
3662 3984
3662 4268
3662 4367
3662 4969
3663 3715
3663 4460
3663 4585
3663 4708
3663 4773
3664 3983
3664 4008
3664 4234
3664 4341
3664 4373
3664 4526
3664 4836
3665 3698
3665 3706
3665 3758
3665 4368
3665 4591
3665 4773
3666 3767
3666 3825
3666 4064
3666 4403
3666 4684
3667 3823
3667 4122
3667 4244
3667 4917
3668 4209
3668 4652
3669 3824
3669 4079
3669 4256
3670 3994
3670 4089
3670 4490
3670 4495
3670 4524
3670 4563
3670 4592
3670 4600
3670 4690
3670 4768
3670 4836
3670 4854
3670 4874
3670 4991
3671 4288
3671 4404
3671 4487
3671 4509
3672 3823
3672 3897
3672 3962
3672 4273
3672 4733
3672 4847
3673 4814
3673 4943
3674 3739
3674 4113
3674 4219
3674 4563
3674 4585
3674 4772
3674 4893
3674 4924
3675 3863
3675 3969
3675 4315
3675 4327
3675 4478
3675 4761
3676 3794
3676 3977
3676 4146
3676 4203
3676 4492
3676 4905
3676 4926
3676 4950
3676 4978
3677 3986
3677 4173
3677 4317
3677 4363
3677 4462
3677 4486
3677 4508
3677 4662
3677 4733
3677 4754
3677 4784
3677 4892
3677 4956
3677 4988
3678 3737
3678 4246
3678 4297
3678 4764
3678 4795
3679 3897
3679 4037
3679 4720
3679 4755
3679 4789
3679 4916
3679 4997
3680 4016
3680 4037
3680 4412
3680 4560
3681 3695
3681 3991
3681 4070
3681 4084
3682 3972
3682 4138
3682 4144
3682 4233
3682 4374
3682 4531
3682 4608
3682 4672
3683 3713
3683 3811
3683 3838
3683 3968
3683 4280
3683 4344
3683 4380
3683 4544
3683 4606
3683 4800
3684 4291
3684 4496
3684 4506
3684 4693
3685 3857
3685 3905
3685 3976
3685 4009
3685 4027
3685 4384
3686 3808
3687 3976
3687 4342
3687 4524
3687 4692
3688 3699
3688 3756
3688 3820
3688 3829
3688 3999
3688 4115
3688 4410
3688 4947
3689 3787
3689 3829
3689 4144
3689 4187
3689 4385
3689 4570
3689 4697
3689 4759
3689 4831
3689 4963
3690 3793
3690 3834
3690 4671
3690 4817
3691 3794
3691 3817
3691 3851
3691 4135
3691 4917
3692 4539
3692 4912
3692 4999
3693 3833
3693 4048
3693 4066
3693 4220
3693 4438
3693 4470
3693 4516
3693 4630
3693 4640
3693 4868
3693 4873
3693 4931
3694 3851
3694 4150
3694 4604
3694 4764
3694 4829
3694 4865
3695 3702
3695 3926
3695 3940
3695 4116
3695 4432
3695 4550
3695 4756
3695 4759
3695 4794
3695 4965
3696 4067
3696 4178
3696 4553
3696 4754
3696 4831
3697 4117
3698 4650
3698 4682
3698 4806
3698 4982
3699 3833
3699 3926
3699 4692
3699 4710
3700 4460
3700 4480
3700 4691
3701 3762
3701 3924
3701 4033
3701 4290
3701 4394
3701 4453
3701 4486
3701 4831
3702 3853
3702 3939
3702 3966
3702 4298
3702 4454
3702 4489
3702 4584
3702 4666
3702 4702
3703 3841
3703 4043
3703 4063
3703 4173
3703 4551
3703 4888
3704 4236
3704 4304
3704 4379
3705 4207
3705 4992
3706 3916
3706 4194
3706 4290
3706 4355
3706 4356
3706 4499
3706 4521
3706 4578
3706 4674
3706 4721
3706 4760
3706 4951
3707 4116
3707 4188
3707 4447
3707 4503
3707 4527
3707 4592
3708 3790
3708 3793
3708 4274
3708 4283
3708 4297
3708 4858
3709 4084
3709 4243
3709 4309
3709 4900
3710 4028
3710 4049
3710 4188
3710 4726
3710 4788
3710 4846
3710 4867
3710 4955
3711 3830
3711 4868
3712 3717
3712 3744
3712 3768
3712 3838
3712 3878
3712 4629
3712 4851
3713 4700
3713 4717
3713 4884
3714 3775
3714 3875
3714 4030
3714 4044
3714 4076
3714 4111
3714 4167
3714 4240
3714 4274
3714 4284
3714 4297
3714 4354
3714 4358
3714 4399
3714 4407
3714 4509
3714 4579
3714 4613
3714 4656
3714 4696
3714 4904
3714 4905
3714 4969
3714 4987
3715 4253
3715 4789
3715 4790
3715 4974
3716 3824
3716 3833
3716 3926
3716 4058
3716 4764
3716 4776
3716 4889
3717 3760
3717 3788
3717 3797
3717 3804
3717 3828
3717 3932
3717 4097
3717 4105
3717 4160
3717 4304
3717 4420
3717 4569
3717 4576
3717 4580
3717 4592
3717 4600
3717 4722
3717 4901
3717 4997
3718 3868
3718 4038
3718 4342
3718 4352
3718 4481
3718 4732
3718 4997
3719 3898
3719 4629
3719 4955
3720 3758
3720 4319
3720 4571
3720 4814
3721 3831
3721 4350
3721 4690
3722 4563
3722 4579
3722 4954
3722 4973
3723 4450
3723 4549
3723 4560
3723 4842
3724 4020
3724 4436
3724 4623
3725 3815
3725 3844
3725 4009
3725 4043
3725 4078
3725 4191
3725 4297
3725 4503
3725 4829
3726 4083
3726 4190
3726 4226
3726 4682
3727 3848
3727 4509
3728 4003
3728 4527
3728 4654
3729 3732
3729 3977
3729 4009
3729 4184
3729 4439
3729 4670
3729 4687
3729 4861
3730 3926
3730 4419
3730 4587
3730 4601
3731 3817
3731 3871
3731 3907
3731 3924
3731 3936
3731 4037
3731 4195
3731 4293
3731 4317
3731 4335
3731 4417
3731 4686
3731 4728
3731 4771
3731 4849
3731 4881
3732 3794
3732 4082
3732 4084
3732 4192
3732 4289
3732 4431
3732 4697
3732 4979
3733 4107
3733 4305
3733 4311
3733 4320
3733 4750
3733 4786
3733 4881
3733 4908
3734 3848
3734 4287
3734 4427
3734 4999
3735 3910
3735 4157
3735 4912
3735 4978
3736 3824
3736 4187
3736 4194
3736 4629
3736 4949
3737 3926
3737 3938
3737 4058
3737 4255
3737 4281
3737 4298
3737 4513
3737 4593
3737 4814
3737 4960
3738 4122
3738 4525
3738 4702
3739 3953
3739 4108
3739 4361
3739 4556
3739 4888
3739 4962
3739 4996
3740 4240
3740 4511
3740 4819
3741 3805
3741 3806
3741 4926
3742 3884
3742 4218
3742 4458
3742 4772
3742 4847
3743 3775
3743 4157
3743 4284
3743 4347
3744 3997
3744 4281
3745 3877
3745 3938
3745 4095
3745 4657
3745 4720
3746 4247
3746 4325
3746 4349
3746 4423
3746 4459
3746 4566
3746 4902
3747 4224
3747 4576
3748 4440
3748 4487
3748 4987
3749 3872
3749 4020
3749 4337
3749 4448
3749 4512
3749 4529
3749 4584
3749 4849
3749 4948
3750 3975
3750 4537
3750 4575
3750 4650
3750 4839
3751 3758
3751 3845
3751 3848
3751 3886
3751 3892
3751 3928
3751 3975
3751 4185
3751 4595
3751 4823
3751 4852
3752 4588
3752 4690
3753 3857
3753 4187
3753 4265
3753 4412
3753 4432
3753 4500
3753 4507
3753 4530
3753 4532
3753 4685
3753 4745
3753 4804
3753 4837
3753 4963
3754 4582
3754 4653
3754 4728
3754 4783
3755 3956
3755 4023
3755 4207
3755 4633
3755 4857
3756 3941
3756 4403
3756 4467
3756 4766
3756 4824
3756 4877
3756 4924
3757 4189
3757 4564
3757 4695
3758 4103
3759 3855
3759 4315
3759 4599
3759 4799
3760 3984
3760 4011
3760 4206
3760 4723
3760 4726
3760 4744
3761 3940
3761 4115
3761 4455
3762 3772
3762 3780
3762 3931
3762 3986
3762 3991
3762 4001
3762 4065
3762 4129
3762 4195
3762 4318
3762 4357
3762 4462
3762 4534
3762 4587
3762 4639
3762 4669
3762 4678
3762 4707
3762 4733
3762 4864
3762 4886
3762 4991
3763 4115
3763 4996
3764 3786
3764 4149
3764 4517
3764 4535
3764 4666
3764 4812
3764 4932
3765 3787
3765 3821
3765 3869
3765 4019
3765 4129
3765 4137
3765 4257
3765 4706
3765 4732
3765 4745
3765 4936
3765 4999
3766 4258
3766 4700
3766 4759
3767 4441
3767 4839
3768 3992
3768 4015
3768 4099
3768 4131
3768 4274
3768 4285
3768 4319
3768 4547
3768 4808
3768 4812
3769 4585
3769 4586
3769 4719
3769 4772
3769 4917
3770 3940
3770 4065
3770 4444
3770 4752
3770 4931
3770 4962
3771 3808
3771 3812
3771 4280
3771 4512
3771 4548
3771 4717
3771 4791
3771 4800
3772 4082
3772 4219
3772 4563
3772 4610
3772 4871
3772 4965
3772 4973
3773 4275
3773 4278
3773 4845
3773 4857
3774 3860
3774 4456
3775 3973
3775 4266
3775 4684
3775 4701
3775 4718
3776 3837
3776 3995
3776 4035
3776 4269
3776 4339
3776 4524
3776 4650
3776 4835
3777 4093
3777 4282
3778 4233
3778 4300
3778 4342
3778 4504
3778 4788
3779 3891
3779 3898
3779 3953
3779 4336
3779 4570
3780 4237
3780 4247
3780 4400
3780 4616
3780 4687
3780 4943
3781 3991
3781 4121
3781 4363
3781 4513
3781 4521
3781 4698
3782 4072
3782 4369
3783 4051
3783 4857
3784 4031
3784 4182
3784 4428
3784 4664
3785 4308
3785 4447
3785 4775
3785 4834
3785 4901
3786 4155
3787 3903
3787 3916
3787 3977
3787 4514
3787 4777
3787 4923
3788 3851
3788 4632
3789 3897
3789 4051
3789 4444
3789 4538
3789 4573
3789 4577
3789 4702
3789 4875
3790 4246
3790 4982
3791 4502
3792 3944
3792 4413
3792 4508
3792 4581
3792 4690
3792 4875
3792 4984
3793 4044
3793 4632
3794 3809
3794 4009
3794 4213
3794 4230
3794 4243
3794 4338
3794 4419
3794 4743
3795 4080
3795 4244
3795 4684
3795 4690
3795 4716
3795 4912
3795 4991
3796 4223
3796 4264
3796 4972
3797 4145
3797 4387
3797 4487
3797 4506
3797 4739
3797 4914
3798 4059
3798 4415
3798 4580
3798 4947
3799 3907
3799 4188
3799 4916
3800 3841
3800 4244
3800 4510
3800 4604
3800 4744
3800 4881
3800 4905
3800 4945
3801 3995
3801 4284
3801 4407
3801 4736
3801 4930
3801 4934
3802 4691
3803 4037
3803 4108
3803 4169
3803 4733
3803 4962
3804 3928
3804 4526
3804 4870
3805 3820
3805 4180
3805 4234
3805 4328
3805 4347
3805 4460
3805 4619
3805 4990
3806 4180
3806 4283
3806 4319
3806 4529
3807 4172
3808 3944
3808 3963
3808 4217
3808 4419
3808 4455
3808 4478
3808 4553
3808 4684
3808 4791
3808 4929
3809 4280
3809 4783
3810 4013
3810 4180
3810 4564
3810 4678
3811 4239
3812 4403
3812 4717
3812 4871
3813 4254
3813 4834
3814 3818
3814 3848
3814 3885
3814 4234
3814 4542
3814 4833
3814 4871
3815 3938
3815 4070
3815 4084
3815 4660
3816 3980
3816 4090
3816 4284
3817 4340
3817 4706
3818 4277
3818 4541
3818 4585
3818 4619
3818 4835
3818 4982
3819 4024
3819 4094
3819 4148
3819 4655
3819 4672
3820 4054
3820 4143
3820 4228
3820 4317
3820 4319
3820 4358
3820 4369
3820 4405
3820 4469
3820 4554
3820 4706
3820 4717
3820 4986
3821 3828
3821 3850
3821 3865
3821 3964
3821 4011
3821 4143
3821 4149
3821 4150
3821 4184
3821 4275
3821 4386
3821 4465
3821 4578
3821 4605
3821 4662
3821 4697
3821 4713
3821 4782
3822 3823
3822 4054
3822 4059
3822 4343
3822 4540
3822 4664
3822 4910
3823 3940
3823 4085
3823 4140
3823 4202
3823 4922
3823 4971
3824 4028
3824 4058
3824 4095
3824 4130
3824 4459
3824 4509
3824 4568
3824 4755
3824 4859
3824 4903
3824 4920
3824 4998
3825 4085
3825 4105
3825 4734
3825 4914
3825 4938
3825 4941
3826 3871
3826 3881
3826 4151
3826 4315
3826 4789
3826 4925
3827 4084
3827 4180
3828 3882
3828 4039
3828 4573
3829 4084
3829 4707
3829 4957
3830 3994
3830 4153
3830 4441
3830 4520
3830 4855
3831 3856
3831 3895
3831 3935
3831 4009
3831 4145
3831 4397
3831 4401
3832 4087
3832 4840
3833 4309
3833 4416
3833 4540
3833 4716
3833 4731
3833 4806
3833 4850
3834 3962
3834 4020
3834 4244
3834 4430
3834 4518
3834 4529
3834 4837
3834 4953
3835 3863
3835 4415
3835 4489
3835 4785
3835 4832
3836 4330
3836 4676
3836 4861
3837 3938
3837 4284
3837 4529
3837 4572
3837 4630
3838 3877
3838 3887
3838 3974
3838 3985
3838 4185
3838 4321
3838 4605
3838 4717
3838 4719
3838 4743
3838 4804
3838 4880
3838 4917
3838 4990
3839 4158
3839 4188
3840 3884
3840 4013
3840 4356
3840 4512
3841 3927
3841 3940
3841 4058
3842 4406
3842 4746
3842 4944
3843 3940
3843 4268
3843 4470
3843 4821
3843 4985
3844 3861
3844 3984
3844 4122
3844 4180
3844 4343
3844 4397
3844 4664
3844 4675
3844 4684
3844 4920
3845 4922
3846 3888
3846 4577
3846 4627
3847 3917
3847 4445
3847 4828
3848 4164
3848 4292
3848 4457
3848 4569
3848 4639
3848 4831
3848 4937
3849 3943
3849 4207
3849 4298
3849 4319
3850 3927
3850 4085
3850 4275
3850 4428
3850 4450
3850 4766
3850 4918
3851 3924
3851 3957
3851 3961
3851 3968
3851 3986
3851 4054
3851 4083
3851 4094
3851 4117
3851 4247
3851 4258
3851 4382
3851 4534
3851 4589
3851 4600
3851 4642
3851 4763
3851 4804
3851 4970
3852 4435
3852 4450
3852 4489
3852 4521
3853 3925
3853 3965
3853 4039
3853 4096
3853 4151
3853 4454
3853 4582
3853 4922
3853 4926
3853 4961
3854 3945
3854 4049
3854 4273
3855 4582
3855 4772
3856 3875
3856 3963
3856 4170
3856 4223
3856 4702
3856 4883
3857 4577
3858 3863
3858 4676
3858 4928
3859 3888
3859 4102
3859 4950
3859 4992
3860 3894
3860 4108
3860 4127
3860 4140
3860 4188
3860 4470
3860 4710
3860 4950
3861 4309
3861 4415
3861 4754
3861 4900
3862 4009
3862 4107
3862 4237
3862 4338
3862 4344
3862 4468
3862 4503
3862 4512
3862 4513
3862 4795
3862 4903
3862 4914
3863 4428
3863 4548
3863 4629
3863 4875
3864 4331
3864 4385
3865 4275
3865 4587
3865 4967
3866 4305
3866 4597
3866 4723
3867 4085
3867 4756
3867 4858
3868 3869
3868 3875
3868 3884
3868 3936
3868 4137
3868 4309
3868 4314
3868 4905
3869 4150
3869 4507
3869 4664
3869 4687
3870 4082
3870 4107
3870 4194
3870 4337
3871 4254
3871 4760
3871 4947
3872 4108
3872 4204
3872 4218
3872 4508
3872 4937
3873 3914
3873 4066
3873 4067
3873 4617
3873 4798
3873 4821
3874 3897
3874 4244
3875 3891
3875 4451
3875 4868
3876 3942
3876 4408
3877 4280
3877 4464
3877 4539
3877 4717
3877 4884
3877 4917
3878 4097
3878 4527
3879 4122
3879 4241
3879 4364
3879 4376
3879 4798
3880 4096
3881 3977
3881 4379
3881 4532
3881 4673
3881 4754
3881 4948
3882 4057
3882 4143
3882 4859
3884 3980
3884 4364
3884 4412
3884 4613
3885 4323
3885 4551
3885 4629
3885 4665
3885 4669
3886 4178
3887 4283
3888 4013
3888 4832
3888 4836
3888 4957
3888 4962
3889 4480
3889 4831
3889 4938
3890 4224
3891 4244
3891 4359
3891 4533
3891 4569
3891 4857
3893 3940
3893 4133
3893 4173
3893 4276
3893 4281
3893 4606
3894 4230
3894 4743
3894 4749
3895 4113
3895 4235
3895 4349
3895 4427
3895 4647
3895 4822
3895 4865
3895 4984
3896 3955
3896 4066
3896 4116
3896 4962
3896 4983
3897 4306
3897 4668
3897 4741
3898 4052
3898 4118
3898 4152
3898 4457
3898 4459
3898 4482
3898 4565
3898 4566
3898 4580
3898 4587
3898 4661
3898 4858
3898 4860
3898 4882
3899 4057
3899 4264
3899 4842
3900 3911
3900 4096
3900 4183
3901 4857
3902 4105
3902 4309
3902 4428
3902 4725
3903 3918
3903 3997
3903 4129
3903 4203
3903 4251
3903 4923
3904 3955
3904 3977
3905 4304
3905 4661
3905 4779
3906 3940
3906 4251
3906 4583
3906 4604
3906 4637
3907 4290
3907 4675
3907 4968
3908 4009
3908 4020
3908 4079
3909 4105
3909 4226
3909 4737
3909 4947
3910 4073
3910 4272
3910 4383
3910 4389
3910 4409
3910 4546
3910 4643
3910 4789
3910 4858
3911 4192
3911 4206
3911 4366
3911 4877
3912 4063
3912 4093
3912 4176
3912 4968
3913 4273
3913 4554
3913 4656
3913 4860
3913 4998
3914 4923
3915 4906
3915 4963
3916 4495
3916 4626
3917 3976
3917 4112
3917 4210
3918 3938
3918 3953
3918 4165
3918 4185
3918 4304
3918 4538
3918 4559
3918 4810
3918 4902
3918 4923
3918 4956
3919 4335
3919 4904
3920 4065
3920 4079
3920 4115
3920 4527
3920 4717
3921 4623
3921 4672
3921 4993
3922 4007
3922 4356
3922 4898
3923 4143
3923 4830
3923 4973
3924 3993
3924 4179
3924 4707
3925 4003
3925 4149
3925 4164
3925 4165
3925 4407
3926 3940
3926 4374
3926 4465
3926 4587
3927 4163
3927 4315
3927 4970
3928 3942
3928 4128
3928 4223
3928 4371
3928 4914
3928 4923
3928 4952
3929 4540
3929 4717
3930 4328
3930 4506
3930 4524
3930 4890
3931 3962
3931 4559
3932 3980
3932 4097
3932 4555
3932 4811
3932 4851
3933 4555
3933 4600
3933 4625
3933 4909
3934 4149
3934 4178
3934 4721
3934 4928
3934 4936
3935 3968
3935 4039
3935 4088
3935 4123
3935 4546
3935 4681
3935 4829
3935 4860
3935 4905
3935 4953
3936 4974
3937 4077
3937 4878
3937 4902
3937 4966
3938 4287
3939 3963
3939 3995
3939 4218
3939 4701
3939 4880
3939 4881
3940 4251
3940 4463
3940 4679
3940 4717
3941 3979
3941 4491
3941 4661
3942 4052
3942 4250
3942 4282
3942 4747
3942 4934
3943 4064
3943 4131
3943 4195
3943 4319
3943 4324
3943 4401
3943 4468
3943 4578
3944 4209
3944 4690
3944 4729
3945 4049
3945 4180
3945 4909
3946 4116
3946 4628
3946 4935
3947 4104
3947 4265
3947 4449
3947 4616
3948 4364
3948 4577
3948 4812
3948 4853
3948 4946
3949 4096
3949 4353
3949 4782
3949 4901
3950 3971
3950 4109
3950 4146
3950 4212
3950 4213
3950 4366
3950 4499
3950 4593
3950 4703
3950 4828
3950 4861
3950 4912
3950 4961
3951 3976
3951 4315
3951 4347
3951 4362
3952 4119
3952 4214
3952 4372
3952 4586
3952 4717
3952 4963
3952 4993
3952 4997
3953 4117
3953 4153
3953 4188
3953 4279
3953 4578
3953 4612
3953 4693
3953 4706
3953 4755
3953 4950
3953 4983
3953 4996
3954 3964
3954 4084
3954 4109
3954 4251
3954 4260
3954 4755
3955 4146
3955 4158
3955 4436
3955 4558
3955 4748
3956 4302
3956 4451
3956 4666
3956 4810
3956 4930
3956 4940
3957 4007
3957 4892
3957 4998
3958 4755
3958 4839
3959 4037
3959 4208
3959 4292
3959 4470
3959 4705
3960 4017
3960 4806
3960 4856
3960 4922
3961 4341
3962 4388
3962 4420
3962 4424
3962 4488
3962 4697
3963 4192
3963 4221
3963 4632
3963 4999
3964 4011
3964 4029
3964 4144
3964 4664
3965 4287
3965 4529
3965 4537
3966 4208
3966 4467
3966 4698
3966 4874
3966 4973
3967 4201
3967 4905
3968 4303
3968 4538
3968 4806
3969 4024
3969 4089
3969 4278
3969 4411
3969 4692
3969 4762
3969 4780
3970 4664
3970 4832
3970 4947
3971 4109
3971 4199
3971 4827
3972 4192
3972 4302
3972 4691
3972 4923
3973 4363
3973 4551
3974 4013
3974 4560
3974 4641
3974 4788
3975 4193
3975 4810
3976 4021
3976 4137
3976 4213
3976 4529
3976 4988
3977 4129
3977 4199
3977 4916
3978 4284
3978 4574
3978 4857
3979 4451
3979 4883
3980 4035
3980 4040
3980 4097
3980 4137
3980 4792
3980 4865
3980 4876
3980 4905
3980 4923
3981 4691
3982 4905
3983 4818
3984 4030
3984 4542
3984 4544
3984 4607
3984 4665
3984 4670
3984 4671
3984 4851
3985 4180
3985 4564
3985 4727
3985 4970
3986 4102
3986 4246
3986 4370
3986 4801
3986 4857
3987 4560
3987 4732
3987 4835
3988 4747
3988 4790
3988 4996
3989 4140
3989 4584
3990 4563
3990 4745
3991 4003
3991 4426
3991 4584
3992 4037
3992 4039
3992 4169
3992 4176
3992 4188
3992 4214
3992 4273
3992 4457
3992 4620
3993 4186
3993 4269
3993 4479
3993 4668
3993 4671
3993 4944
3994 4212
3994 4516
3994 4863
3995 4477
3995 4503
3995 4506
3995 4524
3995 4570
3995 4837
3996 4055
3996 4197
3996 4237
3996 4374
3996 4385
3996 4556
3996 4623
3997 4717
3997 4872
3998 4189
3998 4239
3998 4525
3998 4850
3999 4551
3999 4836
3999 4848
4000 4133
4000 4226
4000 4479
4000 4692
4000 4747
4000 4882
4000 4906
4001 4284
4001 4366
4001 4377
4001 4543
4001 4757
4001 4859
4001 4876
4003 4157
4003 4164
4003 4489
4003 4598
4003 4607
4004 4014
4004 4018
4004 4112
4004 4191
4004 4327
4004 4440
4004 4976
4005 4871
4006 4458
4006 4497
4006 4557
4006 4639
4007 4266
4007 4508
4008 4850
4008 4933
4009 4023
4009 4493
4009 4620
4009 4784
4009 4795
4009 4817
4009 4892
4010 4180
4010 4360
4010 4724
4011 4088
4011 4178
4011 4270
4011 4382
4011 4616
4011 4698
4011 4718
4012 4225
4012 4229
4012 4998
4013 4237
4013 4422
4013 4463
4013 4503
4013 4706
4013 4712
4014 4337
4014 4395
4014 4904
4015 4287
4015 4299
4015 4319
4015 4364
4015 4527
4015 4687
4016 4294
4016 4301
4016 4655
4016 4968
4017 4133
4017 4973
4018 4147
4018 4382
4018 4450
4018 4559
4018 4634
4018 4952
4019 4057
4019 4088
4019 4168
4019 4214
4019 4225
4019 4301
4019 4312
4019 4315
4019 4332
4019 4469
4019 4506
4019 4518
4019 4523
4019 4573
4019 4684
4019 4771
4019 4774
4020 4035
4020 4448
4020 4725
4020 4747
4020 4896
4021 4194
4021 4379
4021 4394
4021 4409
4021 4828
4021 4963
4022 4194
4022 4327
4023 4152
4023 4842
4024 4441
4025 4062
4025 4246
4025 4918
4026 4245
4026 4473
4026 4610
4026 4625
4026 4630
4026 4713
4026 4850
4026 4888
4027 4623
4028 4957
4029 4324
4029 4552
4030 4104
4030 4197
4030 4263
4030 4397
4030 4832
4030 4858
4031 4047
4031 4551
4031 4567
4031 4660
4032 4286
4032 4411
4032 4550
4032 4623
4032 4857
4032 4885
4033 4185
4033 4319
4033 4998
4034 4762
4034 4804
4035 4061
4035 4949
4037 4176
4037 4197
4037 4268
4037 4305
4037 4381
4037 4514
4037 4774
4037 4973
4037 4983
4038 4359
4038 4811
4039 4654
4039 4752
4039 4782
4040 4273
4040 4383
4040 4411
4040 4543
4040 4905
4041 4323
4041 4509
4041 4705
4041 4861
4041 4884
4042 4476
4043 4048
4043 4100
4043 4629
4043 4843
4043 4850
4044 4271
4044 4272
4044 4398
4044 4754
4044 4758
4045 4258
4045 4430
4046 4470
4047 4212
4047 4289
4047 4574
4048 4062
4048 4092
4048 4096
4048 4117
4048 4316
4048 4447
4048 4470
4048 4516
4048 4603
4048 4843
4048 4922
4048 4986
4050 4128
4050 4285
4050 4562
4050 4577
4050 4583
4050 4601
4050 4640
4050 4762
4051 4610
4052 4145
4052 4205
4052 4497
4053 4191
4053 4233
4053 4343
4053 4393
4053 4734
4054 4247
4054 4470
4054 4601
4054 4720
4054 4790
4055 4096
4055 4146
4055 4290
4055 4428
4055 4571
4055 4721
4055 4848
4057 4314
4057 4324
4057 4450
4057 4506
4057 4775
4057 4829
4059 4486
4059 4957
4061 4071
4061 4239
4061 4886
4062 4108
4062 4355
4062 4445
4062 4470
4062 4859
4062 4872
4062 4979
4063 4126
4063 4375
4063 4532
4063 4655
4063 4890
4064 4202
4064 4579
4064 4601
4064 4617
4064 4661
4064 4673
4064 4892
4065 4357
4065 4687
4066 4140
4066 4186
4066 4490
4066 4761
4066 4812
4066 4834
4066 4975
4066 4994
4067 4130
4067 4271
4067 4273
4067 4276
4067 4371
4067 4375
4067 4453
4067 4478
4067 4513
4067 4528
4067 4621
4067 4776
4067 4779
4067 4890
4067 4906
4067 4967
4068 4092
4068 4233
4068 4524
4068 4556
4068 4604
4068 4781
4068 4824
4069 4102
4069 4858
4069 4974
4070 4354
4070 4432
4070 4440
4070 4524
4070 4527
4070 4568
4070 4633
4070 4691
4070 4908
4070 4988
4071 4254
4071 4401
4071 4414
4071 4444
4071 4677
4072 4112
4072 4216
4072 4245
4072 4330
4072 4492
4072 4726
4072 4790
4072 4851
4073 4279
4073 4493
4074 4101
4074 4295
4074 4365
4075 4305
4075 4696
4076 4126
4076 4444
4077 4591
4077 4673
4078 4134
4078 4269
4078 4327
4079 4600
4079 4824
4079 4850
4079 4861
4080 4210
4080 4226
4080 4245
4080 4487
4081 4302
4081 4580
4081 4692
4081 4729
4082 4297
4082 4513
4082 4771
4083 4181
4083 4288
4083 4299
4083 4734
4083 4919
4084 4090
4084 4091
4084 4194
4084 4198
4084 4249
4084 4356
4084 4361
4084 4480
4084 4551
4084 4578
4084 4585
4084 4588
4084 4633
4084 4647
4084 4746
4084 4931
4084 4960
4085 4199
4085 4600
4085 4651
4085 4850
4085 4914
4085 4919
4086 4093
4086 4104
4086 4923
4086 4982
4087 4840
4087 4842
4087 4891
4088 4337
4088 4913
4089 4117
4089 4140
4089 4278
4089 4514
4089 4758
4089 4807
4089 4828
4089 4983
4090 4194
4090 4323
4090 4682
4091 4302
4091 4647
4092 4577
4093 4111
4093 4582
4093 4782
4093 4846
4093 4906
4094 4311
4094 4388
4094 4924
4094 4954
4095 4197
4095 4483
4096 4192
4096 4563
4096 4592
4096 4700
4096 4717
4096 4835
4097 4160
4097 4310
4097 4479
4097 4515
4097 4555
4097 4563
4097 4575
4097 4671
4097 4722
4097 4830
4097 4958
4097 4982
4098 4182
4098 4375
4098 4559
4098 4788
4098 4804
4098 4925
4099 4319
4099 4400
4099 4452
4099 4559
4100 4166
4100 4189
4100 4191
4100 4256
4100 4601
4100 4775
4100 4986
4101 4261
4101 4352
4101 4613
4101 4737
4102 4255
4102 4737
4102 4846
4102 4955
4103 4164
4103 4229
4103 4238
4103 4789
4103 4941
4104 4283
4104 4329
4104 4477
4104 4547
4104 4679
4104 4791
4104 4960
4105 4200
4105 4555
4106 4833
4107 4211
4107 4486
4107 4932
4107 4979
4108 4408
4108 4449
4108 4750
4108 4983
4109 4244
4109 4752
4109 4787
4109 4974
4110 4203
4110 4392
4110 4549
4110 4625
4110 4978
4111 4178
4111 4487
4111 4690
4111 4806
4112 4676
4112 4812
4113 4141
4113 4207
4114 4136
4114 4289
4114 4817
4115 4164
4115 4747
4115 4820
4115 4937
4116 4198
4116 4430
4116 4909
4117 4140
4117 4219
4117 4442
4117 4514
4118 4221
4119 4217
4119 4297
4119 4428
4119 4658
4119 4664
4119 4817
4119 4840
4120 4135
4120 4385
4120 4665
4121 4272
4121 4580
4121 4707
4121 4897
4122 4512
4122 4683
4122 4721
4122 4746
4123 4745
4123 4870
4124 4181
4124 4191
4124 4234
4124 4416
4124 4763
4124 4901
4125 4162
4125 4191
4125 4555
4125 4622
4125 4764
4125 4949
4125 4996
4126 4177
4126 4216
4126 4323
4126 4359
4126 4853
4127 4655
4127 4716
4127 4843
4127 4907
4128 4492
4128 4517
4128 4553
4128 4573
4128 4876
4129 4342
4129 4348
4129 4433
4129 4485
4129 4530
4130 4344
4130 4616
4130 4911
4131 4275
4131 4344
4131 4460
4132 4252
4132 4501
4132 4959
4133 4180
4133 4708
4133 4710
4133 4857
4134 4143
4134 4157
4134 4180
4134 4215
4134 4388
4134 4405
4135 4280
4135 4317
4135 4464
4135 4611
4135 4725
4135 4782
4136 4163
4136 4289
4137 4934
4138 4664
4138 4863
4139 4216
4140 4209
4140 4507
4140 4534
4140 4565
4140 4786
4141 4189
4141 4204
4141 4662
4141 4808
4141 4952
4141 4978
4141 4995
4142 4164
4142 4209
4142 4525
4142 4560
4142 4862
4143 4157
4143 4180
4143 4307
4143 4328
4143 4343
4143 4398
4143 4399
4143 4501
4143 4563
4143 4693
4143 4752
4144 4301
4144 4430
4144 4689
4144 4942
4145 4205
4145 4255
4145 4383
4145 4519
4146 4589
4146 4672
4147 4241
4147 4389
4147 4462
4147 4657
4147 4658
4147 4925
4148 4182
4148 4189
4148 4348
4148 4522
4148 4570
4148 4592
4149 4795
4149 4992
4150 4275
4150 4503
4150 4834
4152 4195
4152 4196
4152 4288
4152 4565
4152 4729
4152 4747
4152 4882
4153 4358
4154 4192
4154 4403
4154 4464
4154 4559
4154 4784
4155 4512
4155 4564
4155 4591
4155 4634
4155 4995
4156 4166
4156 4281
4156 4291
4156 4979
4156 4993
4157 4180
4157 4228
4157 4248
4157 4347
4158 4637
4159 4160
4160 4295
4160 4598
4160 4909
4161 4398
4161 4678
4162 4178
4162 4229
4162 4248
4162 4450
4162 4635
4162 4780
4162 4851
4163 4600
4164 4412
4164 4732
4164 4928
4165 4365
4165 4471
4165 4953
4166 4178
4166 4448
4166 4842
4167 4177
4167 4306
4167 4366
4167 4510
4167 4737
4167 4832
4167 4875
4168 4185
4168 4268
4168 4375
4168 4433
4168 4495
4169 4447
4169 4525
4169 4548
4169 4807
4170 4180
4170 4252
4170 4430
4170 4509
4171 4240
4171 4535
4171 4541
4171 4695
4171 4881
4171 4989
4172 4180
4172 4184
4172 4450
4172 4478
4172 4567
4172 4649
4172 4883
4173 4551
4173 4570
4174 4265
4174 4531
4174 4552
4174 4976
4174 4988
4175 4181
4175 4198
4175 4584
4175 4647
4175 4769
4175 4905
4176 4183
4176 4512
4176 4983
4177 4401
4178 4245
4178 4337
4178 4534
4178 4839
4178 4975
4178 4985
4179 4389
4179 4574
4179 4798
4180 4215
4180 4234
4180 4326
4180 4328
4180 4402
4180 4446
4180 4545
4180 4554
4180 4676
4180 4710
4180 4752
4180 4894
4180 4918
4180 4983
4181 4249
4181 4417
4181 4425
4181 4512
4181 4578
4182 4264
4182 4826
4183 4207
4183 4743
4183 4792
4183 4890
4183 4906
4184 4262
4184 4538
4184 4914
4184 4965
4185 4204
4185 4935
4186 4717
4186 4824
4187 4233
4187 4432
4187 4530
4187 4532
4187 4539
4187 4546
4187 4590
4187 4783
4187 4785
4187 4822
4187 4870
4187 4919
4188 4278
4188 4828
4188 4919
4189 4212
4189 4310
4189 4366
4189 4387
4189 4393
4189 4434
4189 4515
4189 4767
4189 4850
4189 4851
4189 4869
4189 4969
4191 4389
4191 4420
4191 4767
4191 4830
4191 4938
4192 4303
4192 4912
4193 4201
4193 4244
4193 4390
4193 4449
4193 4518
4194 4244
4194 4436
4194 4496
4194 4590
4194 4888
4194 4902
4194 4936
4195 4471
4195 4664
4196 4244
4196 4289
4196 4580
4196 4882
4197 4272
4197 4323
4197 4770
4197 4845
4197 4969
4198 4209
4198 4267
4198 4732
4198 4748
4198 4809
4198 4867
4198 4915
4199 4203
4199 4262
4199 4560
4199 4572
4199 4575
4199 4610
4199 4625
4199 4758
4199 4870
4199 4924
4199 4997
4200 4304
4200 4363
4200 4565
4202 4415
4202 4583
4202 4791
4204 4431
4204 4540
4204 4584
4204 4838
4205 4224
4205 4414
4205 4425
4205 4506
4205 4737
4205 4955
4206 4564
4206 4591
4206 4612
4206 4827
4206 4980
4207 4217
4207 4526
4207 4690
4207 4856
4208 4244
4208 4320
4208 4470
4208 4724
4208 4996
4209 4240
4209 4393
4209 4444
4209 4751
4209 4871
4210 4478
4211 4239
4211 4320
4211 4559
4211 4680
4211 4682
4211 4783
4211 4880
4211 4925
4212 4442
4212 4736
4212 4816
4212 4925
4213 4368
4213 4632
4213 4648
4213 4919
4214 4257
4214 4269
4214 4281
4214 4291
4214 4310
4214 4355
4214 4460
4214 4465
4214 4539
4214 4546
4214 4573
4214 4696
4214 4776
4215 4755
4216 4301
4216 4378
4216 4542
4216 4818
4216 4861
4216 4964
4218 4284
4218 4790
4219 4400
4219 4581
4219 4617
4219 4912
4219 4970
4220 4376
4220 4671
4220 4977
4221 4231
4221 4343
4221 4551
4221 4844
4222 4643
4223 4690
4224 4241
4224 4273
4224 4544
4224 4686
4224 4823
4224 4851
4225 4258
4225 4785
4226 4402
4226 4650
4226 4664
4226 4691
4226 4980
4226 4993
4227 4578
4227 4626
4228 4266
4228 4288
4228 4326
4229 4244
4229 4733
4229 4806
4230 4656
4230 4921
4230 4978
4230 4992
4231 4835
4231 4925
4233 4306
4233 4336
4233 4563
4233 4647
4233 4655
4233 4819
4233 4941
4234 4535
4234 4596
4234 4622
4234 4844
4235 4472
4236 4690
4236 4780
4236 4934
4236 4976
4237 4244
4237 4370
4237 4562
4237 4831
4238 4293
4238 4480
4238 4512
4239 4349
4239 4356
4239 4544
4239 4579
4239 4859
4240 4280
4240 4305
4240 4466
4241 4306
4241 4365
4241 4366
4241 4787
4241 4828
4242 4621
4242 4627
4242 4746
4242 4797
4243 4559
4243 4601
4243 4921
4244 4275
4244 4278
4244 4327
4244 4353
4244 4753
4244 4962
4245 4254
4245 4283
4245 4337
4245 4461
4245 4625
4245 4822
4246 4498
4246 4817
4246 4881
4246 4886
4246 4953
4247 4649
4247 4936
4247 4938
4248 4333
4248 4446
4248 4556
4249 4260
4249 4498
4250 4280
4250 4604
4251 4262
4251 4845
4251 4956
4251 4978
4252 4336
4252 4422
4252 4653
4252 4746
4252 4846
4254 4274
4254 4415
4254 4507
4254 4633
4254 4687
4254 4754
4254 4759
4255 4437
4255 4508
4255 4659
4255 4772
4255 4927
4255 4946
4256 4889
4257 4469
4257 4691
4257 4801
4258 4506
4258 4883
4259 4664
4259 4917
4260 4344
4260 4401
4260 4450
4260 4842
4261 4377
4261 4442
4261 4619
4261 4934
4262 4550
4262 4595
4262 4604
4262 4627
4262 4956
4262 4985
4264 4319
4264 4488
4264 4898
4265 4827
4265 4861
4265 4905
4266 4790
4267 4478
4267 4739
4267 4876
4267 4883
4268 4559
4268 4613
4268 4687
4269 4318
4269 4455
4269 4519
4269 4864
4269 4951
4269 4963
4270 4278
4270 4493
4270 4672
4270 4962
4271 4299
4271 4326
4271 4464
4271 4656
4272 4314
4272 4536
4272 4947
4272 4994
4273 4412
4273 4547
4274 4416
4274 4555
4274 4851
4274 4917
4275 4354
4275 4419
4275 4431
4275 4466
4275 4539
4275 4617
4275 4667
4275 4697
4275 4890
4275 4894
4275 4918
4275 4982
4276 4539
4276 4570
4277 4539
4277 4639
4277 4732
4278 4404
4278 4781
4278 4962
4279 4359
4279 4430
4279 4917
4279 4981
4280 4283
4280 4506
4280 4508
4280 4600
4280 4604
4280 4606
4280 4713
4280 4726
4280 4873
4281 4586
4281 4788
4281 4941
4282 4671
4282 4733
4282 4885
4283 4384
4283 4399
4283 4508
4283 4759
4283 4955
4283 4976
4284 4451
4284 4596
4284 4689
4284 4841
4284 4995
4285 4679
4286 4490
4286 4860
4287 4299
4287 4346
4287 4530
4287 4839
4287 4939
4288 4603
4288 4812
4289 4295
4289 4316
4289 4505
4289 4872
4290 4370
4290 4526
4290 4548
4290 4563
4290 4581
4290 4590
4290 4735
4290 4781
4290 4886
4290 4979
4291 4372
4291 4450
4291 4466
4291 4506
4291 4558
4291 4593
4291 4619
4291 4677
4291 4829
4291 4843
4292 4355
4292 4909
4292 4967
4293 4514
4293 4560
4293 4962
4293 4996
4294 4344
4294 4352
4294 4632
4294 4680
4294 4919
4295 4473
4295 4855
4296 4604
4296 4658
4296 4717
4296 4937
4297 4417
4297 4544
4297 4674
4297 4678
4297 4741
4297 4784
4297 4789
4297 4932
4299 4842
4299 4930
4299 4979
4299 4992
4300 4344
4300 4485
4300 4886
4300 4947
4301 4372
4301 4559
4301 4890
4302 4566
4302 4603
4302 4653
4303 4345
4303 4663
4303 4862
4303 4948
4304 4982
4305 4706
4305 4816
4305 4844
4306 4645
4306 4774
4306 4850
4306 4875
4307 4345
4307 4522
4307 4545
4307 4602
4307 4812
4308 4445
4308 4793
4308 4913
4309 4393
4309 4415
4309 4467
4309 4535
4309 4765
4309 4964
4310 4360
4310 4484
4310 4649
4310 4850
4310 4987
4311 4729
4311 4749
4311 4812
4311 4943
4312 4334
4312 4516
4312 4909
4313 4582
4313 4817
4314 4655
4314 4836
4314 4974
4315 4327
4315 4398
4315 4445
4315 4707
4315 4776
4316 4481
4316 4859
4317 4335
4317 4365
4317 4705
4317 4793
4319 4430
4319 4539
4319 4559
4319 4760
4319 4769
4320 4504
4320 4942
4321 4371
4321 4399
4321 4508
4321 4604
4321 4606
4321 4631
4321 4667
4321 4722
4321 4769
4321 4786
4321 4851
4322 4561
4322 4800
4322 4915
4323 4379
4323 4427
4323 4517
4323 4619
4323 4736
4323 4780
4323 4925
4323 4951
4323 4998
4324 4724
4324 4789
4324 4817
4324 4858
4325 4388
4325 4427
4325 4430
4325 4448
4325 4566
4325 4726
4325 4900
4325 4930
4325 4934
4326 4328
4326 4463
4326 4682
4326 4988
4327 4377
4327 4448
4327 4455
4327 4770
4328 4343
4328 4426
4328 4592
4328 4602
4328 4690
4329 4417
4329 4439
4329 4469
4330 4489
4330 4542
4330 4617
4330 4629
4330 4641
4330 4691
4330 4798
4330 4889
4330 4999
4331 4467
4331 4613
4331 4691
4332 4578
4332 4584
4332 4601
4332 4616
4332 4832
4333 4360
4333 4730
4333 4750
4333 4826
4334 4634
4334 4806
4334 4886
4335 4623
4335 4674
4335 4717
4335 4791
4335 4953
4337 4357
4337 4463
4337 4998
4339 4428
4340 4375
4340 4510
4341 4596
4341 4664
4341 4977
4342 4506
4342 4517
4342 4647
4342 4692
4342 4806
4342 4859
4342 4888
4342 4982
4343 4853
4344 4513
4344 4618
4344 4626
4344 4649
4344 4694
4345 4391
4345 4602
4347 4385
4347 4405
4347 4446
4347 4554
4347 4607
4347 4916
4348 4527
4349 4359
4349 4873
4350 4779
4351 4627
4352 4376
4352 4632
4352 4737
4353 4400
4353 4520
4353 4644
4353 4648
4353 4694
4353 4768
4354 4718
4355 4375
4355 4936
4356 4395
4356 4449
4356 4732
4356 4742
4356 4786
4357 4653
4357 4938
4357 4978
4358 4434
4358 4689
4358 4875
4359 4406
4359 4533
4359 4548
4359 4561
4359 4569
4359 4981
4360 4822
4360 4977
4361 4466
4361 4488
4361 4636
4361 4939
4362 4545
4362 4841
4362 4921
4363 4547
4363 4698
4363 4761
4364 4462
4364 4551
4364 4812
4364 4919
4365 4548
4365 4879
4365 4906
4365 4909
4366 4381
4366 4576
4366 4664
4366 4748
4366 4832
4367 4578
4367 4600
4367 4732
4367 4767
4368 4567
4368 4627
4369 4395
4370 4510
4370 4837
4371 4789
4372 4935
4372 4956
4373 4401
4373 4487
4373 4712
4373 4786
4374 4461
4374 4559
4374 4808
4374 4948
4375 4377
4375 4690
4375 4895
4375 4939
4376 4380
4376 4488
4376 4502
4376 4632
4376 4737
4376 4802
4376 4919
4376 4984
4378 4664
4378 4732
4379 4705
4379 4930
4380 4628
4380 4674
4380 4921
4380 4968
4381 4885
4382 4511
4382 4541
4382 4859
4383 4861
4384 4866
4385 4515
4385 4801
4385 4836
4386 4539
4386 4657
4386 4961
4387 4414
4387 4554
4387 4694
4388 4545
4388 4617
4388 4713
4388 4789
4388 4902
4389 4620
4389 4808
4391 4664
4391 4816
4391 4890
4391 4985
4391 4991
4392 4630
4392 4664
4392 4810
4392 4813
4392 4887
4393 4461
4393 4975
4394 4870
4395 4516
4395 4595
4395 4647
4395 4810
4396 4739
4396 4789
4397 4427
4398 4725
4398 4782
4398 4936
4399 4606
4399 4701
4399 4752
4399 4788
4399 4809
4399 4873
4400 4428
4400 4514
4400 4664
4400 4810
4401 4427
4401 4630
4402 4506
4402 4603
4402 4789
4402 4835
4403 4460
4403 4754
4403 4851
4403 4872
4404 4443
4404 4552
4405 4538
4405 4594
4405 4718
4405 4754
4406 4610
4406 4726
4406 4788
4406 4837
4406 4917
4407 4436
4407 4505
4407 4885
4408 4469
4408 4511
4408 4640
4408 4664
4408 4937
4408 4958
4409 4962
4410 4581
4410 4756
4410 4793
4410 4937
4410 4938
4411 4427
4411 4561
4412 4523
4412 4524
4413 4649
4413 4873
4413 4989
4414 4434
4414 4670
4414 4887
4414 4941
4414 4944
4414 4986
4415 4535
4415 4557
4415 4794
4415 4900
4416 4488
4416 4495
4416 4664
4416 4898
4416 4997
4417 4771
4417 4984
4418 4488
4419 4656
4419 4872
4419 4881
4420 4551
4421 4578
4421 4754
4422 4427
4422 4598
4422 4833
4423 4428
4423 4702
4423 4814
4423 4857
4424 4450
4424 4488
4424 4898
4425 4449
4425 4993
4426 4521
4427 4474
4427 4979
4428 4497
4428 4500
4428 4606
4428 4614
4428 4664
4428 4669
4428 4780
4428 4810
4428 4813
4428 4833
4428 4887
4429 4850
4429 4909
4429 4925
4429 4927
4430 4479
4430 4537
4430 4603
4430 4642
4430 4821
4430 4829
4430 4836
4430 4846
4432 4565
4432 4572
4432 4805
4432 4913
4433 4457
4433 4599
4433 4641
4434 4494
4434 4575
4434 4662
4435 4465
4435 4501
4435 4858
4436 4513
4436 4526
4436 4859
4437 4765
4437 4814
4437 4974
4438 4450
4438 4805
4438 4962
4440 4725
4440 4774
4441 4568
4441 4725
4441 4999
4442 4772
4442 4925
4442 4951
4442 4984
4444 4646
4445 4486
4445 4559
4446 4470
4446 4873
4446 4988
4447 4913
4448 4480
4448 4580
4448 4665
4448 4820
4448 4839
4449 4606
4449 4755
4449 4847
4450 4571
4450 4613
4450 4624
4450 4630
4450 4731
4450 4752
4450 4763
4450 4889
4450 4902
4450 4965
4450 4979
4451 4498
4451 4617
4451 4670
4451 4735
4451 4795
4452 4559
4452 4739
4452 4743
4453 4859
4454 4488
4454 4495
4454 4540
4454 4578
4454 4827
4455 4593
4455 4717
4456 4551
4456 4879
4456 4905
4456 4999
4457 4773
4457 4777
4458 4893
4460 4506
4460 4538
4460 4640
4461 4954
4462 4871
4462 4980
4464 4760
4465 4490
4465 4891
4465 4911
4465 4937
4466 4623
4466 4851
4466 4908
4468 4626
4468 4664
4469 4492
4469 4501
4469 4524
4469 4934
4469 4949
4470 4494
4470 4516
4470 4942
4471 4604
4471 4796
4471 4996
4472 4661
4472 4665
4472 4929
4473 4738
4473 4983
4474 4585
4474 4676
4474 4750
4474 4782
4477 4496
4477 4986
4478 4542
4478 4646
4479 4850
4480 4575
4480 4617
4480 4767
4480 4850
4482 4494
4482 4754
4482 4774
4483 4539
4483 4600
4484 4959
4486 4878
4487 4572
4487 4741
4487 4999
4488 4741
4488 4898
4488 4962
4489 4490
4489 4728
4489 4835
4489 4923
4490 4692
4490 4744
4490 4900
4491 4904
4492 4540
4492 4719
4492 4832
4492 4881
4493 4698
4493 4911
4494 4892
4494 4970
4496 4580
4497 4813
4497 4824
4497 4906
4498 4679
4500 4664
4501 4575
4504 4558
4504 4672
4504 4790
4505 4951
4506 4708
4506 4855
4507 4518
4508 4657
4509 4772
4509 4976
4510 4541
4510 4586
4510 4776
4510 4872
4510 4922
4511 4560
4511 4675
4511 4712
4511 4783
4512 4825
4513 4821
4514 4934
4516 4899
4517 4648
4517 4695
4518 4779
4518 4988
4519 4810
4521 4758
4522 4651
4524 4562
4524 4654
4524 4910
4525 4623
4525 4690
4525 4992
4526 4563
4526 4616
4526 4782
4526 4802
4526 4825
4526 4914
4526 4937
4526 4998
4527 4709
4527 4957
4528 4555
4528 4683
4528 4994
4529 4633
4529 4789
4529 4804
4529 4906
4530 4836
4531 4642
4531 4791
4531 4938
4532 4688
4532 4849
4533 4580
4534 4559
4534 4740
4535 4632
4535 4698
4535 4817
4535 4909
4535 4942
4536 4770
4536 4885
4537 4603
4537 4798
4537 4858
4538 4551
4538 4709
4538 4887
4538 4983
4539 4982
4540 4670
4540 4676
4540 4834
4540 4842
4541 4577
4542 4756
4542 4764
4542 4934
4543 4880
4543 4905
4543 4929
4543 4961
4544 4548
4545 4898
4545 4914
4546 4617
4546 4721
4548 4632
4548 4646
4550 4568
4550 4699
4550 4901
4551 4561
4551 4570
4551 4604
4551 4610
4551 4622
4551 4764
4551 4888
4551 4961
4554 4607
4554 4668
4555 4665
4555 4679
4555 4749
4555 4812
4555 4888
4555 4940
4555 4979
4556 4597
4556 4717
4557 4754
4557 4914
4558 4623
4559 4828
4559 4829
4559 4865
4560 4720
4560 4931
4560 4974
4561 4569
4561 4787
4561 4909
4562 4585
4562 4797
4562 4853
4563 4581
4563 4730
4563 4938
4564 4585
4566 4612
4567 4613
4567 4876
4567 4924
4568 4948
4569 4749
4569 4833
4570 4732
4570 4888
4570 4901
4571 4593
4571 4717
4572 4816
4573 4687
4573 4819
4573 4832
4573 4875
4573 4918
4574 4790
4575 4690
4575 4944
4575 4960
4576 4687
4578 4597
4578 4633
4578 4705
4578 4732
4578 4792
4578 4821
4579 4914
4580 4664
4581 4760
4581 4786
4581 4892
4581 4943
4582 4969
4583 4774
4583 4782
4583 4819
4584 4589
4584 4700
4585 4701
4585 4731
4586 4961
4586 4971
4586 4978
4587 4954
4588 4804
4588 4950
4590 4881
4591 4785
4592 4807
4592 4889
4592 4944
4594 4821
4594 4910
4595 4730
4595 4788
4595 4865
4595 4978
4596 4630
4596 4633
4596 4672
4596 4893
4597 4717
4597 4934
4598 4683
4600 4763
4600 4782
4600 4952
4601 4849
4601 4860
4602 4618
4604 4682
4605 4947
4606 4932
4607 4949
4608 4662
4608 4821
4608 4929
4608 4986
4610 4888
4610 4892
4611 4951
4612 4690
4612 4960
4613 4850
4614 4747
4615 4730
4615 4961
4617 4824
4618 4801
4618 4816
4619 4639
4619 4679
4620 4722
4620 4860
4621 4690
4621 4901
4621 4988
4622 4862
4623 4655
4623 4712
4623 4718
4623 4720
4623 4811
4623 4903
4623 4954
4624 4947
4624 4949
4625 4926
4626 4654
4626 4731
4626 4821
4626 4906
4627 4988
4628 4759
4628 4765
4628 4794
4628 4937
4628 4993
4629 4759
4629 4767
4632 4669
4632 4718
4632 4737
4632 4742
4632 4801
4632 4919
4634 4942
4635 4701
4635 4856
4635 4898
4636 4850
4636 4909
4637 4715
4637 4954
4638 4842
4639 4768
4639 4871
4644 4926
4647 4672
4647 4686
4648 4778
4650 4656
4650 4733
4650 4846
4650 4885
4650 4899
4650 4936
4651 4837
4652 4902
4654 4884
4655 4700
4655 4731
4655 4902
4656 4732
4656 4795
4656 4818
4656 4964
4658 4821
4659 4775
4659 4789
4660 4737
4660 4838
4661 4676
4661 4792
4664 4816
4664 4853
4664 4881
4664 4887
4665 4670
4665 4872
4665 4986
4666 4880
4666 4929
4668 4822
4668 4835
4668 4952
4669 4739
4669 4955
4669 4980
4670 4678
4670 4952
4671 4865
4671 4965
4672 4766
4674 4724
4675 4831
4675 4837
4675 4882
4676 4713
4679 4804
4681 4999
4682 4716
4682 4774
4682 4890
4682 4969
4684 4835
4685 4855
4687 4760
4688 4919
4689 4805
4689 4884
4690 4692
4690 4704
4690 4899
4690 4912
4690 4939
4692 4806
4692 4933
4693 4783
4693 4789
4694 4930
4695 4992
4696 4734
4698 4796
4698 4900
4700 4902
4701 4717
4701 4974
4702 4761
4704 4762
4705 4971
4706 4715
4706 4904
4707 4728
4707 4803
4707 4822
4708 4772
4709 4977
4711 4844
4711 4986
4712 4778
4715 4835
4715 4871
4716 4964
4717 4719
4717 4772
4717 4815
4717 4873
4717 4891
4717 4960
4717 4983
4718 4780
4718 4842
4719 4750
4719 4999
4720 4842
4721 4731
4722 4749
4724 4808
4724 4858
4724 4906
4727 4868
4728 4815
4728 4822
4728 4943
4729 4885
4729 4968
4730 4890
4730 4922
4731 4875
4731 4909
4732 4868
4732 4879
4733 4886
4733 4935
4734 4777
4734 4816
4734 4994
4737 4919
4738 4941
4739 4899
4739 4934
4739 4940
4742 4859
4742 4865
4744 4748
4745 4752
4745 4795
4745 4873
4746 4955
4747 4936
4749 4835
4749 4850
4749 4924
4753 4820
4753 4933
4753 4955
4754 4756
4755 4800
4755 4823
4755 4867
4758 4772
4759 4794
4760 4905
4760 4981
4762 4849
4764 4922
4764 4931
4764 4937
4766 4855
4766 4930
4767 4782
4767 4952
4768 4809
4769 4801
4770 4852
4770 4913
4770 4965
4771 4945
4771 4950
4771 4974
4772 4863
4774 4918
4775 4894
4777 4865
4778 4794
4778 4820
4781 4948
4781 4999
4782 4835
4782 4909
4782 4960
4784 4798
4784 4879
4785 4875
4788 4890
4789 4913
4789 4999
4790 4811
4790 4867
4794 4955
4797 4836
4797 4950
4798 4822
4798 4886
4799 4941
4801 4933
4801 4946
4803 4942
4804 4828
4804 4968
4806 4905
4808 4921
4809 4946
4810 4855
4811 4842
4812 4889
4812 4988
4812 4996
4814 4956
4814 4961
4815 4997
4816 4964
4817 4822
4821 4905
4822 4849
4822 4998
4823 4916
4823 4937
4825 4901
4825 4931
4830 4928
4830 4953
4831 4837
4832 4875
4833 4973
4835 4889
4835 4944
4835 4955
4836 4900
4836 4962
4837 4953
4840 4841
4840 4855
4843 4909
4843 4979
4845 4847
4845 4954
4846 4855
4846 4872
4846 4955
4847 4943
4848 4945
4849 4912
4851 4938
4854 4903
4855 4866
4856 4938
4857 4865
4857 4953
4857 4968
4858 4933
4859 4865
4859 4955
4861 4868
4861 4962
4863 4928
4865 4917
4865 4930
4867 4955
4868 4929
4869 4995
4870 4998
4871 4907
4873 4911
4875 4991
4876 4905
4876 4924
4876 4930
4876 4967
4878 4990
4880 4970
4881 4937
4887 4960
4888 4923
4889 4995
4891 4946
4892 4937
4893 4930
4893 4940
4900 4927
4900 4946
4900 4981
4901 4976
4914 4995
4915 4949
4916 4988
4918 4969
4919 4953
4920 4973
4922 4978
4926 4936
4930 4940
4933 4979
4934 4980
4936 4977
4937 4995
4938 4947
4962 4979
4972 4993
4974 4978
4976 4997
