0 6
0 361
0 402
0 735
0 966
0 1115
0 1482
0 1670
0 1851
0 2235
0 2992
0 3355
0 3476
0 3853
0 4685
0 4878
1 781
1 1080
1 1330
1 1585
1 1934
1 2062
1 2272
1 2419
1 2655
1 2686
1 3056
1 3057
1 3075
1 3149
1 3419
1 3968
1 4265
1 4987
2 3
2 57
2 74
2 113
2 126
2 212
2 218
2 219
2 303
2 354
2 355
2 382
2 424
2 546
2 587
2 732
2 733
2 770
2 803
2 810
2 835
2 845
2 856
2 862
2 953
2 1019
2 1084
2 1103
2 1210
2 1239
2 1278
2 1310
2 1393
2 1462
2 1469
2 1479
2 1699
2 1878
2 1920
2 1954
2 2015
2 2062
2 2175
2 2355
2 2386
2 2499
2 2510
2 2577
2 2584
2 2684
2 2779
2 2851
2 2865
2 2896
2 2901
2 3041
2 3077
2 3092
2 3198
2 3314
2 3322
2 3326
2 3441
2 3527
2 3635
2 3638
2 3652
2 3681
2 3968
2 4004
2 4240
2 4321
2 4407
2 4457
2 4485
2 4575
2 4645
2 4960
3 1055
3 1531
3 1711
3 2046
3 2066
3 2136
3 2369
3 2440
3 2860
3 3668
3 3939
3 4072
3 4434
3 4660
4 6
4 287
4 780
4 783
4 862
4 965
4 1013
4 1164
4 1324
4 1373
4 1464
4 1544
4 1940
4 1983
4 2174
4 2276
4 2316
4 2336
4 2361
4 2445
4 2521
4 2834
4 2901
4 2944
4 2977
4 3056
4 3595
4 3752
4 3905
4 4021
4 4114
4 4226
4 4284
4 4390
4 4433
4 4585
4 4761
4 4896
5 166
5 605
5 757
5 1993
5 2039
5 2112
5 2175
5 2566
5 2785
5 3557
5 3786
5 4073
5 4121
5 4519
5 4567
5 4638
5 4699
5 4881
5 4999
6 266
6 328
6 329
6 345
6 514
6 537
6 545
6 591
6 634
6 661
6 1083
6 1124
6 1259
6 1720
6 2105
6 2453
6 2456
6 2532
6 2597
6 2759
6 2943
6 3001
6 3194
6 3308
6 3387
6 3445
6 3537
6 3630
6 3796
6 4194
6 4282
6 4306
6 4428
6 4481
6 4495
6 4749
6 4772
6 4786
6 4965
7 559
7 712
7 759
7 1374
7 1659
7 2430
7 2806
7 3403
7 3593
7 3640
7 3941
7 4122
7 4738
7 4894
7 4897
7 4911
8 348
8 357
8 387
8 745
8 968
8 1081
8 1414
8 1624
8 1889
8 2163
8 3399
8 3677
8 4315
8 4388
9 159
9 276
9 349
9 676
9 1012
9 1252
9 1472
9 2236
9 2754
9 2838
9 3328
9 3439
9 3492
9 3587
9 3607
9 4224
9 4485
9 4645
9 4746
9 4899
9 4953
10 267
10 323
10 386
10 504
10 597
10 1019
10 1545
10 1829
10 2022
10 2053
10 2422
10 2828
10 3023
10 3136
10 3528
10 3533
10 3544
10 3677
10 3796
10 3920
10 4028
10 4208
10 4256
10 4893
11 261
11 635
11 1386
11 1503
11 1542
11 1754
11 1765
11 2016
11 2374
11 2415
11 2482
11 2914
11 3004
11 3024
11 3025
11 3072
11 3546
11 3642
11 3854
11 4239
11 4389
11 4546
11 4682
12 361
12 386
12 387
12 419
12 459
12 467
12 1066
12 1301
12 2259
12 2807
12 3439
12 4239
12 4380
12 4489
12 4497
12 4760
12 4833
13 15
13 186
13 266
13 333
13 369
13 528
13 579
13 675
13 702
13 714
13 971
13 1511
13 1737
13 2035
13 2113
13 2200
13 2311
13 2489
13 2956
13 3141
13 3642
13 3878
13 3968
13 4095
13 4929
14 25
14 81
14 210
14 269
14 370
14 585
14 988
14 1452
14 1673
14 1760
14 2252
14 2385
14 2759
14 3002
14 3021
14 3615
14 3853
14 3960
14 4068
14 4630
14 4642
14 4906
15 347
15 670
15 814
15 1643
15 2206
15 2329
15 2570
15 2632
15 2843
15 2849
15 3101
15 3794
15 3851
15 3868
15 3984
15 4003
15 4055
15 4384
15 4581
15 4608
15 4995
16 136
16 248
16 628
16 1122
16 1269
16 1852
16 2056
16 2425
16 2582
16 2600
16 2718
16 2722
16 2764
16 2925
16 2927
16 3005
16 3165
16 3467
16 3481
16 3988
16 4246
16 4538
16 4754
17 72
17 96
17 188
17 524
17 569
17 1042
17 1290
17 1537
17 1949
17 2004
17 2475
17 2481
17 2867
17 2875
17 2897
17 2969
17 3048
17 3069
17 3085
17 3111
17 3389
17 3667
17 3711
17 4071
17 4754
17 4831
17 4888
18 44
18 370
18 531
18 829
18 893
18 947
18 1421
18 1875
18 2741
18 2783
18 2959
18 3004
18 3297
18 3306
18 3451
18 3533
18 4077
18 4322
18 4627
18 4713
19 213
19 809
19 999
19 1136
19 1198
19 1590
19 1854
19 1864
19 2039
19 2126
19 2302
19 2651
19 2655
19 3251
19 3482
19 3797
19 3816
19 3867
19 4256
19 4293
19 4651
20 155
20 412
20 1021
20 1243
20 1517
20 1813
20 2071
20 2594
20 3185
20 3379
20 3464
20 3714
20 3823
20 3855
20 3946
20 4321
20 4341
20 4579
20 4758
20 4926
21 189
21 229
21 351
21 521
21 606
21 731
21 813
21 1093
21 1125
21 1141
21 1197
21 1241
21 1320
21 1326
21 1352
21 1447
21 1561
21 1594
21 2020
21 2100
21 2165
21 2283
21 2285
21 2304
21 2807
21 2811
21 2938
21 2984
21 3146
21 3296
21 3364
21 3531
21 3656
21 3667
21 3941
21 3958
21 3970
21 4068
21 4127
21 4143
21 4150
21 4299
21 4410
21 4468
21 4508
21 4770
21 4783
21 4863
21 4977
22 30
22 100
22 213
22 229
22 331
22 431
22 729
22 868
22 1403
22 1909
22 1990
22 2712
22 3168
22 3412
22 3477
22 3975
22 4004
22 4261
22 4411
22 4655
23 323
23 375
23 418
23 722
23 915
23 1279
23 1609
23 1626
23 1662
23 1772
23 1970
23 2751
23 3077
23 3156
23 3247
23 3319
23 3424
23 3786
23 3814
23 4056
23 4071
23 4288
23 4405
23 4560
23 4663
23 4987
24 73
24 161
24 172
24 627
24 1207
24 1274
24 1353
24 1470
24 1495
24 1651
24 1749
24 2381
24 2465
24 2549
24 2749
24 3019
24 3022
24 3281
24 3372
24 3409
24 3442
24 3570
24 3601
24 3715
24 4068
24 4077
24 4094
24 4309
24 4504
24 4712
24 4959
25 151
25 569
25 957
25 1470
25 1754
25 1889
25 1899
25 2754
25 3281
25 3449
25 3550
25 3597
25 3674
25 3789
25 3867
25 4103
25 4282
25 4355
25 4933
26 456
26 544
26 1333
26 1592
26 1722
26 1990
26 2108
26 2389
26 2504
26 3238
26 3373
26 3557
26 3634
26 3688
26 4015
26 4364
26 4374
26 4537
27 186
27 697
27 721
27 856
27 1014
27 1126
27 1217
27 1294
27 1327
27 1511
27 1618
27 1671
27 2108
27 2166
27 2232
27 2324
27 2463
27 2521
27 2570
27 2872
27 2926
27 3046
27 3067
27 3153
27 3297
27 3368
27 3378
27 3466
27 3644
27 3729
27 4257
27 4297
27 4337
27 4487
27 4587
28 207
28 228
28 550
28 800
28 1397
28 1439
28 1502
28 2019
28 2157
28 3219
28 3428
28 3598
28 3875
28 3960
28 4498
28 4832
29 334
29 387
29 1136
29 1533
29 1750
29 1959
29 2252
29 2257
29 2307
29 2436
29 2555
29 2900
29 3149
29 3214
29 3475
29 3568
29 3595
29 3644
29 3733
29 3734
30 210
30 357
30 398
30 738
30 1202
30 1532
30 1825
30 2019
30 2035
30 2417
30 2465
30 2584
30 2867
30 3182
30 3287
30 3614
30 3757
30 4136
30 4537
31 150
31 165
31 316
31 364
31 513
31 532
31 614
31 633
31 647
31 736
31 761
31 846
31 851
31 933
31 998
31 1058
31 1704
31 1850
31 1969
31 2418
31 2662
31 2799
31 2803
31 2929
31 3177
31 3315
31 3422
31 3439
31 3517
31 3713
31 3742
31 3809
31 4386
31 4523
31 4545
31 4576
31 4582
31 4612
31 4645
31 4650
31 4711
31 4786
31 4977
32 445
32 564
32 826
32 873
32 1051
32 1074
32 1159
32 1403
32 1475
32 1954
32 2092
32 2198
32 2264
32 2291
32 2452
32 2481
32 2632
32 2779
32 3233
32 3932
32 4002
32 4147
32 4369
32 4393
32 4521
32 4742
32 4852
33 494
33 501
33 670
33 1098
33 1343
33 1631
33 1742
33 2201
33 2382
33 2634
33 3021
33 3268
33 3563
33 3642
33 3959
33 4184
33 4306
33 4325
33 4369
33 4734
33 4773
33 4813
33 4841
34 333
34 379
34 442
34 575
34 955
34 1060
34 1457
34 2623
34 2699
34 2733
34 2909
34 2943
34 3485
34 3851
34 3854
34 4031
34 4074
34 4180
34 4371
34 4420
34 4459
34 4573
34 4835
34 4886
34 4888
35 147
35 322
35 503
35 1752
35 1949
35 1966
35 2041
35 2145
35 2295
35 2364
35 2374
35 2614
35 2865
35 2876
35 3885
35 4128
35 4493
36 70
36 122
36 247
36 796
36 808
36 888
36 923
36 1284
36 1908
36 1925
36 1983
36 2106
36 2351
36 2759
36 2899
36 2998
36 3011
36 3068
36 3120
36 3392
36 3450
36 3520
36 3533
36 3673
36 3683
36 4028
36 4339
36 4647
36 4658
36 4694
36 4870
36 4962
36 4967
37 495
37 651
37 663
37 693
37 874
37 926
37 1038
37 1683
37 1701
37 1745
37 1767
37 1792
37 1866
37 2125
37 2385
37 2433
37 2536
37 2620
37 2742
37 3010
37 3048
37 3090
37 3228
37 3359
37 3421
37 3453
37 3504
37 3811
37 3843
37 3914
37 3976
37 3990
37 4082
37 4112
37 4204
37 4396
37 4419
37 4494
37 4658
37 4721
37 4735
37 4849
37 4888
37 4944
38 226
38 249
38 507
38 903
38 1073
38 1210
38 1227
38 1451
38 1961
38 2063
38 2093
38 2195
38 2748
38 3076
38 3166
38 3365
38 3581
38 3744
38 3853
38 3898
38 3904
38 4215
38 4877
39 265
39 961
39 1002
39 1305
39 1508
39 1694
39 1821
39 2249
39 2333
39 2389
39 3077
39 3137
39 3394
39 3652
39 3724
39 4149
39 4414
39 4880
40 143
40 197
40 201
40 336
40 399
40 527
40 584
40 619
40 693
40 720
40 761
40 827
40 940
40 1028
40 1075
40 1099
40 1102
40 1129
40 1239
40 1477
40 1574
40 1597
40 1700
40 1704
40 1754
40 1766
40 1811
40 1886
40 1898
40 1980
40 2050
40 2103
40 2221
40 2303
40 2331
40 2407
40 2480
40 2525
40 2603
40 2665
40 2696
40 2846
40 2869
40 2936
40 2985
40 2989
40 3163
40 3190
40 3212
40 3233
40 3439
40 3510
40 3566
40 3611
40 3723
40 3742
40 3759
40 3831
40 3866
40 3926
40 4082
40 4369
40 4406
40 4441
40 4626
40 4726
40 4742
40 4868
40 4901
40 4902
41 196
41 423
41 950
41 974
41 1682
41 2047
41 2096
41 2182
41 2259
41 2274
41 2332
41 2432
41 2850
41 3106
41 3321
41 3485
41 4639
41 4993
42 492
42 1785
42 1895
42 1907
42 2886
42 3038
42 3111
42 3197
42 3231
42 3307
42 3889
42 4473
42 4876
42 4957
43 51
43 76
43 154
43 246
43 338
43 458
43 830
43 1019
43 1049
43 1201
43 1403
43 1477
43 1579
43 1731
43 2081
43 2582
43 2585
43 2846
43 2863
43 3114
43 3297
43 3330
43 3395
43 3436
43 3544
43 3612
43 3887
43 4068
43 4186
43 4447
43 4483
43 4512
43 4581
43 4775
44 109
44 805
44 915
44 1224
44 1483
44 1773
44 1821
44 2385
44 2447
44 2601
44 2941
44 3122
44 3310
44 3446
44 3480
44 3661
44 3713
44 3795
44 4546
45 586
45 643
45 778
45 1060
45 1073
45 1310
45 1377
45 1711
45 1798
45 3241
45 3245
45 3474
45 3501
45 3956
45 4476
45 4903
46 240
46 445
46 865
46 1057
46 1483
46 1735
46 2029
46 2435
46 2676
46 3016
46 3077
46 3148
46 3822
46 3915
46 4190
46 4256
46 4262
46 4350
46 4671
46 4905
47 102
47 154
47 537
47 665
47 764
47 857
47 944
47 1009
47 1093
47 1142
47 1264
47 1323
47 1400
47 1509
47 1593
47 1596
47 2027
47 2172
47 2232
47 2255
47 2258
47 2554
47 2560
47 2738
47 2824
47 2845
47 2896
47 2971
47 2984
47 2993
47 3017
47 3039
47 3075
47 3185
47 3201
47 3304
47 3310
47 3547
47 3694
47 3714
47 3736
47 3881
47 3890
47 4244
47 4271
47 4314
47 4325
47 4552
47 4612
47 4996
48 111
48 253
48 451
48 579
48 1251
48 1377
48 1386
48 1935
48 2258
48 2466
48 2944
48 3319
48 3518
48 3697
48 4133
48 4302
48 4418
48 4571
48 4862
48 4930
48 4973
49 83
49 109
49 207
49 217
49 426
49 474
49 516
49 877
49 1029
49 1090
49 1132
49 1141
49 1336
49 1376
49 1468
49 1496
49 1501
49 1944
49 2208
49 2306
49 2342
49 2467
49 2529
49 2590
49 2643
49 2941
49 2958
49 2991
49 3001
49 3163
49 3750
49 3805
49 3932
49 4129
49 4206
49 4270
49 4533
49 4826
49 4883
49 4889
49 4911
50 249
50 374
50 746
50 811
50 936
50 1026
50 1066
50 1143
50 1396
50 1437
50 1461
50 1501
50 1663
50 1711
50 1983
50 2348
50 2386
50 2401
50 2505
50 2541
50 2697
50 2746
50 2871
50 3048
50 3135
50 3326
50 3670
50 3953
50 4063
50 4111
50 4159
50 4230
50 4415
50 4645
50 4687
51 233
51 393
51 399
51 496
51 497
51 604
51 725
51 892
51 1403
51 1875
51 2238
51 2372
51 2517
51 2561
51 2660
51 2724
51 2950
51 3117
51 3184
51 3454
51 3785
51 3987
51 4147
51 4247
51 4812
52 57
52 63
52 523
52 821
52 936
52 2038
52 2360
52 2524
52 2774
52 2785
52 3031
52 3056
52 3421
52 3449
52 3550
52 3871
52 4499
52 4580
52 4614
53 110
53 396
53 445
53 588
53 847
53 1345
53 1683
53 1735
53 1874
53 2071
53 2117
53 2947
53 3081
53 3097
53 3322
53 4824
54 116
54 197
54 588
54 601
54 684
54 686
54 866
54 1107
54 1344
54 2093
54 2341
54 2399
54 2546
54 2678
54 2710
54 2861
54 3081
54 3458
54 3513
54 3880
54 4274
54 4855
54 4998
55 69
55 393
55 527
55 1464
55 1899
55 1907
55 1997
55 2093
55 2178
55 2305
55 2307
55 2514
55 2608
55 3065
55 3213
55 3286
55 3467
55 3497
55 3562
55 4053
55 4992
56 178
56 793
56 1219
56 1583
56 1617
56 1742
56 1823
56 2240
56 2526
56 2595
56 2757
56 2849
56 2986
56 3790
56 3915
56 4162
56 4523
56 4627
56 4834
56 4889
57 96
57 124
57 163
57 431
57 485
57 579
57 873
57 1033
57 1131
57 1358
57 1538
57 1781
57 2294
57 2331
57 2510
57 2649
57 3275
57 3464
57 3577
57 3851
57 3980
57 4372
57 4562
57 4880
58 121
58 417
58 445
58 1397
58 1450
58 1483
58 1511
58 1595
58 1664
58 1951
58 2289
58 2320
58 2385
58 2417
58 2572
58 2644
58 2846
58 2880
58 4489
58 4523
59 1036
59 1054
59 1057
59 1065
59 3011
59 3695
59 3832
59 4058
59 4089
59 4197
59 4738
59 4747
59 4840
59 4900
59 4953
60 128
60 142
60 220
60 625
60 763
60 1142
60 1296
60 1362
60 2118
60 2315
60 2519
60 2872
60 2950
60 3065
60 3117
60 3723
60 3792
60 3846
60 4120
60 4141
60 4972
61 239
61 512
61 749
61 1028
61 1533
61 1642
61 1999
61 2070
61 2327
61 2332
61 2552
61 2686
61 2728
61 3254
61 3598
61 3714
61 3806
61 4043
61 4182
61 4381
61 4421
61 4531
61 4890
62 159
62 442
62 445
62 842
62 1337
62 1508
62 1531
62 2031
62 2116
62 2331
62 2859
62 2860
62 3302
62 3441
62 3666
62 3944
62 3958
62 4264
62 4378
63 159
63 296
63 303
63 324
63 399
63 402
63 536
63 583
63 718
63 862
63 958
63 992
63 1027
63 1227
63 1560
63 1805
63 1898
63 2032
63 2236
63 2371
63 2506
63 2813
63 2881
63 2960
63 3024
63 3218
63 3323
63 3325
63 3402
63 3426
63 3552
63 3595
63 3621
63 3627
63 4054
63 4071
63 4210
63 4491
63 4501
63 4550
63 4636
63 4872
63 4911
64 250
64 738
64 1670
64 1784
64 1853
64 3071
64 3264
64 3284
64 3601
64 3802
64 4805
64 4915
64 4924
65 71
65 132
65 170
65 388
65 476
65 508
65 559
65 587
65 732
65 739
65 834
65 859
65 1028
65 1122
65 1128
65 1367
65 1573
65 1756
65 1829
65 1916
65 2044
65 2920
65 3445
65 3571
65 3640
65 3914
65 3931
65 4085
65 4631
65 4714
65 4747
65 4896
65 4901
66 325
66 955
66 1566
66 1659
66 1751
66 2115
66 2255
66 3156
66 3431
66 4126
66 4456
66 4586
66 4673
66 4780
66 4833
67 116
67 304
67 587
67 1048
67 1128
67 1757
67 1812
67 1870
67 2098
67 2223
67 2605
67 2920
67 3000
67 3106
67 3140
67 3563
67 3640
67 3833
67 4196
67 4564
68 181
68 266
68 368
68 788
68 1813
68 2262
68 2385
68 2390
68 2610
68 2967
68 3031
68 3256
68 4100
69 150
69 864
69 1215
69 1273
69 1285
69 1641
69 2285
69 2629
69 2712
69 2899
69 2932
69 3037
69 3204
69 3482
69 3900
69 3973
69 4035
69 4656
69 4962
70 257
70 693
70 1053
70 1359
70 1935
70 2085
70 2455
70 2877
70 2989
70 3231
70 3259
70 3431
70 3511
70 4532
71 94
71 108
71 633
71 909
71 968
71 1066
71 1255
71 1279
71 1325
71 1974
71 2074
71 2199
71 2662
71 2805
71 2990
71 3025
71 3217
71 3256
71 3267
71 3292
71 3371
71 3450
71 3541
71 3544
71 4326
71 4588
71 4598
71 4601
71 4864
72 106
72 299
72 599
72 1021
72 1686
72 1805
72 2195
72 2423
72 2468
72 2834
72 2957
72 3009
72 3017
72 3039
72 3117
72 3414
72 3485
72 3495
72 3940
72 4077
72 4396
72 4433
72 4538
72 4781
73 406
73 544
73 549
73 608
73 621
73 659
73 1127
73 1423
73 1453
73 1860
73 1903
73 2240
73 2374
73 2448
73 2808
73 2830
73 2842
73 2944
73 2962
73 3073
73 3085
73 3424
73 4307
73 4492
73 4513
73 4555
74 470
74 538
74 934
74 1090
74 1150
74 1156
74 1264
74 1318
74 1750
74 2120
74 2254
74 2476
74 2506
74 3061
74 3075
74 3163
74 3566
74 3571
74 3828
74 4758
74 4924
75 107
75 203
75 222
75 1232
75 1447
75 2039
75 2438
75 2470
75 2888
75 3034
75 3174
75 3323
75 3397
75 3665
75 3804
75 3810
75 3973
75 4090
75 4151
75 4265
75 4591
75 4722
76 121
76 433
76 467
76 591
76 893
76 1124
76 1428
76 1450
76 1465
76 1497
76 1587
76 1620
76 1711
76 1841
76 1862
76 1918
76 1977
76 2140
76 2177
76 2366
76 2676
76 2796
76 3009
76 3017
76 3136
76 3281
76 3303
76 3406
76 3654
76 4132
76 4355
76 4380
76 4391
76 4529
76 4634
76 4828
76 4956
76 4995
77 356
77 368
77 579
77 943
77 1456
77 1495
77 1735
77 2176
77 2206
77 2579
77 2655
77 2766
77 3045
77 3106
77 3317
77 3540
77 3613
78 106
78 257
78 513
78 585
78 707
78 753
78 863
78 901
78 907
78 1025
78 1218
78 1247
78 1495
78 1761
78 2002
78 2128
78 2148
78 2199
78 2206
78 2332
78 2478
78 2530
78 2538
78 2772
78 2992
78 3037
78 3039
78 3218
78 3585
78 4046
78 4186
79 243
79 323
79 358
79 460
79 601
79 622
79 707
79 798
79 1095
79 1593
79 1626
79 1851
79 1916
79 2137
79 2574
79 2867
79 3077
79 3248
79 3318
79 3345
79 3598
79 4042
79 4324
79 4405
79 4448
79 4910
79 4926
79 4940
80 377
80 608
80 622
80 660
80 712
80 868
80 987
80 1127
80 1317
80 1787
80 2209
80 2787
80 2792
80 3148
80 3263
80 3432
80 3616
80 4417
81 624
81 1222
81 1342
81 2170
81 2198
81 2352
81 2429
81 2603
81 2650
81 3259
81 3334
81 3363
81 3527
81 3772
82 149
82 944
82 1224
82 1313
82 1465
82 1925
82 2529
82 2556
82 3099
82 3472
82 3704
82 3926
82 4292
82 4477
82 4700
82 4977
83 117
83 363
83 621
83 968
83 1369
83 1508
83 1947
83 2038
83 2190
83 2356
83 2598
83 2643
83 2645
83 3492
83 3724
83 3877
83 4109
83 4290
83 4456
83 4670
83 4951
84 180
84 571
84 2517
84 2848
84 3118
84 3431
84 3752
84 4004
84 4145
84 4356
84 4490
85 768
85 1071
85 1093
85 1315
85 2110
85 2530
85 2570
85 2644
85 2701
85 2903
85 3051
85 3075
85 3214
85 3561
85 3710
85 4263
85 4453
85 4458
86 213
86 239
86 321
86 691
86 913
86 958
86 972
86 983
86 1135
86 1486
86 1538
86 1762
86 1990
86 2145
86 2157
86 2488
86 2536
86 2546
86 2636
86 2934
86 2996
86 3164
86 3176
86 3196
86 3847
86 3944
86 4077
86 4104
86 4141
86 4779
87 654
87 708
87 1786
87 1984
87 2139
87 2783
87 3224
87 3299
87 3313
87 3559
87 4747
87 4784
87 4895
87 4958
88 180
88 291
88 1160
88 1890
88 2024
88 2074
88 2262
88 2403
88 2702
88 2754
88 2859
88 4158
89 271
89 412
89 497
89 516
89 618
89 791
89 1090
89 1199
89 1257
89 1482
89 1735
89 2501
89 2772
89 2779
89 2812
89 2983
89 3136
89 3402
89 3542
89 3936
89 4239
89 4798
90 839
90 998
90 1051
90 1111
90 1781
90 1838
90 1893
90 2466
90 2530
90 2686
90 2698
90 2954
90 3094
90 3183
90 3800
90 4198
90 4448
91 102
91 150
91 701
91 1367
91 1653
91 1673
91 1697
91 1905
91 2095
91 2368
91 2785
91 2992
91 3039
91 3462
91 3564
91 3576
91 4143
91 4378
91 4458
91 4896
92 131
92 284
92 504
92 807
92 890
92 929
92 998
92 1351
92 1428
92 1743
92 1771
92 2041
92 2280
92 2457
92 2920
92 3247
92 3276
92 3911
92 3924
92 3925
92 4006
92 4274
92 4482
93 229
93 393
93 496
93 732
93 756
93 860
93 915
93 1076
93 1086
93 1440
93 1739
93 1758
93 1882
93 2203
93 2394
93 2638
93 3334
93 3704
93 4330
93 4524
94 137
94 146
94 293
94 1054
94 1242
94 1266
94 1374
94 1595
94 1597
94 1937
94 2199
94 2452
94 2468
94 2623
94 2900
94 2944
94 3097
94 3492
94 3769
94 3809
94 4152
94 4153
94 4286
94 4889
95 247
95 388
95 394
95 422
95 463
95 505
95 627
95 834
95 977
95 1054
95 1120
95 1428
95 1849
95 1954
95 1985
95 2005
95 2388
95 2434
95 2499
95 2693
95 2761
95 2956
95 3041
95 3176
95 3461
95 3584
95 3590
95 4074
95 4140
95 4611
95 4644
95 4703
95 4980
95 4982
95 4997
96 173
96 591
96 683
96 1367
96 1594
96 1723
96 2015
96 2029
96 2218
96 2448
96 2944
96 3147
96 3352
96 3853
96 4014
96 4106
96 4135
96 4742
96 4978
97 726
97 1673
97 1761
97 2081
97 2089
97 2206
97 2343
97 2351
97 3152
97 3540
97 3973
97 4124
97 4757
97 4868
98 134
98 180
98 552
98 802
98 860
98 1209
98 1267
98 1939
98 1984
98 2058
98 2080
98 2644
98 2758
98 2919
98 3193
98 3270
98 3339
98 3589
98 3603
98 3979
98 4566
98 4760
98 4802
99 112
99 240
99 1031
99 1077
99 1137
99 2555
99 2632
99 2661
99 3180
99 3700
99 3760
99 3878
99 3994
100 312
100 973
100 1009
100 1179
100 1216
100 1673
100 1778
100 2015
100 2388
100 2519
100 2708
100 3168
100 4330
100 4902
101 874
101 1003
101 1448
101 1984
101 2362
101 2396
101 2895
101 3058
101 3228
101 3928
101 4142
101 4162
101 4383
101 4384
101 4483
101 4780
102 151
102 606
102 813
102 835
102 2853
102 2974
102 3293
102 3425
102 4201
102 4213
102 4694
102 4789
102 4916
103 106
103 158
103 1229
103 1235
103 1436
103 1488
103 1752
103 1840
103 2019
103 2504
103 2552
103 3034
103 3137
103 3727
103 4164
103 4270
103 4272
103 4377
103 4594
103 4796
103 4814
103 4820
104 154
104 169
104 241
104 259
104 466
104 639
104 728
104 1103
104 1218
104 1220
104 1433
104 1523
104 1585
104 1876
104 1957
104 1978
104 2202
104 2405
104 2661
104 2733
104 3109
104 3296
104 3328
104 3489
104 3601
104 3604
104 3617
104 3665
104 3957
104 4264
104 4580
104 4599
104 4703
104 4711
104 4721
104 4783
105 369
105 494
105 761
105 1069
105 1176
105 1208
105 1232
105 1316
105 1601
105 1887
105 2204
105 2358
105 2407
105 2649
105 3121
105 3220
105 3425
105 3554
105 3784
105 3933
105 4099
105 4289
105 4775
106 369
106 503
106 579
106 673
106 734
106 837
106 1224
106 1302
106 1533
106 1786
106 1827
106 1872
106 2095
106 2377
106 2494
106 2518
106 3050
106 3145
106 3192
106 3276
106 3279
106 3295
106 3490
106 4023
106 4162
106 4392
106 4970
107 313
107 335
107 424
107 488
107 630
107 659
107 672
107 704
107 973
107 1465
107 1569
107 1593
107 1749
107 1766
107 1789
107 1797
107 1854
107 1881
107 1957
107 2081
107 2257
107 2301
107 2537
107 2540
107 2579
107 2593
107 2769
107 3069
107 3168
107 3399
107 3425
107 3590
107 3674
107 3697
107 3780
107 3820
107 4064
107 4484
107 4508
107 4511
107 4681
107 4988
108 880
108 922
108 1078
108 1214
108 1307
108 1430
108 1557
108 1763
108 1844
108 1919
108 2113
108 2170
108 2185
108 2267
108 2436
108 2457
108 2781
108 2790
108 2796
108 2951
108 3314
108 3322
108 3348
108 3588
108 3611
108 3681
108 3825
108 3977
108 4000
108 4055
108 4191
108 4673
108 4703
108 4755
108 4856
108 4932
108 4962
108 4981
109 164
109 574
109 756
109 987
109 1205
109 1224
109 1270
109 1383
109 1521
109 1590
109 1881
109 2029
109 2397
109 2436
109 2543
109 3112
109 3144
109 3271
109 3293
109 3359
109 3714
109 4052
109 4178
109 4341
109 4413
109 4952
110 418
110 503
110 784
110 1054
110 1314
110 1569
110 1595
110 1817
110 2521
110 3322
110 3323
110 4151
110 4805
111 218
111 478
111 837
111 1183
111 1345
111 1854
111 2160
111 2249
111 2452
111 2453
111 2632
111 2645
111 2722
111 2755
111 2838
111 3407
111 4543
111 4658
111 4728
111 4741
111 4851
111 4862
112 876
112 1022
112 1112
112 1178
112 1248
112 1314
112 1949
112 2366
112 2566
112 2816
112 4062
112 4387
112 4834
112 4889
113 794
113 817
113 996
113 1070
113 1082
113 1083
113 1114
113 1127
113 1516
113 1517
113 1617
113 1623
113 1658
113 1939
113 2059
113 2214
113 2233
113 2360
113 2610
113 2667
113 3075
113 3183
113 3222
113 3623
113 3680
113 3811
113 3999
113 4083
113 4291
113 4343
113 4666
113 4758
113 4790
113 4964
114 123
114 238
114 393
114 412
114 441
114 1135
114 1183
114 1266
114 1414
114 1577
114 1612
114 1830
114 2114
114 2488
114 2864
114 3121
114 3247
114 3251
114 3574
114 3619
114 4028
114 4127
114 4142
114 4228
114 4312
114 4464
114 4498
114 4595
114 4856
114 4896
115 271
115 512
115 572
115 638
115 1060
115 1370
115 1510
115 1652
115 1655
115 1831
115 1858
115 2758
115 2812
115 2999
115 3118
115 3283
115 3661
115 3916
115 4278
115 4400
115 4571
115 4635
116 132
116 249
116 287
116 1465
116 2145
116 2187
116 2225
116 2699
116 3120
116 3378
116 3760
116 4152
116 4183
116 4184
116 4206
116 4538
116 4541
117 186
117 332
117 377
117 475
117 684
117 738
117 986
117 1086
117 1256
117 1336
117 1522
117 1610
117 1676
117 1859
117 1867
117 1964
117 1998
117 2297
117 2483
117 2847
117 3087
117 3103
117 3439
117 3792
117 4129
117 4251
117 4276
117 4350
117 4552
117 4570
117 4729
117 4775
118 354
118 517
118 577
118 680
118 860
118 883
118 892
118 956
118 1105
118 1192
118 1420
118 1465
118 1539
118 1618
118 1711
118 1832
118 1918
118 2147
118 2400
118 2504
118 2536
118 2996
118 3182
118 3308
118 3614
118 3677
118 3681
118 3744
118 3819
118 3877
118 4022
118 4053
118 4722
118 4749
118 4864
119 163
119 337
119 683
119 980
119 986
119 1060
119 1212
119 1228
119 1229
119 1319
119 1336
119 1512
119 1588
119 1707
119 1796
119 2061
119 2076
119 2126
119 2139
119 2150
119 2257
119 2260
119 2547
119 2672
119 2763
119 2781
119 2795
119 2797
119 2908
119 2986
119 3156
119 3204
119 3283
119 3377
119 3383
119 3412
119 3656
119 3688
119 3765
119 3799
119 3900
119 4075
119 4419
119 4559
119 4632
119 4796
119 4929
120 281
120 1208
120 1313
120 1553
120 2862
120 3000
120 3236
120 3290
120 3390
120 3723
120 3898
120 4210
120 4712
121 260
121 419
121 427
121 635
121 813
121 1012
121 1454
121 1495
121 1652
121 1721
121 1952
121 2037
121 2283
121 2421
121 2545
121 2995
121 3015
121 3103
121 3156
121 3481
121 3582
121 3720
121 3848
121 3994
121 4113
121 4537
121 4786
121 4841
121 4930
121 4943
122 629
122 950
122 975
122 1262
122 1406
122 1736
122 2202
122 2287
122 2604
122 2948
122 3019
122 3144
122 3870
122 4229
122 4442
122 4524
123 191
123 466
123 514
123 591
123 723
123 735
123 1002
123 1112
123 1210
123 1321
123 1341
123 1423
123 1517
123 1813
123 1951
123 2482
123 2527
123 3068
123 3087
123 3160
123 3343
123 3677
123 4041
123 4655
123 4703
123 4711
123 4747
123 4989
124 893
124 1100
124 1179
124 1257
124 1326
124 1579
124 1706
124 1857
124 2321
124 2659
124 2694
124 4246
124 4621
124 4974
125 388
125 564
125 698
125 1086
125 1137
125 1527
125 1605
125 1727
125 2287
125 2325
125 2495
125 2950
125 2975
125 3009
125 3406
125 3644
125 4041
125 4754
125 4828
126 266
126 274
126 294
126 584
126 1094
126 1725
126 1870
126 1904
126 1915
126 2074
126 2207
126 2215
126 2499
126 2747
126 3005
126 3572
126 3587
126 3812
126 4048
126 4245
126 4650
126 4948
126 4990
126 4998
127 387
127 739
127 836
127 980
127 1009
127 1265
127 1642
127 1969
127 2917
127 3421
127 3712
127 4577
127 4930
128 188
128 212
128 563
128 1005
128 1081
128 1167
128 1223
128 1506
128 1729
128 2353
128 2409
128 2710
128 2714
128 2784
128 3061
128 3402
128 3484
128 3674
128 3721
128 3839
128 3954
128 3992
128 4013
128 4258
128 4396
128 4440
128 4755
128 4777
128 4927
129 313
129 672
129 1032
129 1086
129 1136
129 1471
129 1498
129 1507
129 1540
129 2546
129 2685
129 2743
129 2747
129 2781
129 2856
129 2982
129 3228
129 3234
129 3492
129 3698
129 4231
129 4257
129 4334
129 4729
129 4754
129 4806
130 399
130 476
130 891
130 1048
130 1070
130 1127
130 1722
130 1805
130 2133
130 2254
130 2345
130 2459
130 2623
130 3770
130 3844
130 4137
130 4679
130 4976
131 321
131 368
131 487
131 541
131 1126
131 1405
131 1544
131 1858
131 2045
131 2109
131 2498
131 2600
131 3103
131 3287
131 3297
131 3495
131 3521
131 3587
131 3613
131 3888
131 3918
131 3958
131 4079
131 4227
131 4267
131 4275
131 4629
132 406
132 655
132 847
132 1042
132 1282
132 1330
132 1479
132 1518
132 1666
132 1811
132 1983
132 2361
132 2416
132 2593
132 2594
132 3039
132 3286
132 3562
132 3579
132 3733
132 3775
132 3851
132 3854
132 3876
132 4600
132 4604
132 4654
133 197
133 545
133 1278
133 1337
133 1686
133 1715
133 2049
133 2171
133 2300
133 2362
133 2385
133 2578
133 2754
133 3045
133 3678
133 3848
133 3966
133 3996
133 4016
133 4114
133 4449
133 4490
133 4567
133 4603
133 4627
133 4890
133 4926
134 197
134 377
134 535
134 1286
134 1379
134 1707
134 1719
134 1771
134 1844
134 1850
134 1937
134 3078
134 3168
134 3512
134 4281
134 4432
134 4655
135 162
135 526
135 1066
135 1413
135 1514
135 1936
135 2089
135 2363
135 2371
135 3151
135 3355
135 3647
135 4499
136 251
136 691
136 749
136 858
136 901
136 1124
136 1133
136 1288
136 1640
136 1901
136 2143
136 2593
136 2730
136 2876
136 2990
136 3082
136 3196
136 3617
136 3757
136 4520
136 4697
136 4898
137 192
137 417
137 451
137 728
137 1100
137 1226
137 1412
137 1470
137 1487
137 1497
137 1638
137 1820
137 1842
137 2016
137 2188
137 2350
137 2756
137 3009
137 3342
137 3640
137 4160
137 4169
137 4211
137 4405
137 4566
137 4602
138 365
138 1086
138 1143
138 1359
138 1397
138 2087
138 2089
138 2262
138 2316
138 2335
138 2355
138 2491
138 2792
138 3009
138 3134
138 3351
138 3629
138 3969
138 4222
138 4367
138 4421
138 4658
138 4875
138 4896
139 393
139 628
139 663
139 862
139 912
139 1488
139 1851
139 1999
139 2291
139 2376
139 2937
139 3107
139 3492
139 3562
139 3658
139 3798
139 4132
139 4784
140 420
140 496
140 780
140 1020
140 1526
140 1925
140 2115
140 2138
140 2808
140 3193
140 3501
140 4404
140 4992
141 178
141 393
141 915
141 1328
141 1519
141 1995
141 1998
141 3231
141 3351
141 3442
141 3649
141 3949
141 4219
141 4524
141 4754
142 267
142 442
142 1342
142 1397
142 1552
142 1553
142 1917
142 2706
142 3459
142 3697
142 4256
142 4299
142 4656
142 4911
143 196
143 283
143 501
143 1031
143 1195
143 2145
143 2150
143 2348
143 2667
143 2946
143 3080
143 3145
143 3328
143 3472
143 3484
143 3752
143 3862
143 4511
144 220
144 289
144 618
144 733
144 757
144 868
144 904
144 969
144 1018
144 1323
144 1360
144 1368
144 1430
144 1761
144 1998
144 2011
144 2083
144 2414
144 2598
144 2728
144 2909
144 3039
144 3314
144 3441
144 3568
144 3664
144 3704
144 3746
144 3864
144 3933
144 4547
144 4742
145 815
145 1139
145 2404
145 2685
145 3329
145 3440
145 3508
145 3929
145 3951
145 4523
145 4964
146 612
146 962
146 1047
146 1160
146 1385
146 1498
146 1853
146 2175
146 2260
146 2323
146 2343
146 2709
146 3017
146 3310
146 3501
146 3642
146 3789
146 4321
146 4433
146 4506
146 4670
146 4681
146 4699
146 4771
147 224
147 234
147 302
147 448
147 492
147 772
147 820
147 1008
147 1234
147 1528
147 1550
147 1675
147 1698
147 1712
147 1803
147 2282
147 2343
147 2644
147 2748
147 2799
147 2838
147 2950
147 3020
147 3523
147 3537
147 3707
147 3729
147 3904
147 3936
147 3965
147 4012
147 4066
147 4487
147 4584
147 4661
147 4760
147 4782
147 4801
147 4812
147 4827
147 4958
147 4964
148 162
148 713
148 1028
148 1107
148 1231
148 1361
148 1534
148 1716
148 1762
148 1916
148 1984
148 2197
148 2571
148 2656
148 3170
148 3176
148 3532
148 3725
148 4127
148 4359
148 4541
148 4550
148 4567
148 4788
149 350
149 421
149 465
149 805
149 955
149 1057
149 1079
149 1509
149 1671
149 1711
149 1782
149 2139
149 2272
149 2308
149 2324
149 2332
149 2397
149 2787
149 2975
149 3004
149 3226
149 3329
149 3395
149 3443
149 3507
149 3510
149 3688
149 3822
149 4163
149 4361
149 4558
149 4598
149 4756
149 4771
150 270
150 870
150 928
150 1210
150 1460
150 1476
150 1547
150 1906
150 2084
150 2286
150 2509
150 2560
150 2637
150 2740
150 3008
150 3029
150 3995
150 4019
150 4080
150 4268
150 4339
150 4388
150 4483
150 4561
150 4565
150 4673
150 4947
151 236
151 969
151 1045
151 1125
151 1472
151 1767
151 1795
151 1864
151 2302
151 2335
151 2394
151 2442
151 2588
151 2714
151 2752
151 2806
151 2861
151 3018
151 3151
151 3237
151 3548
151 3556
151 4049
151 4315
151 4358
151 4449
151 4543
151 4728
152 1055
152 1152
152 1367
152 2180
152 2943
152 2965
152 3116
152 3384
152 3497
152 3737
152 4083
152 4123
152 4206
152 4293
152 4380
152 4785
153 367
153 473
153 498
153 806
153 1699
153 2917
153 3193
153 3762
153 3818
153 3843
153 4121
153 4478
153 4833
153 4957
154 459
154 545
154 944
154 1385
154 1618
154 2203
154 2220
154 2658
154 2835
154 3067
154 3075
154 3332
154 3410
154 3527
154 3855
154 3932
154 4254
154 4532
154 4810
155 320
155 473
155 523
155 871
155 1322
155 1382
155 1399
155 1475
155 1620
155 2305
155 2589
155 3064
155 3340
155 3355
155 3464
155 3591
155 3609
155 3688
155 3807
155 4021
155 4140
155 4400
155 4706
156 295
156 384
156 1081
156 1220
156 1628
156 2307
156 2538
156 4071
156 4396
156 4407
156 4464
156 4567
156 4588
156 4722
156 4880
156 4940
157 1035
157 1243
157 1906
157 1916
157 2644
157 2706
157 2843
157 3110
157 3384
157 3985
157 4008
157 4119
157 4168
157 4234
157 4940
158 1057
158 1077
158 1091
158 1414
158 1763
158 2157
158 2444
158 2488
158 2544
158 2584
158 3056
158 3289
158 3498
158 3557
158 3594
158 3660
158 3911
158 4477
158 4563
158 4570
158 4857
158 4894
159 398
159 414
159 430
159 518
159 553
159 1321
159 1453
159 2299
159 2400
159 2542
159 2655
159 2706
159 2728
159 2734
159 2862
159 2927
159 3198
159 3427
159 3766
159 3771
159 3776
159 3992
159 4173
159 4280
159 4301
159 4318
159 4881
159 4962
160 595
160 628
160 1107
160 1381
160 1803
160 1922
160 2356
160 2358
160 2598
160 2842
160 3078
160 3299
160 3348
160 3661
160 4047
160 4354
160 4523
161 517
161 603
161 609
161 650
161 761
161 809
161 821
161 1222
161 1455
161 2111
161 2601
161 3384
161 3619
161 3699
161 3830
161 4143
161 4283
161 4512
161 4604
161 4859
162 359
162 401
162 453
162 537
162 980
162 1005
162 1190
162 1197
162 1286
162 1296
162 1407
162 1493
162 1550
162 1581
162 1603
162 1670
162 1753
162 1793
162 1880
162 1954
162 2190
162 2301
162 2616
162 2856
162 2886
162 2998
162 3002
162 3190
162 3306
162 3358
162 3581
162 3698
162 3793
162 3926
162 3936
162 4267
162 4387
162 4411
162 4762
163 314
163 619
163 658
163 1164
163 1201
163 1607
163 1682
163 2009
163 2010
163 2293
163 2487
163 2612
163 4317
163 4604
163 4697
164 266
164 283
164 290
164 355
164 364
164 390
164 410
164 453
164 650
164 746
164 908
164 988
164 1031
164 1264
164 1501
164 1589
164 1666
164 1698
164 1701
164 1820
164 1837
164 1848
164 2198
164 2257
164 2414
164 2767
164 2851
164 3009
164 3162
164 3342
164 3345
164 3366
164 3403
164 3759
164 3872
164 4049
164 4247
164 4608
164 4789
165 323
165 472
165 718
165 1666
165 1669
165 1777
165 1959
165 2093
165 2305
165 2432
165 2765
165 3058
165 3090
165 3295
165 3872
165 3992
165 4028
165 4163
165 4489
166 250
166 358
166 390
166 584
166 598
166 660
166 731
166 818
166 920
166 936
166 1014
166 1017
166 1124
166 1136
166 1137
166 1138
166 1193
166 1300
166 1308
166 1445
166 1602
166 1604
166 1664
166 1710
166 2116
166 2120
166 2167
166 2169
166 2189
166 2201
166 2210
166 2335
166 2462
166 2492
166 2727
166 2831
166 2885
166 2947
166 2996
166 3048
166 3056
166 3140
166 3199
166 3200
166 3256
166 3264
166 3359
166 3375
166 3474
166 3512
166 3629
166 3850
166 3866
166 4157
166 4520
166 4681
166 4835
166 4904
167 289
167 853
167 1587
167 1706
167 1736
167 2175
167 2258
167 2295
167 2509
167 3020
167 3148
167 3658
167 3759
167 4412
167 4456
167 4571
167 4805
168 387
168 656
168 888
168 1361
168 1428
168 1713
168 2221
168 2304
168 2332
168 2545
168 2625
168 2860
168 3115
168 3398
168 3809
168 4047
168 4068
168 4227
168 4340
168 4481
168 4507
168 4808
168 4912
169 820
169 1144
169 1266
169 1467
169 1668
169 2728
169 3256
169 3281
169 3364
169 3549
169 3831
169 3973
169 4644
169 4980
170 265
170 626
170 896
170 964
170 1045
170 1076
170 1306
170 1324
170 1467
170 1605
170 2173
170 2302
170 2321
170 2908
170 2949
170 3031
170 3308
170 3496
170 3783
170 4729
171 272
171 434
171 646
171 684
171 797
171 813
171 941
171 1079
171 1623
171 1653
171 1720
171 2029
171 2479
171 2678
171 2955
171 3116
171 3182
171 3185
171 3621
171 3627
171 3672
171 3769
171 4049
171 4052
171 4077
171 4138
171 4139
171 4726
171 4731
171 4734
171 4737
171 4855
171 4957
172 981
172 1151
172 1453
172 1650
172 2120
172 2126
172 2177
172 2466
172 2676
172 2736
172 2739
172 3126
172 3193
172 3207
172 3331
172 3724
172 3905
172 4137
172 4151
172 4532
172 4731
173 425
173 539
173 1620
173 1720
173 1770
173 1848
173 1898
173 2600
173 2647
173 2705
173 2850
173 3014
173 3295
173 3344
173 3379
173 3398
173 3466
173 3468
173 3603
173 3607
173 3853
173 4087
174 210
174 220
174 414
174 436
174 580
174 895
174 1478
174 1662
174 1717
174 1742
174 1833
174 1912
174 1916
174 2352
174 2538
174 2587
174 2722
174 3033
174 3058
174 3082
174 3492
174 3914
174 3975
174 4380
174 4389
174 4537
174 4610
174 4760
174 4834
174 4861
175 798
175 822
175 1271
175 1321
175 1468
175 1686
175 2092
175 2733
175 3376
175 3537
175 3579
175 4020
175 4039
175 4476
175 4479
175 4831
176 205
176 356
176 623
176 896
176 1074
176 1216
176 1436
176 1958
176 2018
176 2120
176 2218
176 2431
176 2955
176 3205
176 4025
176 4346
177 230
177 1315
177 1533
177 2324
177 2362
177 2513
177 2604
177 2824
177 2848
177 2888
177 2981
177 3314
177 3604
177 3733
177 4571
177 4594
177 4610
178 318
178 373
178 498
178 922
178 925
178 1136
178 1224
178 1357
178 1455
178 1514
178 1532
178 1534
178 1634
178 1687
178 1769
178 2021
178 2360
178 2741
178 3024
178 3124
178 3316
178 3533
178 3636
178 3699
178 4139
178 4463
178 4538
178 4653
179 242
179 337
179 454
179 492
179 659
179 741
179 1185
179 1500
179 1512
179 1855
179 1930
179 2066
179 2070
179 2099
179 2271
179 2438
179 3084
179 3230
179 3468
179 3744
179 3915
179 4010
179 4077
179 4103
179 4264
179 4864
179 4973
180 408
180 433
180 823
180 842
180 868
180 979
180 1294
180 1413
180 1474
180 1566
180 1682
180 1704
180 1830
180 1983
180 2022
180 2079
180 2252
180 2265
180 2411
180 2418
180 2620
180 2672
180 2673
180 2735
180 3121
180 3282
180 3297
180 3325
180 3349
180 3500
180 3787
180 3966
180 4043
180 4085
180 4116
180 4132
180 4336
180 4374
180 4378
180 4960
181 308
181 351
181 690
181 948
181 1028
181 1584
181 1718
181 2319
181 2356
181 2567
181 2816
181 2936
181 2944
181 3096
181 3251
181 3378
181 3392
181 3423
181 3517
181 3616
181 3683
181 3690
181 3781
181 4137
181 4539
181 4597
182 185
182 278
182 386
182 407
182 563
182 1125
182 1446
182 1853
182 2159
182 2862
182 3070
182 3296
182 3539
182 3692
182 3713
182 4049
183 1838
183 2113
183 2141
183 2220
183 2320
183 2523
183 2949
183 2984
183 3058
183 3076
183 3145
183 3249
183 3669
183 3735
183 3887
183 3996
183 4005
183 4126
183 4129
183 4263
183 4410
183 4805
184 612
184 644
184 773
184 1093
184 1198
184 1412
184 1529
184 2120
184 2126
184 2370
184 2574
184 2936
184 3571
184 3616
184 4368
184 4729
185 385
185 567
185 1018
185 1465
185 1533
185 1938
185 2077
185 2099
185 2714
185 3070
185 3198
185 3331
185 3423
185 3584
185 3630
185 3766
185 4024
185 4497
185 4596
186 187
186 224
186 313
186 488
186 504
186 658
186 812
186 944
186 1005
186 1078
186 1087
186 1266
186 1289
186 1347
186 1382
186 1440
186 1590
186 1698
186 1779
186 1842
186 1984
186 2020
186 2059
186 2068
186 2188
186 2193
186 2200
186 2228
186 2246
186 2255
186 2283
186 2353
186 2370
186 2550
186 2552
186 2608
186 2725
186 2904
186 3046
186 3378
186 3492
186 3509
186 3565
186 3644
186 3674
186 3717
186 3800
186 3813
186 3938
186 3959
186 4018
186 4112
186 4241
186 4297
186 4469
186 4528
186 4724
186 4803
186 4927
187 306
187 393
187 1304
187 1700
187 1870
187 3252
187 3423
187 3558
187 3743
187 4068
187 4152
187 4271
187 4685
188 227
188 410
188 427
188 492
188 496
188 537
188 751
188 788
188 1143
188 1191
188 1211
188 1301
188 1370
188 1379
188 1436
188 1504
188 1699
188 1937
188 1972
188 2127
188 2193
188 2209
188 2421
188 2539
188 2632
188 2718
188 2793
188 2891
188 2937
188 2970
188 2985
188 2995
188 3116
188 3152
188 3168
188 3261
188 3265
188 3285
188 3506
188 3530
188 3560
188 3692
188 3896
188 3958
188 3966
188 4025
188 4061
188 4079
188 4112
188 4119
188 4225
188 4281
188 4547
188 4628
188 4799
188 4923
188 4937
188 4964
189 579
189 946
189 999
189 1019
189 1461
189 1774
189 1784
189 1785
189 1954
189 2017
189 2108
189 2318
189 2386
189 2479
189 2616
189 2795
189 2931
189 3527
189 3843
189 3989
189 4001
189 4523
189 4755
190 253
190 1066
190 1573
190 1605
190 1644
190 1890
190 2056
190 2909
190 3277
190 3448
190 3931
190 4262
190 4349
190 4543
190 4762
191 415
191 740
191 1023
191 1093
191 1107
191 2051
191 2432
191 2816
191 3606
191 3729
191 3958
191 4894
192 684
192 790
192 1061
192 1179
192 1902
192 2347
192 2453
192 2472
192 3252
192 3366
192 3596
192 3648
192 3697
192 4389
192 4895
193 209
193 255
193 1105
193 1614
193 1778
193 1883
193 2358
193 2717
193 2759
193 3335
193 3587
193 3677
193 4543
193 4742
194 275
194 357
194 417
194 542
194 573
194 664
194 792
194 843
194 1208
194 1337
194 2010
194 2346
194 2391
194 2679
194 2961
194 3612
194 3710
194 3937
194 4068
195 470
195 646
195 657
195 672
195 774
195 907
195 911
195 1143
195 1293
195 1305
195 1440
195 1583
195 1634
195 1659
195 1899
195 1971
195 1988
195 2359
195 2514
195 2631
195 2696
195 2758
195 2869
195 2897
195 2903
195 3097
195 3480
195 3572
195 3632
195 3692
195 3725
195 3791
195 3817
195 3821
195 3889
195 4054
195 4147
195 4172
195 4330
195 4509
195 4521
195 4537
195 4613
195 4742
195 4864
195 4965
196 374
196 648
196 1316
196 1511
196 1655
196 1754
196 2102
196 2246
196 2312
196 2385
196 2464
196 2819
196 3093
196 3137
196 3484
196 3533
196 4082
196 4146
196 4177
196 4365
196 4420
196 4911
196 4995
197 384
197 417
197 424
197 535
197 604
197 680
197 926
197 1004
197 1019
197 1039
197 1137
197 1199
197 1261
197 1351
197 1374
197 1389
197 1391
197 1412
197 1626
197 1806
197 1955
197 2101
197 2165
197 2418
197 2435
197 2532
197 2752
197 2760
197 2792
197 2873
197 2938
197 2992
197 3010
197 3069
197 3105
197 3205
197 3327
197 3332
197 3343
197 3552
197 3573
197 3633
197 3665
197 3672
197 3676
197 3677
197 3875
197 3893
197 4026
197 4044
197 4045
197 4179
197 4185
197 4216
197 4278
197 4338
197 4375
197 4381
197 4524
197 4620
197 4653
197 4661
197 4730
197 4756
197 4844
197 4942
197 4951
198 516
198 1114
198 1340
198 1394
198 1498
198 1511
198 1641
198 1920
198 2056
198 2159
198 2443
198 2467
198 2579
198 3457
198 3535
198 3681
198 3755
198 3789
198 3805
198 4001
198 4011
198 4047
198 4628
198 4697
198 4992
199 579
199 1790
199 1929
199 2241
199 2511
199 2612
199 2613
199 2816
199 3107
199 3110
199 3195
199 3406
199 3964
199 4594
199 4628
199 4936
200 1112
200 1379
200 1446
200 1656
200 1657
200 2170
200 2218
200 2246
200 2694
200 2847
200 2866
200 2911
200 2913
200 3180
200 3208
200 3346
200 3567
200 3588
200 3651
200 4268
200 4313
200 4547
201 225
201 1306
201 1332
201 1355
201 1427
201 1573
201 1788
201 1935
201 2360
201 2790
201 3716
201 4001
201 4521
201 4625
201 4803
202 491
202 1121
202 1314
202 1433
202 1529
202 1942
202 2019
202 2145
202 2261
202 2622
202 2915
202 3173
202 3550
202 3612
202 4101
202 4177
202 4522
202 4532
203 301
203 790
203 999
203 1242
203 1504
203 1946
203 1970
203 2636
203 2935
203 2996
203 3303
203 3367
203 3795
203 3847
203 4031
203 4483
203 4621
203 4749
203 4788
204 226
204 659
204 803
204 844
204 955
204 1007
204 1581
204 1731
204 1879
204 1990
204 2432
204 2619
204 2625
204 2990
204 3026
204 3271
204 3406
204 3526
204 3582
204 3645
204 3761
204 3768
204 3895
204 4147
204 4152
204 4213
204 4358
204 4494
204 4587
204 4750
204 4804
204 4884
205 213
205 256
205 1028
205 1086
205 1130
205 1154
205 1398
205 1425
205 1692
205 2024
205 2600
205 2829
205 2920
205 3193
205 3375
205 3384
205 3556
206 216
206 341
206 361
206 750
206 891
206 1170
206 1406
206 1565
206 1817
206 1878
206 2240
206 2303
206 2317
206 2597
206 2689
206 2805
206 2990
206 3105
206 3322
206 3334
206 3571
206 3802
206 4278
206 4340
206 4834
207 246
207 809
207 1051
207 1512
207 1685
207 1787
207 2348
207 2530
207 2685
207 3549
207 3773
207 4070
207 4133
207 4267
208 240
208 419
208 695
208 980
208 1107
208 1179
208 1490
208 1532
208 2028
208 2135
208 2242
208 2429
208 2925
208 2973
208 3033
208 3135
208 3242
208 3262
208 3335
208 3366
208 3678
208 4058
208 4280
208 4617
208 4621
208 4772
209 409
209 492
209 650
209 1248
209 1281
209 1392
209 1960
209 2219
209 2513
209 2668
209 2765
209 3306
209 3508
209 3688
209 3804
209 4041
209 4196
209 4456
209 4638
209 4885
210 506
210 786
210 836
210 1131
210 1465
210 1545
210 1735
210 2162
210 2305
210 3102
210 3174
210 3219
210 3242
210 3646
210 3984
210 4236
210 4373
210 4788
210 4883
211 343
211 459
211 565
211 869
211 1232
211 1254
211 1731
211 2321
211 2356
211 2370
211 2988
211 3188
211 3310
211 3440
211 3635
211 3692
211 3733
211 3776
211 3835
211 4024
211 4080
211 4372
211 4428
211 4796
211 4917
211 4945
211 4951
212 482
212 764
212 1307
212 1512
212 1581
212 1849
212 1929
212 2207
212 2564
212 2700
212 2791
212 2803
212 3004
212 3095
212 3400
212 3553
212 3618
212 4147
212 4264
212 4387
213 353
213 496
213 627
213 1100
213 1497
213 1710
213 2477
213 2567
213 3181
213 3430
213 3576
213 3719
213 3839
213 4327
213 4777
214 397
214 445
214 763
214 831
214 843
214 1616
214 1634
214 1888
214 2286
214 2347
214 2413
214 2470
214 3136
214 3725
214 3771
214 4401
214 4532
214 4668
214 4841
215 341
215 461
215 545
215 568
215 981
215 1728
215 1735
215 1820
215 2171
215 2334
215 2484
215 2555
215 2609
215 2649
215 3145
215 3593
215 3952
215 3970
215 4296
215 4652
215 4786
216 301
216 924
216 1675
216 1906
216 2134
216 2407
216 2668
216 2699
216 3148
216 3244
216 3254
216 3363
216 3434
216 3687
216 3805
216 3917
216 4068
216 4292
216 4713
216 4831
216 4917
217 511
217 549
217 594
217 1146
217 1162
217 1364
217 1691
217 1988
217 2254
217 2359
217 2469
217 2995
217 3143
217 3155
217 3289
217 3297
217 3402
217 4375
217 4465
217 4538
217 4776
217 4963
217 4984
218 300
218 408
218 731
218 1007
218 1040
218 1081
218 1093
218 1726
218 1888
218 2180
218 2303
218 2393
218 2511
218 2715
218 2969
218 3149
218 3169
218 3221
218 4065
218 4250
218 4398
218 4455
218 4815
218 4824
218 4838
219 461
219 1046
219 1049
219 1126
219 1391
219 1535
219 1957
219 2100
219 2270
219 2323
219 2433
219 2541
219 2640
219 2859
219 2867
219 3176
219 3622
219 3731
219 3766
219 4245
219 4888
220 281
220 287
220 331
220 428
220 684
220 784
220 808
220 856
220 923
220 995
220 1010
220 1100
220 1182
220 1188
220 1281
220 1413
220 1546
220 1561
220 1565
220 1751
220 1806
220 1845
220 1877
220 1973
220 2068
220 2158
220 2325
220 2331
220 2508
220 2633
220 2854
220 3035
220 3076
220 3145
220 3182
220 3276
220 3302
220 3345
220 3361
220 3397
220 3510
220 3550
220 3736
220 3770
220 3795
220 4079
220 4103
220 4303
220 4304
220 4347
220 4355
220 4540
220 4567
220 4833
220 4980
220 4986
221 591
221 808
221 895
221 1031
221 1144
221 1299
221 1411
221 1523
221 1820
221 2055
221 2250
221 2634
221 2943
221 3303
221 3603
221 3627
221 3715
221 4090
221 4212
221 4380
221 4691
221 4697
221 4761
222 445
222 799
222 906
222 1054
222 1131
222 1669
222 1747
222 1751
222 1918
222 2218
222 2671
222 3387
222 3697
222 3930
222 4068
222 4144
222 4296
222 4323
222 4506
222 4535
222 4797
223 267
223 286
223 337
223 605
223 612
223 773
223 796
223 908
223 981
223 1102
223 1321
223 1450
223 1480
223 1609
223 1618
223 1987
223 2569
223 2585
223 2895
223 3771
223 4275
223 4773
223 4887
224 353
224 629
224 866
224 1219
224 2002
224 2143
224 2307
224 2405
224 2679
224 3038
224 3150
224 3542
224 3756
224 4101
224 4183
224 4264
224 4336
224 4893
224 4911
225 872
225 945
225 1050
225 1370
225 1531
225 1666
225 1764
225 1931
225 2035
225 2382
225 2537
225 2924
225 3037
225 3068
225 3075
225 3337
225 3366
225 3721
225 4115
225 4169
225 4766
225 4806
225 4857
226 432
226 612
226 864
226 1170
226 1219
226 1473
226 1863
226 2236
226 2343
226 2367
226 2400
226 2799
226 2802
226 2852
226 2998
226 3058
226 3192
226 3456
226 3750
226 3822
226 3837
226 3891
226 4164
226 4304
226 4385
226 4464
226 4680
226 4957
227 677
227 691
227 923
227 1199
227 1854
227 1920
227 1987
227 2037
227 2178
227 2201
227 2254
227 2348
227 2574
227 3530
227 4359
228 239
228 313
228 336
228 502
228 985
228 1098
228 1562
228 1705
228 1939
228 1954
228 2157
228 2848
228 2986
228 3124
228 3140
228 3550
228 3926
228 4160
228 4201
228 4278
228 4466
228 4500
228 4505
228 4595
229 313
229 854
229 1004
229 1086
229 1112
229 1949
229 1960
229 2477
229 2739
229 2767
229 3453
229 3533
229 3748
229 4489
229 4723
230 467
230 540
230 621
230 929
230 951
230 1300
230 1565
230 1671
230 1690
230 2587
230 2631
230 2854
230 3248
230 3359
230 3366
230 4050
230 4213
230 4467
230 4621
230 4655
231 290
231 742
231 778
231 1384
231 1490
231 2030
231 2531
231 3024
231 3105
231 3216
231 3416
231 3441
231 3831
231 3939
231 4158
231 4269
231 4277
231 4760
231 4814
232 278
232 314
232 489
232 523
232 706
232 837
232 950
232 1263
232 1353
232 2099
232 2322
232 2706
232 3001
232 3108
232 3492
232 3674
232 3691
232 4765
233 954
233 1027
233 1311
233 1530
233 1532
233 2623
233 2699
233 2944
233 3057
233 3121
233 3336
233 3398
233 3548
233 3722
233 3738
233 4359
234 336
234 479
234 488
234 570
234 726
234 824
234 981
234 994
234 1024
234 1036
234 1125
234 1342
234 1396
234 1432
234 1458
234 1464
234 1510
234 1533
234 1801
234 1899
234 1994
234 2056
234 2077
234 2145
234 2210
234 2258
234 2276
234 2427
234 2507
234 2604
234 2727
234 2777
234 2861
234 2872
234 3000
234 3053
234 3073
234 3561
234 3621
234 3641
234 3652
234 3659
234 3822
234 3839
234 4001
234 4070
234 4120
234 4150
234 4177
234 4180
234 4181
234 4320
234 4408
234 4443
234 4507
234 4705
235 356
235 880
235 929
235 1053
235 1978
235 2644
235 2793
235 2877
235 3011
235 3168
235 4307
235 4388
235 4447
236 697
236 765
236 862
236 933
236 1110
236 1116
236 1420
236 1556
236 1641
236 1750
236 1777
236 1949
236 2555
236 2983
236 3050
236 3305
236 3362
236 3431
236 3553
236 3703
236 4053
236 4649
237 289
237 346
237 439
237 507
237 676
237 841
237 933
237 1397
237 1465
237 1579
237 1586
237 1981
237 3335
237 3425
237 3744
237 4026
237 4165
237 4623
237 4818
238 568
238 714
238 724
238 918
238 1228
238 1288
238 1878
238 2078
238 2856
238 2861
238 3428
238 3577
238 3661
238 3968
238 3998
238 4236
238 4292
238 4503
238 4647
239 247
239 332
239 343
239 1224
239 1288
239 1316
239 1555
239 2423
239 2501
239 2516
239 2723
239 2842
239 2985
239 3043
239 3172
239 3548
239 3913
239 4187
239 4247
239 4274
239 4540
239 4628
239 4772
239 4992
240 388
240 928
240 941
240 1246
240 1360
240 1449
240 1484
240 1519
240 1723
240 1953
240 1979
240 2009
240 2106
240 2409
240 2516
240 2568
240 2632
240 2753
240 2796
240 2945
240 2948
240 3012
240 3077
240 3083
240 3144
240 3335
240 3405
240 3627
240 3744
240 3763
240 3769
240 3810
240 3846
240 3914
240 4040
240 4065
240 4206
240 4432
240 4721
240 4775
240 4814
240 4941
240 4987
241 440
241 515
241 772
241 791
241 1013
241 1397
241 1560
241 1613
241 2622
241 2641
241 2685
241 2992
241 3721
241 3796
241 3850
241 4167
241 4290
241 4314
241 4982
242 353
242 495
242 846
242 1164
242 1196
242 1442
242 1542
242 1573
242 1731
242 2272
242 2805
242 3517
243 697
243 869
243 954
243 2196
243 3338
243 3462
243 4263
243 4400
243 4593
243 4594
243 4746
243 4911
243 4936
244 245
244 393
244 585
244 606
244 657
244 724
244 765
244 864
244 1003
244 1041
244 1045
244 1136
244 1213
244 1270
244 1440
244 1496
244 1540
244 1673
244 1723
244 1751
244 1962
244 2078
244 2098
244 2259
244 2266
244 2308
244 2385
244 2416
244 2469
244 2541
244 2543
244 2558
244 2641
244 2642
244 2670
244 2817
244 2876
244 2961
244 2973
244 3049
244 3055
244 3072
244 3122
244 3238
244 3477
244 3644
244 3687
244 3778
244 3805
244 3920
244 4033
244 4366
244 4490
244 4517
244 4593
244 4701
244 4715
244 4724
244 4882
245 310
245 1237
245 1587
245 1757
245 2280
245 2349
245 2575
245 2710
245 3164
245 3300
245 3606
245 3771
245 3781
245 4594
245 4639
245 4819
245 4902
245 4957
246 602
246 926
246 1023
246 1397
246 1499
246 1606
246 1682
246 1967
246 2082
246 2200
246 2451
246 2656
246 2677
246 2718
246 2795
246 3311
246 3669
246 3787
246 4183
246 4324
246 4360
246 4489
246 4817
246 4975
247 905
247 1012
247 1383
247 1969
247 2113
247 3037
247 3395
247 3490
247 4158
247 4580
247 4863
248 299
248 634
248 669
248 860
248 1284
248 1304
248 1424
248 1694
248 1762
248 2026
248 2511
248 2736
248 2856
248 2928
248 2939
248 3283
248 3535
248 3615
248 3721
248 3738
248 3742
248 3853
248 3930
248 3958
248 4154
248 4661
248 4812
248 4920
248 4970
249 313
249 329
249 346
249 348
249 367
249 383
249 402
249 474
249 479
249 504
249 534
249 563
249 638
249 693
249 746
249 890
249 972
249 1029
249 1050
249 1282
249 1574
249 1605
249 1700
249 1720
249 1896
249 1902
249 1988
249 2166
249 2177
249 2255
249 2326
249 2347
249 2383
249 2628
249 2647
249 2653
249 2759
249 2772
249 2977
249 3133
249 3163
249 3509
249 3639
249 3878
249 3901
249 3965
249 4193
249 4232
249 4252
249 4273
249 4405
249 4496
249 4551
249 4576
249 4590
249 4657
249 4750
249 4776
249 4875
249 4911
249 4936
249 4998
250 355
250 522
250 724
250 926
250 1086
250 1290
250 1996
250 2304
250 2498
250 2580
250 2600
250 3140
250 3473
250 3739
250 3930
250 4240
250 4497
250 4717
251 875
251 1280
251 1516
251 1557
251 1593
251 1798
251 2056
251 2073
251 2259
251 2855
251 2921
251 3011
251 3419
251 4644
251 4701
252 359
252 409
252 413
252 750
252 815
252 873
252 1114
252 1171
252 1223
252 1302
252 1371
252 1542
252 2137
252 2150
252 2337
252 2353
252 2362
252 2888
252 2971
252 3239
252 3495
252 3789
252 4103
252 4163
252 4250
252 4281
252 4301
252 4412
252 4681
252 4760
252 4971
253 529
253 1490
253 1633
253 2240
253 2467
253 2602
253 2646
253 2722
253 2773
253 3042
253 3294
253 3670
253 4068
253 4115
253 4229
253 4669
253 4681
254 351
254 381
254 746
254 796
254 926
254 1410
254 1466
254 2272
254 2443
254 2520
254 2973
254 3041
254 3561
254 3581
254 3790
254 4585
254 4668
254 4678
254 4941
255 662
255 958
255 1160
255 1351
255 1472
255 1599
255 1751
255 1975
255 2071
255 2075
255 2136
255 2147
255 2179
255 2223
255 2327
255 2493
255 2635
255 2688
255 2711
255 2740
255 2771
255 2910
255 3145
255 3151
255 3276
255 3487
255 3525
255 3875
255 4237
255 4364
255 4625
255 4653
255 4747
255 4813
255 4896
255 4940
256 357
256 1195
256 1264
256 1358
256 1372
256 1404
256 1434
256 1461
256 1537
256 1812
256 1940
256 2351
256 2592
256 2728
256 2730
256 3079
256 3097
256 3306
256 3697
256 4237
257 533
257 672
257 834
257 984
257 1359
257 1453
257 1524
257 2381
257 2864
257 2918
257 3360
257 3909
257 4014
257 4496
257 4595
257 4670
257 4823
257 4898
257 4982
258 366
258 892
258 1524
258 1715
258 1734
258 1785
258 1863
258 1904
258 2335
258 2359
258 2401
258 2418
258 2984
258 3083
258 3113
258 3462
258 3517
258 3533
258 3850
258 4288
258 4689
258 4816
259 319
259 369
259 381
259 542
259 735
259 739
259 823
259 879
259 951
259 1099
259 1224
259 1440
259 1663
259 1711
259 1990
259 2072
259 2213
259 2478
259 2498
259 2666
259 2776
259 2933
259 2960
259 2990
259 3000
259 3124
259 3267
259 3318
259 3388
259 3663
259 3830
259 4006
259 4077
259 4142
259 4181
259 4213
259 4280
259 4302
259 4424
259 4588
259 4601
259 4621
259 4832
259 4838
260 614
260 706
260 725
260 820
260 1028
260 1571
260 1622
260 2050
260 2272
260 2305
260 3343
260 3454
261 363
261 396
261 444
261 619
261 659
261 1309
261 1374
261 2049
261 2056
261 2145
261 2276
261 2334
261 2838
261 2853
261 3428
261 3464
261 3762
261 3991
261 4198
261 4211
261 4267
261 4522
262 354
262 882
262 1037
262 1354
262 1526
262 1571
262 1600
262 1869
262 2004
262 2071
262 2093
262 2192
262 2791
262 2811
262 3348
262 3936
262 3998
262 4212
262 4346
262 4571
262 4604
263 299
263 354
263 847
263 994
263 1325
263 1748
263 2025
263 2078
263 2388
263 3050
263 3331
263 3554
263 3597
263 3682
263 4573
263 4635
264 358
264 834
264 1363
264 2028
264 2940
264 2950
264 3286
264 3314
264 3726
264 3729
264 3833
264 4506
264 4958
265 489
265 993
265 1436
265 1646
265 1935
265 2246
265 2529
265 2586
265 2823
265 3006
265 3326
265 3865
265 3984
265 4033
265 4055
265 4434
265 4517
265 4846
265 4947
265 4995
266 339
266 388
266 451
266 480
266 522
266 559
266 678
266 785
266 863
266 972
266 1060
266 1095
266 1140
266 1155
266 1187
266 1189
266 1278
266 1300
266 1304
266 1452
266 1603
266 1624
266 1698
266 1818
266 1921
266 2101
266 2117
266 2146
266 2272
266 2275
266 2306
266 2312
266 2377
266 2379
266 2460
266 2559
266 2597
266 2676
266 2708
266 2992
266 3018
266 3024
266 3031
266 3050
266 3096
266 3237
266 3314
266 3377
266 3394
266 3456
266 3473
266 3486
266 3520
266 3532
266 3537
266 3630
266 3679
266 3714
266 3734
266 3778
266 3789
266 3823
266 3858
266 4004
266 4019
266 4051
266 4217
266 4345
266 4378
266 4393
266 4415
266 4424
266 4514
266 4744
266 4785
266 4830
266 4881
266 4954
267 348
267 350
267 955
267 1019
267 1125
267 1165
267 1224
267 1325
267 1367
267 1412
267 1509
267 1587
267 1735
267 1927
267 2284
267 2285
267 2357
267 2562
267 2632
267 2791
267 2990
267 3033
267 3107
267 3196
267 3223
267 3266
267 3367
267 3425
267 3453
267 3583
267 3753
267 3851
267 4006
267 4189
267 4310
267 4505
267 4516
267 4637
267 4830
268 686
268 1583
268 1895
268 2422
268 2719
268 2762
268 2850
268 2863
268 2869
268 3568
268 3813
268 3915
268 4000
268 4152
268 4448
268 4761
269 300
269 421
269 559
269 601
269 631
269 685
269 760
269 767
269 786
269 1090
269 1148
269 1379
269 1417
269 1692
269 1927
269 1941
269 2297
269 2377
269 2592
269 2608
269 2746
269 2837
269 2871
269 3043
269 3231
269 3369
269 3523
269 3792
269 3885
269 4242
269 4496
269 4513
269 4681
269 4722
270 885
270 896
270 1527
270 1925
270 1991
270 3059
270 3200
270 3268
270 3451
270 3533
270 3845
270 3948
270 4144
270 4313
270 4791
271 315
271 716
271 900
271 1734
271 1949
271 2274
271 2280
271 2281
271 2495
271 2592
271 2954
271 2977
271 3187
271 3210
271 3955
271 3972
271 3988
271 3997
271 4078
271 4480
271 4953
272 303
272 362
272 406
272 590
272 702
272 792
272 862
272 901
272 956
272 973
272 1020
272 1066
272 1236
272 1240
272 1310
272 1314
272 1358
272 1547
272 1652
272 1761
272 1880
272 2069
272 2133
272 2162
272 2187
272 2196
272 2223
272 2258
272 2353
272 2519
272 2657
272 2878
272 2957
272 3041
272 3126
272 3210
272 3596
272 3605
272 3800
272 3801
272 3820
272 4049
272 4052
272 4073
272 4214
272 4470
272 4532
272 4621
272 4725
272 4833
272 4901
272 4934
273 337
273 469
273 855
273 860
273 1246
273 2236
273 2513
273 2733
273 2769
273 2773
273 3210
273 3411
273 3442
273 3667
273 3670
273 3938
273 4051
273 4265
273 4464
273 4529
274 603
274 1319
274 1371
274 1533
274 1556
274 2239
274 2549
274 2658
274 2679
274 3120
274 3883
274 4121
274 4158
274 4329
274 4629
274 4815
275 292
275 1342
275 1790
275 2195
275 2209
275 2213
275 2415
275 2945
275 3202
275 3220
275 3655
275 4055
275 4826
276 654
276 941
276 1223
276 1281
276 1315
276 1335
276 1535
276 1806
276 1899
276 1914
276 2199
276 2272
276 3429
276 3673
276 3795
276 4008
276 4014
276 4297
276 4361
276 4456
276 4780
277 421
277 718
277 765
277 1963
277 2019
277 2143
277 2345
277 2361
277 3124
277 3597
277 4855
277 4887
278 417
278 622
278 675
278 1044
278 1083
278 1588
278 2096
278 2163
278 2348
278 2700
278 2724
278 2850
278 3556
278 3616
278 3851
278 4063
278 4717
278 4765
279 318
279 330
279 1140
279 1238
279 2031
279 2307
279 2507
279 2709
279 2903
279 2922
279 2928
279 3100
279 3160
279 3487
279 3555
279 3642
279 4203
279 4762
279 4953
280 295
280 370
280 613
280 693
280 725
280 1036
280 1348
280 1411
280 1629
280 2678
280 2785
280 2825
280 3090
280 3315
280 3680
280 3878
280 4121
280 4305
280 4648
280 4997
281 327
281 368
281 644
281 1131
281 1209
281 1502
281 1766
281 2246
281 2254
281 2751
281 2788
281 2823
281 2837
281 3044
281 3145
281 3305
281 3507
281 3748
281 4658
281 4880
281 4953
282 411
282 747
282 810
282 933
282 1210
282 1221
282 1669
282 1870
282 2115
282 2118
282 2508
282 3063
282 3475
282 3605
282 4035
282 4193
283 640
283 702
283 743
283 844
283 1301
283 2090
283 2419
283 2592
283 2754
283 2768
283 3099
283 3462
283 3496
283 3713
283 4282
283 4585
283 4639
283 4930
283 4956
284 375
284 594
284 880
284 986
284 2020
284 2809
284 3753
284 4489
284 4512
284 4616
284 4932
285 330
285 841
285 869
285 950
285 1027
285 1228
285 1565
285 1641
285 1664
285 1703
285 1964
285 1998
285 2090
285 2709
285 2772
285 2818
285 2868
285 3191
285 3359
285 3394
285 3541
285 3598
285 3725
285 4162
285 4347
285 4419
285 4660
285 4892
286 382
286 551
286 895
286 1617
286 1965
286 2824
286 2956
286 2990
286 3161
286 3291
286 3701
286 3850
286 3861
286 3972
286 4005
286 4297
286 4323
286 4382
286 4553
287 1903
287 2143
287 2342
287 2484
287 2575
287 3070
287 3440
287 3481
287 3798
287 3834
287 3863
287 4026
287 4196
287 4472
288 624
288 857
288 902
288 914
288 941
288 1114
288 1177
288 1535
288 1536
288 2077
288 2078
288 2686
288 2854
288 2862
288 2864
288 3248
288 3730
288 3761
288 4253
288 4264
288 4442
289 442
289 492
289 522
289 624
289 657
289 819
289 840
289 892
289 1087
289 1104
289 1218
289 1308
289 1387
289 1447
289 1665
289 1769
289 1813
289 2081
289 2143
289 2147
289 2166
289 2210
289 2263
289 2320
289 2421
289 2442
289 2505
289 2576
289 2631
289 2645
289 2660
289 2835
289 2873
289 3150
289 3171
289 3187
289 3190
289 3223
289 3230
289 3338
289 3445
289 3480
289 3519
289 3547
289 3553
289 3591
289 3664
289 3666
289 3675
289 3691
289 3695
289 3778
289 3790
289 3796
289 3971
289 3986
289 4049
289 4317
289 4320
289 4399
289 4471
289 4530
289 4566
289 4571
289 4659
289 4691
289 4697
289 4698
289 4763
289 4795
289 4800
289 4809
289 4844
289 4864
289 4889
290 321
290 387
290 584
290 655
290 1114
290 1143
290 1824
290 1954
290 2178
290 2292
290 2489
290 2501
290 2763
290 2942
290 3044
290 3133
290 3563
290 4116
290 4734
290 4872
291 648
291 977
291 1050
291 1133
291 1259
291 1403
291 1984
291 2073
291 3586
291 3593
291 3791
291 4253
291 4872
292 649
292 693
292 898
292 1073
292 1222
292 1223
292 1353
292 1617
292 1713
292 1955
292 2351
292 2563
292 2614
292 2788
292 2828
292 3645
292 3679
292 3697
292 3870
292 3966
292 3986
292 4162
292 4176
292 4201
292 4360
292 4456
292 4629
292 4731
292 4952
293 487
293 609
293 858
293 1414
293 1702
293 1814
293 2756
293 2965
293 3223
293 3417
293 3809
293 3885
293 4069
293 4287
293 4730
293 4749
294 375
294 521
294 592
294 686
294 810
294 893
294 1048
294 1135
294 1140
294 2070
294 2200
294 2426
294 2474
294 2739
294 3172
294 3330
294 3435
294 3748
294 3846
294 3910
294 4523
294 4719
294 4960
295 397
295 584
295 638
295 668
295 949
295 1056
295 1062
295 1073
295 1101
295 1175
295 1356
295 1569
295 1816
295 1889
295 2023
295 2072
295 2353
295 2408
295 2614
295 2766
295 2978
295 3055
295 3168
295 3371
295 3424
295 3431
295 3482
295 3508
295 3705
295 3780
295 3840
295 3948
295 3988
295 4004
295 4076
295 4090
295 4119
295 4270
295 4309
295 4433
295 4452
295 4780
296 356
296 363
296 557
296 838
296 934
296 978
296 1007
296 1177
296 1348
296 2003
296 2028
296 2150
296 2318
296 3076
296 3119
296 3171
296 3581
296 3619
296 3994
296 4088
296 4228
296 4454
296 4631
296 4964
297 657
297 1335
297 1478
297 1536
297 1565
297 1899
297 1916
297 2096
297 2423
297 2601
297 2730
297 2920
297 3118
297 3182
297 3377
297 3439
297 3931
297 4090
297 4121
297 4152
297 4327
297 4381
297 4437
297 4494
297 4510
297 4807
297 4864
297 4891
298 811
298 1190
298 1396
298 1450
298 1452
298 1502
298 1644
298 2296
298 2319
298 2863
298 2869
298 3004
298 3120
298 4685
299 514
299 706
299 846
299 1083
299 1271
299 1458
299 2159
299 2257
299 2465
299 2494
299 2876
299 3198
299 3329
299 4125
299 4176
299 4250
299 4486
299 4603
299 4639
299 4980
300 672
300 682
300 991
300 1214
300 1300
300 1349
300 2357
300 2563
300 2612
300 2876
300 2984
300 3238
300 3277
300 3378
300 3499
300 3926
300 4091
300 4142
300 4294
300 4297
300 4507
300 4632
300 4785
301 502
301 801
301 1908
301 2260
301 2293
301 2439
301 2446
301 2497
301 2589
301 2668
301 2728
301 2810
301 2889
301 3160
301 3253
301 3265
301 3582
301 3780
301 4013
301 4172
301 4237
301 4263
301 4388
301 4413
301 4796
301 4895
301 4896
301 4925
302 997
302 1083
302 1224
302 1326
302 1523
302 1618
302 1880
302 1899
302 1929
302 1994
302 1999
302 2057
302 2352
302 2669
302 2796
302 3385
302 3473
302 3617
302 3729
302 3974
302 4147
302 4162
302 4876
303 321
303 485
303 591
303 789
303 860
303 1111
303 1209
303 1257
303 1279
303 1326
303 2441
303 2451
303 2562
303 2976
303 3059
303 3357
303 3773
303 3834
303 4367
303 4587
303 4697
304 1197
304 1250
304 1442
304 1615
304 1903
304 2081
304 2359
304 2499
304 3237
304 3928
304 4055
304 4077
304 4127
304 4294
304 4333
304 4346
304 4658
304 4760
305 588
305 636
305 669
305 788
305 911
305 1394
305 1465
305 1535
305 2149
305 2267
305 2368
305 2397
305 2486
305 2785
305 4037
305 4286
305 4373
305 4713
305 4714
305 4806
306 584
306 620
306 622
306 746
306 1341
306 1435
306 1438
306 1587
306 1712
306 2081
306 2384
306 3001
306 4309
306 4863
307 546
307 1115
307 1162
307 1623
307 1796
307 1812
307 1853
307 2049
307 2227
307 2367
307 2715
307 2861
307 2916
307 3512
307 3549
307 3628
307 4152
307 4153
307 4270
307 4661
307 4765
307 4824
308 782
308 1057
308 1429
308 1568
308 2274
308 3138
308 3543
308 4256
308 4330
308 4506
308 4683
309 559
309 792
309 816
309 1064
309 1185
309 1311
309 1758
309 1771
309 1969
309 2084
309 2177
309 2236
309 2416
309 2488
309 2560
309 2574
309 2627
309 2753
309 2867
309 2965
309 3241
309 3256
309 3432
309 3496
309 3652
309 3730
309 4231
309 4271
309 4276
309 4507
310 623
310 699
310 1094
310 1138
310 1631
310 2083
310 2288
310 2454
310 2544
310 2770
310 2782
310 2825
310 2831
310 2984
310 3073
310 3533
310 3587
310 3666
310 3688
310 3724
310 3920
310 4585
310 4652
311 763
311 771
311 775
311 944
311 1002
311 1035
311 1459
311 2367
311 2395
311 2931
311 3057
311 3098
311 3198
311 3217
311 3372
311 3869
311 3932
311 4132
311 4669
311 4778
312 851
312 1461
312 2350
312 2507
312 3038
312 3211
312 3359
312 3419
312 3449
312 4089
312 4118
312 4420
312 4885
313 387
313 410
313 499
313 519
313 608
313 715
313 731
313 755
313 806
313 960
313 1025
313 1056
313 1108
313 1131
313 1453
313 1522
313 1737
313 1905
313 1906
313 2205
313 2359
313 2443
313 2497
313 2618
313 2644
313 2783
313 2816
313 2884
313 3060
313 3115
313 3150
313 3151
313 3305
313 3328
313 3554
313 3563
313 3657
313 3730
313 3892
313 4017
313 4088
313 4120
313 4244
313 4248
313 4271
313 4369
313 4458
313 4482
313 4509
313 4539
313 4558
313 4729
313 4836
313 4941
314 420
314 638
314 1078
314 1341
314 1443
314 1459
314 1558
314 1843
314 1909
314 2054
314 2201
314 2417
314 2638
314 3065
314 3120
314 3619
314 4140
314 4326
314 4611
314 4631
314 4649
314 4750
315 337
315 484
315 507
315 599
315 659
315 793
315 865
315 973
315 1265
315 1890
315 1949
315 2442
315 2729
315 2746
315 2869
315 2894
315 3299
315 3439
315 3994
315 4055
315 4192
315 4514
315 4947
316 562
316 642
316 644
316 789
316 948
316 1026
316 1257
316 1273
316 1500
316 1676
316 1822
316 1857
316 1938
316 2120
316 2157
316 2520
316 2632
316 3073
316 3107
316 3637
316 3684
316 3885
316 3912
316 4367
316 4527
316 4805
317 439
317 724
317 1301
317 2396
317 3024
317 3116
317 3201
317 3281
317 3328
317 4030
317 4583
317 4594
317 4720
318 791
318 1174
318 1437
318 1450
318 1453
318 2046
318 2487
318 2700
318 2829
318 3256
318 3686
318 3915
318 4099
318 4267
318 4456
318 4692
318 4703
318 4738
318 4799
319 513
319 595
319 677
319 694
319 1018
319 1023
319 1116
319 1827
319 1830
319 1950
319 2293
319 3477
319 3616
319 3734
319 4071
319 4152
319 4751
320 452
320 599
320 691
320 1328
320 1637
320 2154
320 2999
320 3237
320 3431
320 3464
320 3730
320 3923
321 368
321 447
321 822
321 847
321 948
321 973
321 1090
321 1253
321 1309
321 1517
321 1846
321 1969
321 2034
321 2382
321 2508
321 2550
321 2625
321 2653
321 2660
321 2709
321 2838
321 2914
321 3267
321 3633
321 3678
321 3871
321 3898
321 4141
321 4201
321 4228
321 4326
321 4373
321 4382
321 4619
321 4911
321 4924
322 555
322 754
322 830
322 1773
322 1819
322 1850
322 2202
322 2289
322 2446
322 2600
322 2656
322 2684
322 2864
322 3106
322 3337
322 3464
322 3793
322 4280
322 4665
322 4713
323 364
323 450
323 474
323 509
323 513
323 625
323 658
323 729
323 1067
323 1114
323 1151
323 1155
323 1217
323 1254
323 1342
323 1379
323 1451
323 1474
323 1626
323 1645
323 1699
323 1767
323 1836
323 1980
323 2070
323 2081
323 2111
323 2126
323 2131
323 2141
323 2271
323 2329
323 2349
323 2424
323 2509
323 2532
323 2642
323 2873
323 2975
323 2984
323 3034
323 3041
323 3059
323 3077
323 3247
323 3318
323 3341
323 3382
323 3389
323 3461
323 3489
323 3572
323 3643
323 3790
323 3828
323 3899
323 3953
323 3955
323 3974
323 4183
323 4214
323 4285
323 4405
323 4424
323 4458
323 4567
323 4573
323 4594
323 4626
323 4672
323 4686
323 4784
323 4827
323 4873
323 4899
323 4910
323 4926
324 428
324 983
324 1436
324 1711
324 1794
324 1930
324 2154
324 2211
324 2357
324 3160
324 3269
324 3331
324 3391
324 3623
324 3898
324 3994
324 4316
324 4589
324 4780
324 4923
325 333
325 1067
325 1620
325 1850
325 1890
325 1918
325 2135
325 2378
325 2451
325 2452
325 2463
325 2818
325 2944
325 3102
325 3255
325 3602
325 3719
325 3746
325 3951
325 4092
325 4611
325 4823
326 579
326 999
326 1850
326 2567
326 2966
326 3366
326 3986
326 4077
326 4234
326 4240
326 4530
326 4863
326 4963
327 568
327 766
327 983
327 1525
327 1658
327 1706
327 1841
327 2010
327 2291
327 2412
327 2430
327 2432
327 2438
327 2480
327 2716
327 2815
327 3437
327 3685
327 4372
327 4386
327 4475
328 761
328 873
328 1326
328 1333
328 1395
328 1397
328 1571
328 1618
328 1850
328 1937
328 2017
328 2220
328 2277
328 2947
328 3209
328 3210
328 3439
328 3449
328 3661
328 3710
328 4769
328 4782
328 4830
328 4941
329 333
329 841
329 1210
329 1514
329 1716
329 2471
329 2872
329 3306
329 3355
329 3466
329 3625
329 3725
329 3853
329 3869
330 537
330 684
330 699
330 1221
330 1348
330 1630
330 2229
330 2342
330 2381
330 2541
330 2638
330 3090
330 3171
330 3512
330 3608
330 3615
330 3712
330 3817
330 4225
330 4720
331 363
331 786
331 838
331 1137
331 1374
331 2108
331 2197
331 2609
331 3587
331 3763
331 3994
331 4224
331 4639
331 4853
332 1738
332 1759
332 1770
332 1789
332 2049
332 2088
332 2257
332 2990
332 3216
332 3601
332 3724
332 3816
332 4686
332 4765
333 491
333 642
333 910
333 921
333 1189
333 1230
333 1609
333 1658
333 1716
333 1774
333 2209
333 3017
333 3505
333 3607
333 3886
333 4006
333 4248
333 4285
333 4338
333 4661
333 4903
334 1095
334 1187
334 2051
334 2306
334 2584
334 2596
334 2655
334 2978
334 3692
334 3713
334 3751
334 4483
334 4512
334 4527
334 4817
334 4896
335 337
335 584
335 671
335 1398
335 1716
335 2812
335 2886
335 3138
335 3624
335 3681
335 4018
335 4213
335 4953
336 682
336 942
336 1123
336 1456
336 1465
336 1487
336 1535
336 1573
336 1638
336 1933
336 2063
336 2568
336 2580
336 2952
336 3048
336 3065
336 3539
336 3802
336 3984
336 4140
336 4203
336 4237
336 4313
336 4361
336 4502
336 4746
336 4747
336 4768
336 4911
336 4967
337 417
337 481
337 658
337 677
337 713
337 809
337 816
337 829
337 938
337 1061
337 1289
337 1454
337 1642
337 2179
337 2348
337 2399
337 2642
337 2676
337 3149
337 3731
337 3742
337 3934
337 4051
337 4058
337 4326
337 4383
337 4388
337 4524
337 4948
338 722
338 937
338 941
338 1020
338 1034
338 1137
338 1590
338 2150
338 2409
338 2424
338 2701
338 2920
338 2970
338 3153
338 3267
338 3275
338 3289
338 3345
338 3439
338 3881
338 4008
338 4308
338 4427
338 4452
338 4699
339 408
339 540
339 1473
339 1629
339 2447
339 2847
339 3263
339 3741
339 3748
339 3940
339 3973
339 4251
339 4379
339 4385
339 4411
339 4659
339 4762
339 4827
339 4881
339 4969
340 511
340 672
340 783
340 1104
340 1241
340 1556
340 1781
340 1821
340 2033
340 2042
340 2202
340 2622
340 2904
340 2993
340 3212
340 3586
340 4217
340 4268
340 4312
340 4332
340 4338
340 4357
340 4612
340 4717
341 458
341 504
341 590
341 667
341 678
341 719
341 1027
341 1108
341 1993
341 2005
341 2029
341 2291
341 2347
341 2519
341 2530
341 2542
341 2698
341 2862
341 2968
341 2976
341 3168
341 3276
341 3298
341 3315
341 3697
341 3786
341 4119
341 4121
341 4265
341 4442
341 4464
341 4622
341 4806
342 368
342 513
342 673
342 739
342 953
342 977
342 1090
342 1269
342 2277
342 2887
342 3319
342 3480
342 3780
342 4162
342 4289
342 4940
343 368
343 459
343 607
343 761
343 906
343 1043
343 1404
343 1471
343 1578
343 1653
343 1679
343 1702
343 1841
343 3299
343 3392
343 3798
343 3876
343 4529
344 600
344 606
344 957
344 1172
344 1657
344 1668
344 1737
344 1950
344 2108
344 2129
344 2362
344 2456
344 2670
344 2878
344 3049
344 3118
344 3132
344 3184
344 3198
344 3349
344 3409
344 3419
344 3450
344 3791
344 3877
344 4068
344 4341
344 4570
344 4797
344 4951
345 650
345 766
345 1110
345 1143
345 1352
345 1367
345 1502
345 1528
345 1563
345 1895
345 1905
345 2346
345 2499
345 3011
345 3177
345 3224
345 3251
345 3383
345 4050
345 4085
345 4351
345 4453
346 495
346 617
346 887
346 937
346 977
346 1336
346 1389
346 1557
346 1578
346 1591
346 1601
346 1656
346 1850
346 1901
346 2885
346 3270
346 3880
346 4112
346 4248
346 4346
346 4464
347 358
347 568
347 1258
347 1397
347 2238
347 2776
347 3533
347 3716
347 4066
347 4987
348 449
348 488
348 590
348 683
348 1338
348 1750
348 2939
348 3354
348 3507
348 3607
348 4170
348 4486
348 4865
349 625
349 828
349 1198
349 1345
349 1746
349 1896
349 2050
349 2222
349 2479
349 2673
349 2728
349 2816
349 3306
349 3374
349 3661
349 3729
349 3841
349 3939
349 4186
349 4251
349 4376
349 4434
349 4635
349 4667
349 4890
350 427
350 498
350 516
350 933
350 1067
350 1131
350 1152
350 2240
350 2259
350 2471
350 2914
350 3454
350 3486
350 4420
350 4536
350 4559
350 4605
350 4652
350 4909
350 4980
351 745
351 871
351 970
351 1010
351 1095
351 1122
351 1228
351 1549
351 2074
351 2242
351 2542
351 2812
351 3076
351 3088
351 3293
351 3565
351 3794
351 4145
352 455
352 545
352 871
352 974
352 1226
352 1247
352 1398
352 1409
352 1615
352 2088
352 2143
352 2288
352 2418
352 2600
352 2612
352 3067
352 3233
352 3294
352 3385
352 4050
352 4226
352 4356
352 4657
352 4754
352 4839
353 764
353 1072
353 1195
353 1595
353 2227
353 2423
353 2769
353 2777
353 2832
353 2869
353 3027
353 3229
353 4019
353 4257
353 4857
354 445
354 456
354 519
354 656
354 874
354 906
354 1522
354 1702
354 1855
354 2082
354 2342
354 2405
354 2510
354 2723
354 3188
354 3251
354 4642
354 4805
354 4948
355 580
355 621
355 792
355 981
355 1465
355 1850
355 1857
355 1869
355 2166
355 2200
355 2823
355 2983
355 3699
355 3927
355 3932
355 4767
356 487
356 572
356 901
356 1027
356 1307
356 1556
356 1802
356 1998
356 2103
356 2162
356 2237
356 2374
356 2681
356 2881
356 3057
356 3135
356 3143
356 3249
356 3496
356 3572
356 3630
356 3787
356 4089
356 4595
356 4755
356 4883
357 658
357 1186
357 1361
357 1724
357 1865
357 2001
357 2244
357 3289
357 3398
357 3529
357 3530
357 3613
357 3698
357 3993
357 4574
357 4661
357 4758
358 369
358 399
358 455
358 586
358 1008
358 1034
358 1103
358 1542
358 2332
358 2406
358 2486
358 2647
358 2898
358 3033
358 3399
358 3947
358 4173
358 4216
358 4386
358 4463
358 4769
358 4780
359 644
359 768
359 838
359 950
359 973
359 1114
359 1725
359 2126
359 2686
359 2728
359 2892
359 3448
359 3701
359 4074
359 4716
360 1122
360 1391
360 1400
360 1555
360 1621
360 2352
360 2440
360 2948
360 2954
360 3042
360 3568
360 3654
360 3857
360 3881
360 3887
360 3981
360 4044
360 4121
360 4289
360 4502
360 4578
361 506
361 540
361 557
361 559
361 985
361 1324
361 1384
361 1463
361 1615
361 1696
361 1790
361 1894
361 1925
361 2062
361 2072
361 2339
361 2434
361 2696
361 2763
361 2784
361 2881
361 3013
361 3079
361 3314
361 3464
361 3474
361 3698
361 3786
361 4020
361 4148
361 4158
361 4214
361 4231
361 4363
361 4483
361 4970
362 684
362 906
362 1057
362 1490
362 1608
362 1712
362 1751
362 2141
362 2644
362 2719
362 2799
362 2881
362 3152
362 3182
362 3761
362 4002
362 4189
362 4315
362 4789
363 404
363 951
363 1111
363 1171
363 1239
363 1288
363 1345
363 1533
363 1843
363 1919
363 2057
363 2082
363 2143
363 2170
363 2204
363 2470
363 2568
363 2790
363 2958
363 3263
363 3318
363 3781
363 3795
363 3932
363 3937
363 3984
363 3996
363 4194
363 4213
363 4767
363 4958
363 4989
364 2034
364 2108
364 2333
364 2402
364 3116
364 3195
364 3701
364 3755
364 3876
364 4127
364 4163
364 4497
364 4760
365 973
365 1001
365 1671
365 1866
365 2244
365 2653
365 2769
365 2777
365 3038
365 3073
365 3400
365 3594
365 3987
365 4071
365 4095
365 4400
365 4671
366 604
366 1285
366 1558
366 1572
366 1600
366 1785
366 1849
366 1864
366 1908
366 2019
366 2073
366 2254
366 2551
366 2723
366 3145
366 3358
366 3535
366 3719
366 3763
366 3851
366 3906
366 3958
366 4071
366 4203
366 4464
366 4868
367 611
367 887
367 1710
367 1854
367 1981
367 2161
367 2478
367 3252
367 3360
367 3367
367 3378
367 3427
367 4700
368 430
368 464
368 482
368 597
368 713
368 764
368 834
368 966
368 996
368 1013
368 1090
368 1134
368 1211
368 1256
368 1395
368 1814
368 1889
368 2084
368 2170
368 2275
368 2337
368 2374
368 2382
368 2659
368 2670
368 2768
368 2869
368 2887
368 2899
368 2986
368 3262
368 3321
368 3455
368 3470
368 3524
368 3575
368 3723
368 3802
368 3812
368 4174
368 4250
368 4269
368 4305
368 4373
368 4739
368 4756
368 4971
369 532
369 615
369 630
369 749
369 797
369 809
369 1344
369 1404
369 1453
369 1633
369 1647
369 2049
369 2346
369 2471
369 2625
369 2695
369 3042
369 3115
369 3287
369 3302
369 3485
369 3689
369 3801
369 3819
369 3870
369 3931
369 4076
369 4485
369 4572
369 4754
370 587
370 1920
370 1955
370 2098
370 2252
370 2500
370 2754
370 3149
370 3277
370 3291
370 3641
370 4277
370 4621
370 4630
370 4768
370 4835
371 1284
371 1325
371 1495
371 2003
371 2104
371 2441
371 2467
371 2611
371 2748
371 3279
371 3475
371 4225
371 4643
371 4770
372 591
372 977
372 1022
372 1102
372 1117
372 1929
372 2196
372 2596
372 2976
372 4046
372 4456
372 4610
373 505
373 1042
373 1080
373 1106
373 1250
373 1763
373 2348
373 2681
373 2768
373 2785
373 2938
373 3043
373 3331
373 3410
373 3589
373 3591
373 3630
373 3787
373 4189
373 4260
373 4397
373 4943
374 418
374 426
374 503
374 716
374 1080
374 1125
374 1202
374 1433
374 1527
374 1744
374 1764
374 1802
374 1850
374 1978
374 2184
374 2234
374 2291
374 2418
374 2430
374 2487
374 2585
374 2615
374 2710
374 2882
374 3501
374 3555
374 3819
374 3869
374 3895
374 3974
374 4021
374 4151
374 4417
374 4691
374 4740
374 4742
374 4794
374 4802
374 4840
375 405
375 434
375 439
375 581
375 599
375 692
375 777
375 786
375 874
375 905
375 917
375 928
375 970
375 1026
375 1086
375 1246
375 1250
375 1256
375 1347
375 1358
375 1433
375 1478
375 1660
375 1691
375 1705
375 1805
375 1887
375 1890
375 2046
375 2149
375 2151
375 2181
375 2259
375 2338
375 2400
375 2440
375 2558
375 2576
375 2805
375 2894
375 2898
375 3003
375 3320
375 3340
375 3450
375 3464
375 3487
375 3513
375 3553
375 4045
375 4046
375 4070
375 4136
375 4165
375 4242
375 4331
375 4578
375 4656
375 4741
375 4823
376 800
376 981
376 1624
376 1934
376 2474
376 2717
376 3013
376 3405
376 3776
376 3923
376 3969
376 4065
377 603
377 742
377 1328
377 1479
377 1517
377 1887
377 2224
377 2446
377 2500
377 3009
377 3298
377 4256
377 4268
377 4614
378 593
378 945
378 1029
378 1452
378 1571
378 1980
378 2195
378 2283
378 2346
378 2761
378 3343
378 4082
378 4176
378 4358
378 4378
379 812
379 859
379 925
379 2011
379 2996
379 3051
379 3623
379 4213
379 4493
379 4653
379 4987
380 517
380 1294
380 2131
380 2454
380 2587
380 2877
380 3058
380 3225
380 3398
380 3598
380 4361
380 4415
380 4430
380 4484
380 4567
380 4571
380 4574
380 4616
380 4772
381 569
381 702
381 723
381 813
381 980
381 1019
381 1162
381 1706
381 1853
381 1931
381 1932
381 1933
381 2632
381 2760
381 2956
381 3142
381 3284
381 3955
381 3971
381 4265
381 4506
381 4604
381 4970
382 476
382 555
382 719
382 1224
382 1397
382 1479
382 1581
382 1773
382 1813
382 2128
382 2321
382 2410
382 2785
382 2990
382 3318
382 3518
382 3793
382 3804
382 3829
382 4549
382 4757
383 462
383 958
383 1214
383 1540
383 2367
383 2546
383 2737
383 3056
383 3058
383 3251
383 3328
383 3467
383 3769
383 4550
383 4578
383 4769
384 665
384 719
384 781
384 854
384 981
384 1024
384 1115
384 1312
384 1810
384 1911
384 1956
384 2005
384 2240
384 2715
384 3539
384 3882
384 3969
384 4237
384 4439
384 4705
384 4911
385 395
385 1137
385 1292
385 1325
385 1637
385 1962
385 2435
385 2969
385 3024
385 3307
385 3353
385 3395
385 3969
385 4090
385 4232
385 4715
385 4890
386 465
386 842
386 1021
386 1178
386 1319
386 1618
386 1739
386 1975
386 2167
386 2242
386 2435
386 3216
386 3405
386 4252
386 4267
386 4760
387 455
387 549
387 551
387 626
387 768
387 860
387 862
387 877
387 950
387 953
387 1085
387 1086
387 1095
387 1110
387 1268
387 1345
387 1423
387 1560
387 1565
387 1615
387 1894
387 1924
387 1969
387 2010
387 2032
387 2079
387 2081
387 2284
387 2400
387 2412
387 2486
387 2707
387 2766
387 2778
387 2787
387 2835
387 2868
387 2902
387 2920
387 2947
387 2970
387 3024
387 3172
387 3322
387 3326
387 3408
387 3439
387 3475
387 3543
387 3594
387 3680
387 3749
387 3789
387 3811
387 3888
387 4064
387 4217
387 4305
387 4384
387 4488
387 4527
387 4563
387 4646
387 4706
387 4905
387 4995
388 495
388 672
388 864
388 904
388 1050
388 1057
388 1138
388 1162
388 1402
388 1583
388 1645
388 2167
388 2343
388 2413
388 2889
388 3101
388 3104
388 3245
388 3299
388 3590
388 3732
388 3747
388 3818
388 3828
388 4068
388 4747
388 4784
388 4925
388 4964
388 4965
388 4982
389 549
389 614
389 896
389 933
389 1410
389 2449
389 2644
389 2859
389 2861
389 2973
389 3040
389 3803
389 3832
389 4141
389 4234
389 4908
390 434
390 452
390 640
390 776
390 988
390 1572
390 2209
390 2398
390 2454
390 2632
390 2865
390 3067
390 3277
390 3439
390 3488
390 3609
390 3848
390 4401
390 4455
390 4661
390 4933
391 973
391 1010
391 1057
391 2076
391 2165
391 2348
391 2551
391 2728
391 3341
391 3560
391 4083
391 4085
391 4129
391 4191
391 4405
391 4533
391 4573
391 4691
391 4760
392 855
392 868
392 898
392 1208
392 1377
392 1542
392 2133
392 2759
392 2792
392 2928
392 3326
392 4041
392 4757
393 671
393 674
393 696
393 882
393 898
393 936
393 964
393 1085
393 1156
393 1195
393 1206
393 1250
393 1277
393 1319
393 1411
393 1445
393 1764
393 1767
393 1842
393 1888
393 1993
393 2176
393 2253
393 2270
393 2390
393 2396
393 2428
393 2635
393 2850
393 3040
393 3100
393 3296
393 3383
393 3505
393 3618
393 4088
393 4217
393 4242
393 4304
393 4497
393 4856
393 4983
394 622
394 743
394 1284
394 1324
394 2209
394 3058
394 3108
394 3276
394 3497
394 3684
394 4470
395 1090
395 1245
395 1323
395 1666
395 2245
395 2359
395 2849
395 2905
395 3117
395 3225
395 3300
395 3326
395 3404
395 3782
395 3833
395 3916
395 3997
395 4186
395 4256
395 4259
395 4710
395 4763
395 4785
395 4846
396 716
396 721
396 1223
396 2097
396 2145
396 2176
396 2598
396 2636
396 3115
396 3518
396 3872
396 3952
396 4388
396 4482
396 4713
396 4802
397 746
397 966
397 1089
397 1566
397 1822
397 1830
397 2060
397 3003
397 3276
397 3331
397 3595
397 3621
397 3644
397 4616
397 4747
398 497
398 613
398 980
398 1210
398 1289
398 1396
398 1450
398 1499
398 1672
398 1869
398 2289
398 2313
398 2875
398 2923
398 3067
398 3446
398 3550
398 3838
398 3869
398 3871
398 3915
398 4441
398 4489
398 4548
398 4578
398 4863
399 483
399 540
399 652
399 718
399 828
399 855
399 1023
399 1064
399 1098
399 1173
399 1279
399 1315
399 1359
399 1400
399 1427
399 1463
399 1531
399 1714
399 2042
399 2124
399 2252
399 2434
399 2773
399 2887
399 2965
399 3017
399 3300
399 3304
399 3377
399 3433
399 3462
399 3577
399 3630
399 3661
399 3792
399 3967
399 3999
399 4152
399 4165
399 4308
399 4388
399 4592
399 4661
399 4954
399 4992
399 4994
400 686
400 728
400 1085
400 1147
400 1633
400 1857
400 2187
400 4074
400 4127
400 4497
400 4645
400 4729
401 453
401 558
401 568
401 718
401 810
401 1445
401 1533
401 1827
401 1958
401 2078
401 2343
401 2519
401 3082
401 3130
401 3475
401 3720
401 4567
401 4952
402 423
402 584
402 776
402 784
402 1243
402 1639
402 1767
402 1967
402 2113
402 2385
402 2867
402 3104
402 3221
402 3458
402 4264
402 4431
402 4803
402 4976
403 1009
403 1085
403 1097
403 1228
403 1229
403 1263
403 1512
403 1618
403 2156
403 2373
403 2467
403 2641
403 2671
403 2681
403 2815
403 2992
403 3106
403 3967
403 3985
403 4350
403 4457
403 4785
403 4974
404 578
404 866
404 1215
404 1402
404 1456
404 1975
404 1993
404 2542
404 2543
404 2550
404 2676
404 2762
404 3113
404 3218
404 3534
404 4063
404 4146
404 4162
404 4282
404 4292
404 4552
404 4960
405 773
405 900
405 1027
405 1214
405 1269
405 1458
405 2273
405 2314
405 3036
405 3352
405 3426
405 3524
405 3899
405 4640
405 4677
406 673
406 696
406 880
406 1010
406 1314
406 1565
406 1617
406 1781
406 1946
406 2081
406 2177
406 2904
406 3472
406 4170
406 4525
406 4834
406 4910
407 695
407 1114
407 1870
407 2036
407 2062
407 2201
407 3705
407 3808
407 3856
407 4017
407 4116
407 4176
407 4565
408 559
408 800
408 1052
408 1078
408 1632
408 1799
408 1999
408 2203
408 2379
408 2424
408 2457
408 2675
408 3072
408 3086
408 3314
408 3357
408 3391
408 3426
408 3805
408 3878
408 3930
408 4064
408 4077
408 4099
408 4548
408 4634
409 445
409 498
409 669
409 745
409 787
409 962
409 1090
409 1136
409 1204
409 1448
409 1457
409 1865
409 1946
409 1999
409 2029
409 2207
409 2440
409 2507
409 2520
409 2533
409 2632
409 2676
409 2694
409 2762
409 2887
409 3168
409 3395
409 3443
409 3657
409 3839
409 4133
409 4279
409 4435
409 4519
409 4765
409 4927
409 4985
410 1091
410 1180
410 1268
410 1533
410 1640
410 2415
410 2438
410 2623
410 3088
410 3184
410 4040
410 4066
410 4163
410 4270
410 4446
410 4449
410 4508
410 4871
410 4920
411 417
411 1210
411 1383
411 1567
411 2016
411 2691
411 2929
411 3276
411 3496
411 3912
411 4367
411 4650
411 4765
412 423
412 500
412 628
412 809
412 905
412 1091
412 1523
412 1827
412 2469
412 2478
412 3237
412 3467
412 4398
412 4670
413 1316
413 1390
413 1500
413 2006
413 3128
413 3147
413 3189
413 3769
413 3868
413 4637
414 420
414 664
414 776
414 1049
414 1311
414 1547
414 1915
414 2342
414 2613
414 3521
414 3771
414 3910
414 4205
414 4351
414 4749
414 4889
415 520
415 718
415 1027
415 1090
415 1421
415 1440
415 1973
415 2035
415 2162
415 2275
415 2349
415 2428
415 2445
415 2534
415 2867
415 3039
415 3148
415 3294
415 3517
415 4348
415 4414
415 4421
415 4801
416 684
416 770
416 1050
416 1432
416 1465
416 1715
416 2007
416 2312
416 2323
416 3396
416 4222
416 4319
416 4346
416 4619
416 4621
416 4754
417 435
417 456
417 494
417 521
417 531
417 823
417 1176
417 1207
417 1342
417 1540
417 1628
417 1867
417 1962
417 2122
417 2160
417 2209
417 2212
417 2225
417 2252
417 2590
417 2640
417 3138
417 3141
417 3152
417 3245
417 3252
417 3295
417 3298
417 3335
417 3351
417 3457
417 3459
417 3619
417 3655
417 3894
417 3980
417 3987
417 4049
417 4119
417 4406
417 4456
417 4580
417 4632
417 4748
417 4863
417 4964
418 955
418 1094
418 1173
418 1294
418 1590
418 1661
418 1694
418 1715
418 2145
418 2225
418 2574
418 2678
418 2680
418 3168
418 3311
418 3476
418 3665
418 3979
418 4034
418 4066
418 4233
418 4264
418 4495
418 4567
418 4649
418 4806
419 487
419 600
419 991
419 1088
419 1352
419 1644
419 1665
419 1881
419 1937
419 2257
419 2346
419 2361
419 2405
419 2749
419 2856
419 2862
419 2989
419 3418
419 3736
419 4282
419 4460
419 4639
419 4841
419 4842
420 844
420 1453
420 1780
420 1840
420 1990
420 2583
420 2626
420 2708
420 2825
420 3251
420 3442
420 3655
420 3684
420 3736
420 3808
420 3868
420 4660
420 4728
420 4921
421 613
421 933
421 1143
421 1293
421 1554
421 1846
421 1919
421 1974
421 2200
421 2222
421 2469
421 2717
421 3107
421 3534
421 3562
421 3631
421 3700
421 3768
421 4170
421 4367
421 4405
421 4414
422 502
422 937
422 1036
422 1224
422 2276
422 2407
422 2866
422 2925
422 2956
422 3079
422 3108
422 3520
422 3619
422 4595
423 718
423 839
423 1623
423 2137
423 2861
423 2884
423 2992
423 3093
423 3595
423 3675
423 3993
423 4223
423 4432
423 4817
423 4916
424 1483
424 1665
424 1923
424 2188
424 2792
424 2894
424 3007
424 3049
424 3421
424 3851
424 4160
424 4462
425 871
425 1450
425 1592
425 1917
425 2453
425 2708
425 3160
425 4346
425 4411
425 4514
425 4600
425 4870
426 501
426 552
426 664
426 931
426 933
426 1985
426 2070
426 2906
426 2912
426 3039
426 3214
426 3425
426 3851
426 4133
426 4329
426 4742
426 4863
427 793
427 1388
427 1527
427 2036
427 2182
427 2397
427 2445
427 2853
427 2938
427 3020
427 3131
427 3135
427 3607
427 3697
427 3806
427 3839
427 3874
427 3914
427 4046
427 4881
428 571
428 931
428 1007
428 1069
428 1510
428 1559
428 1657
428 1676
428 1850
428 1945
428 2002
428 2038
428 2141
428 2268
428 2282
428 2367
428 2566
428 2625
428 2678
428 3449
428 3568
428 4269
428 4400
428 4412
429 923
429 1320
429 1801
429 1929
429 2021
429 2135
429 2163
429 2504
429 2728
429 2885
429 2919
429 3068
429 3142
429 3331
429 4083
429 4196
429 4785
429 4824
430 558
430 579
430 588
430 620
430 644
430 703
430 946
430 1000
430 1071
430 1168
430 1224
430 1393
430 1488
430 1502
430 1669
430 1827
430 2017
430 2171
430 2402
430 2418
430 2441
430 2575
430 2709
430 2725
430 2740
430 2872
430 3029
430 3277
430 3403
430 3477
430 3506
430 3516
430 3736
430 3805
430 3808
430 3874
430 3882
430 3960
430 4016
430 4150
430 4308
430 4485
430 4691
430 4760
430 4887
430 4904
431 644
431 761
431 1292
431 1349
431 1412
431 1949
431 2138
431 2146
431 2348
431 2670
431 2772
431 2800
431 3094
431 3160
431 3256
431 3640
431 3664
431 3991
431 4114
431 4351
431 4573
431 4643
431 4661
431 4852
432 466
432 720
432 956
432 958
432 1455
432 1504
432 1600
432 1635
432 1637
432 1666
432 1754
432 1814
432 1850
432 1918
432 2420
432 2672
432 2738
432 3024
432 3028
432 3107
432 3193
432 3459
432 3765
432 3858
432 3927
432 4119
432 4194
432 4270
432 4605
432 4837
432 4869
432 4894
433 1000
433 1074
433 1539
433 2095
433 2117
433 2504
433 2594
433 2723
433 2776
433 2996
433 3579
433 3733
433 3747
433 4196
433 4464
433 4639
433 4749
434 566
434 588
434 893
434 1300
434 2186
434 2357
434 2965
434 3385
434 3854
434 4018
434 4077
434 4127
434 4821
435 436
435 595
435 612
435 779
435 909
435 1130
435 1725
435 1835
435 1896
435 3401
435 3971
435 4107
435 4888
436 493
436 497
436 1254
436 1406
436 1502
436 1620
436 1879
436 1906
436 2028
436 2357
436 2519
436 2582
436 3161
436 3733
436 3745
436 3761
436 3785
436 3995
436 4068
436 4102
436 4609
437 659
437 701
437 770
437 921
437 1092
437 1198
437 1214
437 1316
437 1356
437 2335
437 2364
437 2582
437 2689
437 3015
437 3092
437 3135
437 3695
437 3730
437 3749
437 4196
437 4781
437 4989
438 489
438 1507
438 1935
438 1980
438 2073
438 2139
438 2398
438 2685
438 2977
438 3067
438 3384
438 3740
438 4722
438 4788
439 920
439 1136
439 1219
439 1341
439 1359
439 1367
439 1516
439 1600
439 1868
439 1985
439 2146
439 2244
439 2324
439 2480
439 2862
439 3172
439 3400
439 3593
439 3636
439 3746
439 3771
439 4772
439 4896
439 4911
439 4925
440 624
440 736
440 846
440 1403
440 2088
440 2181
440 2694
440 2855
440 2956
440 3293
440 3410
440 3476
440 3845
440 4005
440 4397
440 4729
440 4904
441 571
441 602
441 1119
441 1598
441 1750
441 1891
441 2876
441 3070
441 3093
441 3546
441 3988
441 4146
441 4530
441 4632
441 4879
441 4905
442 631
442 836
442 973
442 1232
442 1489
442 1689
442 1895
442 2019
442 2116
442 2276
442 2706
442 2989
442 3725
442 3744
442 3748
442 4014
442 4038
442 4161
442 4526
442 4598
442 4981
443 514
443 710
443 802
443 1083
443 1487
443 1626
443 1820
443 1893
443 1978
443 2061
443 2637
443 3182
443 3203
443 3378
443 3766
443 3786
443 4133
443 4487
444 969
444 1378
444 1781
444 2103
444 2632
444 2728
444 2936
444 3219
444 3354
444 3387
444 3395
444 3634
444 3672
444 3805
444 4141
444 4169
444 4316
444 4355
444 4973
445 536
445 566
445 623
445 799
445 819
445 872
445 885
445 1035
445 1038
445 1069
445 1087
445 1366
445 1392
445 1397
445 1414
445 1588
445 1689
445 1711
445 1751
445 1802
445 1868
445 1886
445 2071
445 2091
445 2127
445 2172
445 2266
445 2407
445 2434
445 2667
445 2678
445 2681
445 2738
445 2868
445 2894
445 2902
445 2924
445 3035
445 3091
445 3167
445 3206
445 3288
445 3339
445 3352
445 3414
445 3428
445 3473
445 3486
445 3741
445 3758
445 3829
445 3911
445 3917
445 3930
445 3978
445 4009
445 4049
445 4136
445 4141
445 4182
445 4256
445 4286
445 4447
445 4475
445 4575
445 4831
445 4900
445 4908
445 4914
445 4954
446 837
446 1061
446 1374
446 1496
446 1686
446 1768
446 1886
446 2384
446 3293
446 3652
446 3826
446 4202
447 482
447 1014
447 1018
447 1145
447 1175
447 1305
447 1391
447 1502
447 1707
447 1964
447 2004
447 2141
447 2602
447 2774
447 2779
447 2915
447 2945
447 3036
447 3366
447 3395
447 4038
447 4134
447 4391
447 4456
447 4512
447 4643
447 4653
448 1314
448 1611
448 1632
448 2249
448 2276
448 2438
448 3226
448 3958
448 4400
448 4651
448 4664
449 562
449 621
449 684
449 966
449 1043
449 1460
449 1484
449 1661
449 2152
449 2309
449 2358
449 2676
449 2822
449 2909
449 3315
449 3365
449 3764
449 4186
449 4213
449 4540
449 4718
450 505
450 526
450 774
450 958
450 1138
450 1622
450 2237
450 2282
450 2336
450 2519
450 2600
450 2814
450 2860
450 3513
450 4121
450 4156
450 4168
450 4476
450 4502
450 4754
451 741
451 754
451 811
451 948
451 1036
451 2112
451 2221
451 2418
451 2489
451 3187
451 3321
451 3587
451 4703
451 4999
452 703
452 791
452 1064
452 1308
452 1868
452 2257
452 2837
452 2867
452 3011
452 3198
452 3508
452 3551
452 3697
452 3752
452 3990
452 4121
452 4504
452 4536
452 4719
452 4967
453 568
453 639
453 645
453 868
453 1178
453 1235
453 1307
453 1403
453 1431
453 2093
453 2296
453 2460
453 2596
453 2639
453 2999
453 3030
453 3315
453 3353
453 3522
453 3777
453 3889
453 4298
453 4507
453 4653
453 4754
454 757
454 880
454 947
454 1259
454 1519
454 1675
454 1794
454 1801
454 1884
454 1926
454 2091
454 2193
454 2243
454 2268
454 2424
454 2833
454 3026
454 3402
454 4095
454 4464
455 507
455 815
455 826
455 1101
455 1169
455 1223
455 1270
455 1688
455 1853
455 2073
455 2401
455 2755
455 2882
455 3066
455 3369
455 3391
455 3708
455 3782
455 3824
455 4150
455 4346
455 4417
455 4513
455 4661
455 4730
455 4801
455 4816
455 4866
455 4975
456 882
456 1323
456 1342
456 1790
456 2859
456 3011
456 3128
456 3273
456 3440
456 3715
456 3945
456 3994
456 4119
456 4140
456 4207
456 4600
456 4731
457 478
457 666
457 746
457 1079
457 1090
457 1789
457 2222
457 2487
457 2658
457 2873
457 2943
457 3423
457 4204
457 4339
457 4432
458 682
458 797
458 802
458 960
458 973
458 1197
458 2019
458 2036
458 2287
458 2335
458 2417
458 2440
458 2767
458 2769
458 3168
458 3702
458 3704
458 3766
458 4079
458 4237
458 4600
458 4716
459 635
459 742
459 937
459 1258
459 1307
459 1314
459 1383
459 1737
459 1849
459 1877
459 2018
459 2038
459 2107
459 2145
459 2441
459 2611
459 2950
459 3145
459 3199
459 3420
459 3439
459 3502
459 3807
459 4303
459 4379
459 4537
459 4647
459 4768
459 4770
460 840
460 1822
460 2032
460 2036
460 2507
460 2633
460 3211
460 3789
460 4142
460 4526
460 4732
461 719
461 858
461 1132
461 1969
461 2506
461 2776
461 3456
461 4002
461 4136
461 4656
461 4778
461 4883
462 761
462 1114
462 1533
462 1607
462 1864
462 2143
462 2209
462 2479
462 2895
462 3338
462 3752
462 3794
462 3896
462 4013
462 4136
462 4715
463 622
463 736
463 1283
463 1377
463 1403
463 2066
463 2315
463 2342
463 2343
463 2345
463 2435
463 2458
463 2544
463 3700
463 4077
463 4133
463 4465
463 4516
463 4680
463 4997
464 644
464 750
464 1168
464 1467
464 1889
464 1890
464 1909
464 2062
464 2249
464 2386
464 2453
464 2625
464 2677
464 2894
464 2924
464 2990
464 3304
464 3370
464 3436
464 3467
464 3915
464 4115
464 4152
464 4162
464 4361
464 4425
464 4455
464 4564
464 4602
464 4797
464 4981
465 580
465 616
465 933
465 1456
465 1597
465 1803
465 1836
465 2161
465 2239
465 2297
465 2393
465 2435
465 2675
465 2807
465 3024
465 3226
465 3372
465 3913
465 4123
465 4346
465 4370
466 1406
466 1438
466 1510
466 1907
466 2007
466 2032
466 2068
466 2122
466 2508
466 2604
466 2675
466 2812
466 3461
466 3701
466 3725
466 4071
466 4099
466 4228
466 4980
467 540
467 790
467 1390
467 1600
467 1626
467 1710
467 2175
467 2184
467 2185
467 2451
467 2852
467 2908
467 2974
467 3214
467 3238
467 3241
467 3634
467 3773
467 3798
467 3970
467 4104
467 4212
467 4704
467 4760
467 4833
467 4867
467 4895
468 622
468 787
468 808
468 1090
468 1535
468 2161
468 2632
468 2677
468 2728
468 2876
468 2949
468 3197
468 3301
468 3421
468 3537
468 4050
468 4125
468 4594
469 1498
469 1568
469 2186
469 2188
469 2235
469 2243
469 2655
469 2757
469 2855
469 3082
469 3668
469 4071
469 4337
469 4645
469 4766
470 732
470 786
470 809
470 860
470 948
470 1224
470 1669
470 2504
470 2845
470 3068
470 3196
470 3425
470 3439
470 3627
470 3695
470 4070
470 4075
470 4447
470 4617
470 4769
471 564
471 590
471 722
471 1715
471 2307
471 2494
471 2639
471 3166
471 3179
471 3497
471 3773
471 4541
471 4600
471 4652
472 537
472 740
472 758
472 1220
472 1261
472 1264
472 1678
472 1755
472 1899
472 2352
472 2625
472 2783
472 2863
472 2873
472 3198
472 3722
472 3861
472 4143
472 4405
472 4438
472 4640
472 4739
472 4805
472 4892
472 4905
473 618
473 932
473 1075
473 1548
473 1620
473 1652
473 1795
473 1994
473 2250
473 2560
473 2667
473 2934
473 3000
473 3017
473 3517
473 3645
473 4087
473 4355
473 4826
474 620
474 901
474 974
474 1022
474 1275
474 1279
474 1373
474 1378
474 1510
474 1793
474 2663
474 2846
474 2970
474 3210
474 3389
474 3608
474 3637
474 3785
474 3926
474 4060
474 4176
474 4294
474 4303
474 4442
474 4568
474 4986
475 588
475 635
475 644
475 728
475 1324
475 2360
475 3158
475 4071
475 4146
475 4238
475 4332
475 4516
475 4713
475 4730
475 4734
475 4760
475 4992
476 502
476 1122
476 1223
476 1237
476 1541
476 1562
476 1658
476 1665
476 1726
476 1746
476 1774
476 2225
476 2520
476 2586
476 2861
476 2880
476 2909
476 3030
476 3071
476 3091
476 3401
476 3649
476 3730
476 4048
476 4201
476 4226
476 4292
476 4356
476 4445
476 4503
476 4537
476 4569
476 4715
476 4743
477 815
477 894
477 2054
477 2916
477 2919
477 3041
477 3209
477 3325
477 3341
477 3697
477 3963
477 4123
477 4177
477 4200
477 4536
477 4541
477 4723
477 4941
478 484
478 621
478 878
478 1018
478 1140
478 1300
478 1402
478 1448
478 1485
478 1710
478 1732
478 1768
478 1948
478 2080
478 2306
478 2540
478 2542
478 2766
478 2943
478 3692
478 3887
478 3901
478 3914
478 4154
478 4284
478 4802
478 4872
479 600
479 730
479 761
479 1267
479 1913
479 1974
479 3009
479 3332
479 4236
479 4976
480 760
480 868
480 1148
480 2038
480 2049
480 2150
480 2231
480 2653
480 2801
480 2885
480 2966
480 3039
480 3136
480 3606
480 3927
480 4352
480 4397
480 4466
480 4503
480 4786
481 708
481 758
481 830
481 999
481 1020
481 1142
481 1286
481 1921
481 2108
481 2212
481 2247
481 3348
481 3351
481 3921
481 4281
481 4493
482 589
482 675
482 789
482 933
482 2032
482 2292
482 2328
482 2379
482 2888
482 2911
482 3149
482 3290
482 3403
482 3467
482 3820
482 4486
482 4587
482 4638
483 577
483 855
483 1143
483 1459
483 1633
483 1650
483 1729
483 1735
483 2181
483 2449
483 2731
483 2735
483 2891
483 2950
483 3051
483 3085
483 3418
483 3881
483 4166
483 4405
483 4510
483 4789
483 4828
483 4930
484 602
484 1083
484 1165
484 1823
484 2398
484 2618
484 2809
484 2885
484 3578
484 3972
484 4210
485 819
485 851
485 962
485 1221
485 1312
485 1379
485 1881
485 2059
485 2085
485 2225
485 2883
485 3003
485 3098
485 4496
485 4543
485 4648
486 540
486 729
486 837
486 857
486 1453
486 1571
486 2154
486 2190
486 2337
486 2708
486 3744
486 4245
486 4398
486 4875
486 4883
487 500
487 542
487 646
487 844
487 1015
487 1199
487 1259
487 1420
487 1437
487 1495
487 1550
487 1667
487 1857
487 2022
487 2137
487 2197
487 2754
487 2961
487 2969
487 3052
487 3054
487 3110
487 3124
487 3144
487 3271
487 3337
487 3415
487 3482
487 3588
487 3613
487 3698
487 3794
487 3809
487 3860
487 3880
487 3902
487 3964
487 4018
487 4021
487 4065
487 4237
487 4328
487 4380
487 4523
487 4644
487 4796
487 4889
487 4919
487 4975
487 4982
488 1389
488 1839
488 2130
488 2252
488 2832
488 2899
488 3154
488 3359
488 3482
488 3862
488 3927
488 4123
488 4253
488 4406
489 847
489 1588
489 1960
489 2242
489 2271
489 2561
489 2757
489 2759
489 2867
489 2914
489 2921
489 2947
489 3277
489 3361
489 3521
489 3974
489 4049
489 4097
489 4242
489 4593
489 4749
490 631
490 676
490 1107
490 1397
490 1750
490 1774
490 1785
490 1920
490 2012
490 2638
490 2735
490 3615
490 3720
490 4333
491 515
491 735
491 1125
491 1150
491 1516
491 1553
491 1785
491 1836
491 2347
491 2518
491 3210
491 3442
491 3489
491 4031
491 4163
491 4496
491 4594
492 837
492 1326
492 1644
492 2046
492 2483
492 2652
492 2757
492 2893
492 3169
492 3358
492 3508
492 4175
492 4204
492 4497
492 4666
492 4801
493 1006
493 1338
493 1618
493 1623
493 1691
493 1741
493 1767
493 2117
493 2170
493 2208
493 2252
493 2286
493 2544
493 2609
493 2754
493 3168
493 3214
493 3270
493 3794
493 4264
493 4331
493 4505
493 4516
493 4652
493 4774
494 497
494 774
494 796
494 1432
494 1707
494 1766
494 2225
494 2430
494 2509
494 2945
494 3298
494 3698
494 4783
494 4785
495 532
495 631
495 1114
495 1278
495 2005
495 2082
495 2201
495 2291
495 3534
495 4338
495 4711
495 4837
496 601
496 968
496 1077
496 1139
496 1174
496 1195
496 1344
496 1414
496 1660
496 1883
496 1967
496 2025
496 2122
496 2216
496 2469
496 2561
496 2706
496 2838
496 2940
496 2996
496 3037
496 3120
496 3138
496 3151
496 3282
496 3450
496 3516
496 3544
496 3549
496 4102
496 4106
496 4190
496 4366
496 4551
496 4822
497 731
497 813
497 900
497 1414
497 1541
497 1588
497 1945
497 2196
497 3303
497 3342
497 3464
497 3597
497 4226
498 1222
498 1670
498 2466
498 2519
498 2521
498 2635
498 2655
498 2706
498 2834
498 2953
498 3080
498 3313
498 3424
498 3517
498 3938
498 4299
498 4532
499 550
499 654
499 735
499 893
499 941
499 953
499 1128
499 1268
499 1332
499 1595
499 1851
499 2021
499 2088
499 2209
499 2348
499 2694
499 2760
499 2844
499 2950
499 3050
499 3361
499 3486
499 3567
499 3697
499 3844
499 4070
499 4386
499 4659
500 1359
500 1377
500 1490
500 1667
500 2229
500 2250
500 3460
500 3533
500 3895
500 4388
500 4707
501 579
501 658
501 1170
501 1347
501 1395
501 1419
501 1478
501 1501
501 1759
501 2044
501 2226
501 2243
501 2280
501 2533
501 2886
501 2888
501 2914
501 3215
501 3470
501 3996
501 4185
501 4388
501 4397
501 4607
501 4657
501 4873
502 680
502 887
502 895
502 1048
502 1138
502 1391
502 1400
502 1979
502 2055
502 2242
502 2352
502 2414
502 2512
502 2660
502 2732
502 2751
502 2810
502 2831
502 2869
502 3315
502 3331
502 3558
502 3678
502 3793
502 3877
502 3981
502 4058
502 4104
502 4200
502 4206
502 4400
502 4408
502 4569
502 4661
502 4724
502 4749
502 4777
502 4780
502 4889
502 4917
503 556
503 776
503 792
503 864
503 1159
503 1560
503 1783
503 1829
503 1855
503 1899
503 2174
503 2181
503 2182
503 2220
503 2582
503 2705
503 2767
503 2882
503 2986
503 3226
503 4253
503 4680
503 4729
503 4763
504 634
504 773
504 851
504 923
504 1123
504 1327
504 1423
504 1596
504 1916
504 2470
504 2961
504 3022
504 3171
504 3466
504 4405
504 4417
504 4499
504 4567
504 4773
504 4829
504 4843
505 883
505 896
505 898
505 948
505 1348
505 1504
505 1804
505 1851
505 2003
505 2104
505 2464
505 2549
505 2771
505 2863
505 2925
505 2941
505 2970
505 3029
505 3081
505 3173
505 3286
505 3300
505 3348
505 3431
505 3491
505 3602
505 4653
505 4713
506 643
506 956
506 1069
506 1103
506 1567
506 1743
506 2050
506 2220
506 2320
506 2623
506 2674
506 2678
506 2967
506 3385
506 4019
506 4155
506 4274
506 4645
507 575
507 684
507 846
507 981
507 1329
507 1366
507 1386
507 1453
507 1533
507 1845
507 2213
507 2661
507 3325
507 3482
507 3628
507 3699
507 3865
507 3963
507 4113
507 4706
507 4730
507 4942
507 4953
508 702
508 746
508 866
508 1035
508 1077
508 1336
508 1613
508 2348
508 2377
508 2402
508 2442
508 2520
508 3287
508 4132
508 4213
508 4339
508 4409
508 4534
508 4808
508 4835
509 531
509 552
509 672
509 1143
509 1196
509 1305
509 1428
509 1776
509 1862
509 1920
509 1998
509 2393
509 2568
509 2700
509 2846
509 3213
509 3582
509 3680
509 3716
509 3726
509 4077
509 4394
509 4400
509 4414
509 4602
509 4870
509 4881
509 4963
510 705
510 869
510 1404
510 1672
510 2174
510 2349
510 2574
510 2759
510 2911
510 3049
510 3264
510 3676
510 3995
510 4119
510 4300
510 4302
510 4522
510 4831
510 4993
511 649
511 828
511 868
511 947
511 1210
511 1425
511 1715
511 1949
511 2147
511 2433
511 2635
511 3353
511 3466
511 3849
511 4297
511 4489
511 4772
512 568
512 723
512 890
512 929
512 984
512 1023
512 1347
512 1558
512 1644
512 1718
512 1737
512 1800
512 1939
512 2146
512 2209
512 2464
512 2503
512 2593
512 2853
512 2885
512 2896
512 3125
512 3131
512 3535
512 3650
512 3700
512 4312
512 4365
512 4532
512 4767
512 4830
513 553
513 662
513 676
513 1066
513 1299
513 1374
513 1568
513 1658
513 1916
513 2146
513 2452
513 2970
513 3030
513 3192
513 3202
513 3449
513 3457
513 3681
513 3774
513 3819
513 3994
513 4070
513 4111
513 4253
513 4689
513 4931
514 704
514 1415
514 1428
514 1641
514 1865
514 2000
514 2177
514 2516
514 2886
514 3007
514 3094
514 3151
514 3201
514 3246
514 3256
514 3290
514 3300
514 3416
514 3495
514 3535
514 3944
514 3950
514 4015
514 4191
514 4282
514 4301
514 4441
514 4523
514 4622
514 4727
515 1219
515 1497
515 1567
515 2580
515 2980
515 3162
515 3319
515 3588
515 3789
515 3922
515 4122
515 4525
515 4772
516 518
516 590
516 602
516 769
516 865
516 873
516 1233
516 1470
516 1472
516 1587
516 1687
516 1777
516 1852
516 1959
516 1977
516 2327
516 2342
516 2516
516 2519
516 2542
516 2553
516 2586
516 2632
516 2700
516 2982
516 3057
516 3084
516 3131
516 3286
516 3368
516 3442
516 3571
516 3598
516 3654
516 3659
516 3725
516 3727
516 3965
516 3995
516 4014
516 4149
516 4261
516 4303
516 4417
516 4444
516 4497
516 4505
516 4757
517 566
517 657
517 748
517 991
517 1177
517 1581
517 2063
517 2474
517 2667
517 2761
517 3038
517 3063
517 3129
517 3286
517 3287
517 3379
517 3401
517 3445
517 3594
517 3656
517 3699
517 3854
517 4009
517 4089
517 4202
517 4401
517 4493
517 4507
517 4911
518 1013
518 1132
518 1165
518 1265
518 1382
518 1926
518 2044
518 2337
518 2566
518 2627
518 2678
518 3168
518 3297
518 3576
518 3646
518 3733
518 3901
518 3962
518 4155
518 4182
518 4255
518 4380
518 4545
518 4921
519 548
519 675
519 1468
519 1547
519 1874
519 2219
519 2443
519 2731
519 2826
519 3703
519 4157
520 620
520 633
520 943
520 1114
520 1451
520 1471
520 2740
520 2836
520 3034
520 3116
520 3314
520 3335
520 3517
520 3523
520 3541
520 4041
520 4044
520 4388
521 551
521 702
521 746
521 1224
521 1696
521 1724
521 1838
521 2475
521 3176
521 3850
521 4388
521 4838
522 644
522 716
522 1086
522 1291
522 1382
522 1512
522 2053
522 2388
522 2517
522 2662
522 2921
522 2980
522 3075
522 3464
522 3608
522 3644
522 3886
522 3892
522 4132
522 4165
522 4406
522 4783
523 735
523 920
523 2224
523 2806
523 3073
523 3464
523 3581
523 3996
523 4160
523 4507
523 4612
524 708
524 755
524 2532
524 2609
524 2944
524 3521
524 3868
524 3932
524 4055
524 4560
524 4586
525 634
525 993
525 1365
525 1470
525 1513
525 1633
525 1674
525 1889
525 1959
525 2328
525 2641
525 2859
525 3517
525 4615
525 4762
526 735
526 1112
526 1151
526 1277
526 1412
526 1869
526 1899
526 2664
526 3423
526 3900
526 4206
526 4534
526 4960
527 865
527 872
527 873
527 959
527 1328
527 1394
527 1433
527 1746
527 1874
527 2271
527 2536
527 2673
527 2770
527 2826
527 2865
527 3179
527 3472
527 3512
527 3655
527 3828
527 4083
527 4095
527 4413
527 4421
527 4442
527 4607
527 4810
527 4869
528 970
528 1489
528 1534
528 1588
528 1708
528 2523
528 2967
528 2978
528 3005
528 3118
528 3363
528 4512
528 4719
528 4864
528 4896
528 4936
529 544
529 873
529 1018
529 1116
529 1384
529 1613
529 1654
529 1828
529 1896
529 1934
529 2388
529 2599
529 2723
529 2765
529 3058
529 3572
529 3596
529 3807
529 4148
529 4303
529 4342
529 4789
529 4964
530 1090
530 1288
530 1398
530 1664
530 1937
530 2007
530 2019
530 2137
530 2388
530 2733
530 2950
530 3048
530 3139
530 4619
531 558
531 902
531 1062
531 1326
531 1419
531 1641
531 1904
531 1920
531 2090
531 2734
531 2946
531 3283
531 3864
531 4161
531 4758
531 4994
532 639
532 730
532 1128
532 2113
532 2601
532 2656
532 3065
532 3069
532 3281
532 3417
532 3425
532 3467
532 3872
532 4121
532 4373
532 4839
532 4894
532 4929
533 764
533 1483
533 1595
533 1599
533 2140
533 2356
533 2419
533 2432
533 2459
533 2992
533 3674
533 4043
533 4131
533 4416
533 4594
533 4732
534 681
534 698
534 1269
534 1602
534 1615
534 2027
534 2063
534 2968
534 3006
534 3554
534 3655
534 3861
534 3994
534 4148
534 4717
535 990
535 1077
535 1374
535 1913
535 2049
535 2795
535 2847
535 2854
535 2974
535 3016
535 3149
535 3305
535 3384
535 3686
535 4030
535 4039
535 4214
535 4606
535 4727
536 695
536 852
536 1394
536 1670
536 2408
536 2688
536 2903
536 2978
536 3276
536 3301
536 3591
536 3771
536 3880
536 4639
536 4872
537 640
537 725
537 787
537 923
537 1057
537 1107
537 1197
537 1529
537 2355
537 2362
537 2699
537 3398
537 3420
537 3448
537 3544
537 3892
537 4573
537 4611
537 4651
537 4846
538 684
538 844
538 932
538 1147
538 1626
538 1884
538 2005
538 2019
538 2309
538 2404
538 2680
538 2890
538 3028
538 3231
538 3348
538 3418
538 4006
538 4247
538 4330
539 806
539 928
539 1784
539 2170
539 2491
539 2515
539 3029
539 3207
539 3612
539 3679
539 3923
539 4059
539 4120
539 4193
539 4272
539 4306
539 4608
539 4653
539 4717
540 555
540 602
540 626
540 724
540 745
540 796
540 887
540 1144
540 1158
540 1254
540 1268
540 1595
540 1619
540 1853
540 2162
540 2179
540 2180
540 2869
540 2875
540 2955
540 3146
540 3175
540 3218
540 3388
540 3621
540 3676
540 4044
540 4182
540 4193
540 4216
540 4217
540 4268
540 4301
540 4362
540 4391
540 4450
540 4456
540 4649
540 4732
540 4941
541 556
541 2201
541 2388
541 2796
541 2868
541 3121
541 3223
541 3869
541 4083
541 4234
541 4652
541 4742
541 4909
541 4999
542 862
542 866
542 1044
542 1229
542 1857
542 1906
542 2098
542 2211
542 2417
542 2445
542 2924
542 2984
542 3283
542 3405
542 3986
542 4070
542 4128
542 4588
542 4666
542 4900
543 974
543 1027
543 1346
543 1949
543 2044
543 2103
543 2264
543 2739
543 3146
543 3160
543 3348
543 3582
543 3587
543 3620
543 3834
543 3875
543 4061
543 4235
543 4329
543 4350
544 587
544 588
544 626
544 1008
544 1083
544 1301
544 1511
544 1569
544 2022
544 2131
544 2193
544 2250
544 2521
544 2530
544 2720
544 2984
544 3040
544 3076
544 3254
544 3323
544 3333
544 3358
544 3565
544 3711
544 3873
544 3973
544 4066
544 4070
544 4394
544 4450
544 4601
544 4657
544 4658
544 4731
544 4792
545 558
545 581
545 850
545 948
545 1090
545 1223
545 1344
545 1404
545 1473
545 1512
545 1523
545 1758
545 1861
545 1863
545 1964
545 2062
545 2491
545 2646
545 2666
545 2777
545 2919
545 2931
545 2964
545 3075
545 3089
545 3106
545 3208
545 3316
545 3352
545 3423
545 3529
545 3631
545 3651
545 3724
545 3944
545 3949
545 4150
545 4156
545 4162
545 4264
545 4333
545 4341
545 4355
545 4423
545 4436
545 4543
545 4624
545 4670
545 4691
545 4718
545 4720
545 4895
545 4898
545 4911
546 791
546 1585
546 1666
546 1916
546 1935
546 2471
546 2766
546 2861
546 3265
546 3331
546 3476
546 3972
546 4228
546 4465
546 4632
546 4906
547 552
547 564
547 728
547 1244
547 1326
547 2028
547 2204
547 2572
547 2872
547 2918
547 2972
547 3039
547 3109
547 3227
547 3744
547 3876
547 3980
547 4964
548 1069
548 1166
548 1336
548 1697
548 2226
548 2431
548 2480
548 2488
548 2565
548 3562
548 4359
548 4573
548 4605
548 4718
548 4972
549 621
549 632
549 1245
549 1280
549 1300
549 1328
549 1624
549 1763
549 1820
549 1864
549 2119
549 2170
549 2177
549 2540
549 2610
549 2654
549 2680
549 2865
549 2917
549 2948
549 3124
549 3365
549 3427
549 3567
549 3699
549 3756
549 3838
549 4043
549 4499
549 4526
549 4690
549 4702
549 4857
549 4891
549 4905
549 4911
550 701
550 829
550 948
550 1232
550 1364
550 1422
550 1516
550 1526
550 1556
550 1570
550 1588
550 2031
550 2710
550 2812
550 3111
550 3358
550 3918
551 1035
551 1090
551 1165
551 1319
551 1386
551 1499
551 1844
551 1916
551 1935
551 2431
551 2469
551 2517
551 3014
551 3040
551 3176
551 3239
551 3262
551 3341
551 3381
551 3748
551 3758
551 3944
551 4096
551 4220
551 4275
551 4286
551 4591
551 4839
551 4881
552 591
552 685
552 732
552 860
552 911
552 929
552 932
552 944
552 1002
552 1083
552 1159
552 1250
552 1402
552 1465
552 1514
552 1524
552 1620
552 1738
552 1798
552 2170
552 2203
552 2379
552 2537
552 2562
552 2702
552 2794
552 2917
552 2963
552 3017
552 3160
552 3222
552 3368
552 3469
552 3574
552 4106
552 4119
552 4142
552 4378
552 4746
552 4822
552 4861
552 4945
553 981
553 1129
553 1223
553 1236
553 1313
553 1486
553 1562
553 1918
553 1994
553 2103
553 2733
553 2859
553 3081
553 3168
553 3392
553 3541
553 4031
553 4088
553 4878
553 4921
554 1311
554 2550
554 2619
554 2651
554 2810
554 3256
554 3339
554 3974
554 4330
554 4337
554 4711
554 4729
554 4785
555 822
555 1104
555 1606
555 1788
555 1890
555 2693
555 3049
555 3210
555 3247
555 3566
555 3584
555 4514
555 4723
555 4734
555 4870
555 4884
555 4906
556 1309
556 1321
556 1806
556 1823
556 1978
556 2490
556 3173
556 3264
556 3361
556 3561
556 3618
556 4866
556 4969
557 954
557 987
557 1542
557 1556
557 1567
557 2019
557 2152
557 2432
557 2550
557 3218
557 3385
557 3545
557 3716
557 3887
557 4489
558 662
558 673
558 792
558 875
558 903
558 989
558 1119
558 1341
558 1461
558 1471
558 1679
558 1865
558 1892
558 2162
558 2208
558 2462
558 2586
558 2622
558 2627
558 2737
558 3144
558 3233
558 3384
558 3805
558 4009
558 4041
558 4095
558 4227
558 4512
558 4530
558 4760
558 4891
558 4893
559 786
559 1367
559 1548
559 1901
559 2307
559 2408
559 2504
559 2867
559 3016
559 3499
559 3759
559 4059
559 4083
559 4258
559 4272
559 4388
559 4473
559 4943
560 579
560 582
560 846
560 1012
560 1029
560 1031
560 1159
560 1752
560 1945
560 2162
560 2618
560 2944
560 3110
560 3341
560 3563
560 3585
560 3850
560 4841
561 2014
561 2070
561 2595
561 2694
561 3378
561 3497
561 3677
561 3698
561 3952
561 4144
561 4433
561 4558
561 4742
561 4750
561 4780
562 759
562 860
562 1252
562 1659
562 1675
562 1872
562 2264
562 2630
562 2985
562 3356
562 3376
562 3952
562 4201
562 4237
562 4728
562 4899
563 840
563 884
563 901
563 1067
563 1086
563 1412
563 1566
563 1641
563 1666
563 1714
563 1903
563 2632
563 2821
563 2980
563 3105
563 3281
563 3303
563 3535
563 3581
563 3994
563 4127
563 4146
563 4240
563 4314
563 4729
563 4814
564 682
564 683
564 792
564 1640
564 1699
564 2008
564 2410
564 2413
564 2484
564 2574
564 2733
564 3088
564 3335
564 3346
564 3725
564 3906
564 4250
564 4305
564 4531
564 4541
564 4653
564 4763
565 1038
565 1394
565 1727
565 2754
565 2976
565 3075
565 3198
565 3238
565 3697
565 4009
565 4163
565 4507
565 4690
566 599
566 1492
566 1594
566 1617
566 2343
566 2695
566 2764
566 2890
566 3235
566 3267
566 3295
566 3416
566 3850
566 4004
566 4128
566 4225
567 670
567 735
567 834
567 879
567 2150
567 2439
567 2489
567 2563
567 2681
567 2820
567 2891
567 3047
567 3122
567 3763
567 3861
567 4140
567 4213
567 4368
567 4475
567 4611
567 4713
567 4896
568 700
568 869
568 1349
568 1571
568 1833
568 2226
568 2514
568 2564
568 2778
568 2854
568 2941
568 3415
568 3457
568 3533
568 3651
568 3675
568 3880
568 3886
568 4127
568 4372
568 4489
568 4734
568 4738
568 4745
568 4811
568 4872
569 607
569 1658
569 2060
569 2604
569 3025
569 3030
569 3423
569 3482
569 3804
569 4380
569 4681
570 712
570 920
570 1090
570 1251
570 1276
570 1328
570 1661
570 1706
570 1932
570 1942
570 2880
570 3150
570 3177
570 3250
570 3307
570 3336
570 3438
570 3682
570 3824
570 3922
570 4139
570 4642
570 4830
571 671
571 722
571 948
571 1020
571 1112
571 1190
571 1594
571 2049
571 2364
571 3064
571 3193
571 3245
571 3299
571 3383
571 3801
571 3967
571 4050
572 610
572 1079
572 1239
572 1387
572 2257
572 2320
572 2432
572 2550
572 2715
572 3096
572 3327
572 3369
572 3661
572 3936
572 4027
572 4376
572 4567
572 4571
572 4859
572 4967
573 695
573 736
573 1403
573 1735
573 2230
573 2259
573 2658
573 3106
573 3262
573 3275
573 3322
573 3996
573 4052
573 4185
573 4236
573 4286
574 683
574 791
574 958
574 998
574 1119
574 1167
574 1221
574 2222
574 2631
574 3621
574 4073
574 4163
574 4417
574 4498
574 4957
575 577
575 819
575 911
575 945
575 1014
575 1106
575 1684
575 1913
575 2200
575 2769
575 3095
575 3106
575 3112
575 3226
575 3403
575 3447
575 3464
575 3630
575 3692
575 3793
575 4017
575 4090
575 4365
575 4420
575 4718
576 708
576 771
576 897
576 1397
576 1446
576 1737
576 2222
576 2381
576 2503
576 2659
576 2845
576 3041
576 3068
576 3583
576 3662
576 4729
576 4995
576 4999
577 603
577 663
577 843
577 1018
577 1041
577 1369
577 1434
577 1508
577 1547
577 2118
577 2177
577 2222
577 2294
577 2312
577 2425
577 2705
577 3041
577 3213
577 3587
577 3595
577 3638
577 3856
577 4101
577 4374
577 4547
577 4623
577 4882
578 770
578 836
578 997
578 1145
578 1394
578 1479
578 1485
578 1678
578 2751
578 2960
578 3497
578 4190
578 4739
579 719
579 803
579 920
579 1031
579 1146
579 1162
579 1172
579 1188
579 1267
579 1290
579 1320
579 1387
579 1446
579 1508
579 1514
579 1618
579 1752
579 1779
579 1841
579 1887
579 2049
579 2096
579 2314
579 2421
579 2434
579 2452
579 2614
579 2938
579 2977
579 3122
579 3271
579 3384
579 3404
579 3418
579 3454
579 3463
579 3540
579 3703
579 3755
579 3929
579 3934
579 3959
579 4012
579 4048
579 4228
579 4304
579 4343
579 4369
579 4375
579 4391
579 4421
579 4545
579 4600
579 4607
579 4655
579 4711
579 4818
579 4841
579 4843
579 4969
579 4999
580 646
580 682
580 1338
580 1590
580 1787
580 1819
580 2088
580 2699
580 2722
580 2750
580 3080
580 3513
580 3706
580 3928
580 3981
580 4481
580 4634
580 4777
580 4815
581 871
581 955
581 1359
581 1677
581 2133
581 2168
581 2556
581 2924
581 3296
581 3384
581 3391
581 3538
581 3551
581 3602
581 3703
581 4040
581 4912
581 4922
582 743
582 929
582 1144
582 2467
582 2583
582 3049
582 3220
582 3322
582 3404
582 3886
582 3909
582 4119
582 4148
582 4281
582 4294
582 4298
582 4949
583 717
583 718
583 958
583 1027
583 1783
583 1814
583 2048
583 2280
583 2672
583 2839
583 3028
583 3235
583 3470
583 3914
583 3915
583 3999
583 4065
583 4479
583 4961
583 4978
584 592
584 1152
584 1232
584 1682
584 1943
584 2152
584 2547
584 2964
584 3165
584 3759
584 4167
584 4496
584 4612
584 4815
585 727
585 892
585 1559
585 1913
585 1968
585 2364
585 2484
585 2567
585 2718
585 3439
585 3471
585 3794
585 3906
585 3998
585 4606
586 899
586 927
586 1475
586 2140
586 2162
586 2348
586 2437
586 2623
586 2777
586 3111
586 3179
586 3241
586 3276
586 3503
586 4067
586 4183
586 4319
586 4472
587 954
587 1066
587 1090
587 1205
587 1224
587 1455
587 1527
587 1609
587 2402
587 2606
587 2700
587 2833
587 2969
587 3199
587 3308
587 3606
587 3985
587 4077
587 4645
587 4882
588 617
588 989
588 1031
588 1123
588 1152
588 1187
588 1197
588 1219
588 1445
588 1535
588 1617
588 1621
588 1694
588 2060
588 2221
588 2250
588 2355
588 2806
588 2850
588 2937
588 3018
588 3044
588 3126
588 3331
588 3780
588 3877
588 3968
588 4014
588 4080
588 4169
588 4320
588 4562
588 4587
588 4607
588 4620
588 4646
588 4849
589 733
589 739
589 999
589 1335
589 2100
589 2192
589 2227
589 2409
589 2665
589 3139
589 3151
589 3265
589 3365
589 3425
589 3941
589 4030
589 4140
589 4527
589 4639
589 4967
589 4975
590 920
590 1033
590 1050
590 1061
590 1195
590 1465
590 1871
590 1926
590 2159
590 2307
590 2345
590 3042
590 3227
590 3312
590 3341
590 3457
590 4220
590 4273
590 4350
590 4775
591 759
591 853
591 1213
591 1374
591 1396
591 1450
591 1609
591 1620
591 1747
591 1809
591 2064
591 2065
591 2241
591 2302
591 2402
591 2501
591 2523
591 2645
591 2752
591 2997
591 3295
591 3445
591 3491
591 3544
591 3548
591 3867
591 3907
591 3952
591 4133
591 4143
591 4165
591 4191
591 4225
591 4514
592 1124
592 1543
592 1730
592 2135
592 2213
592 2812
592 2903
592 3077
592 3804
592 4444
592 4620
592 4689
592 4742
593 883
593 889
593 1232
593 1462
593 1471
593 1553
593 1663
593 1667
593 1682
593 1988
593 2019
593 2227
593 2300
593 2350
593 2812
593 3195
593 3210
593 3427
593 3652
593 3805
593 3826
593 4059
593 4106
593 4184
594 783
594 866
594 1051
594 1136
594 1168
594 1261
594 1309
594 1311
594 1370
594 1439
594 1607
594 1639
594 1693
594 1909
594 1958
594 2132
594 2172
594 2208
594 2646
594 2988
594 4049
594 4404
594 4490
594 4592
594 4864
595 641
595 765
595 856
595 893
595 1020
595 1102
595 1466
595 1588
595 2241
595 2364
595 2518
595 2620
595 3036
595 3246
595 3325
595 3557
595 3603
595 3634
595 3709
595 4072
595 4090
595 4159
595 4625
595 4632
595 4901
596 850
596 1345
596 1512
596 2782
596 3106
596 3213
596 3331
596 3435
596 3475
596 3789
596 4765
596 4921
597 1028
597 1030
597 1421
597 1449
597 1811
597 1816
597 2198
597 2537
597 2564
597 2587
597 2591
597 2728
597 3107
597 3494
597 4018
597 4127
597 4425
597 4455
597 4563
597 4660
597 4920
598 1136
598 1273
598 1299
598 1397
598 1504
598 2031
598 2536
598 3870
598 4144
598 4425
599 741
599 822
599 948
599 1064
599 1080
599 1136
599 1469
599 1588
599 1933
599 2207
599 3478
599 3501
599 3536
599 3708
599 3923
599 4522
599 4619
600 657
600 897
600 1516
600 1552
600 1559
600 2070
600 2097
600 2588
600 3436
600 3542
600 3717
600 3821
600 4162
600 4367
600 4372
601 629
601 657
601 1308
601 2052
601 2834
601 2928
601 3116
601 3321
601 4306
601 4477
601 4478
601 4614
601 4898
602 675
602 802
602 999
602 1627
602 2457
602 2838
602 3414
602 3470
602 3486
602 3600
602 3837
602 4089
602 4461
602 4522
602 4621
602 4639
602 4718
603 618
603 834
603 1194
603 1296
603 1426
603 1557
603 1766
603 2372
603 2609
603 2864
603 3384
603 3425
603 3640
603 3648
603 4220
603 4237
603 4670
603 4846
603 4936
604 1655
604 2497
604 3335
604 3514
604 3744
604 4029
604 4760
604 4864
604 4895
605 643
605 1533
605 1542
605 1624
605 1649
605 1715
605 2364
605 2499
605 2542
605 2773
605 3508
605 3558
605 3776
605 3823
605 3894
605 4035
605 4098
605 4219
605 4510
605 4767
606 677
606 1018
606 1056
606 1605
606 1705
606 1835
606 2056
606 2203
606 2347
606 2413
606 3274
606 3833
606 3851
606 4063
606 4390
606 4414
606 4428
606 4470
606 4897
607 941
607 944
607 1449
607 1987
607 2028
607 2238
607 2407
607 2454
607 2469
607 3398
607 3471
607 3743
607 3846
607 3890
607 4206
607 4252
608 1266
608 1311
608 1453
608 1973
608 2147
608 2195
608 2676
608 2837
608 3009
608 3378
608 3530
608 3587
608 4042
608 4199
608 4273
608 4395
608 4422
608 4653
608 4807
608 4853
608 4870
609 674
609 832
609 1031
609 1086
609 1323
609 2040
609 2110
609 2659
609 3784
609 3821
609 4068
609 4227
609 4417
609 4806
609 4878
609 4889
610 735
610 1152
610 1305
610 1327
610 1437
610 1527
610 1735
610 1888
610 1996
610 2443
610 2682
610 2700
610 2955
610 3086
610 3117
610 3484
610 3778
610 3937
610 4102
610 4153
610 4170
610 4222
610 4290
610 4543
610 4786
610 4792
611 757
611 878
611 948
611 1134
611 1546
611 1971
611 2162
611 2295
611 3012
611 3315
611 3995
611 4044
612 790
612 860
612 919
612 1133
612 1236
612 1390
612 1404
612 1495
612 1607
612 2051
612 2368
612 2449
612 2519
612 2532
612 2580
612 2629
612 2731
612 2956
612 3294
612 3296
612 3341
612 3555
612 3703
612 3785
612 3915
612 3962
612 4138
612 4226
612 4236
612 4535
612 4874
612 4926
612 4951
613 743
613 766
613 794
613 1045
613 1171
613 1191
613 1691
613 1935
613 2014
613 2215
613 2250
613 2270
613 2804
613 3012
613 3071
613 3322
613 3570
613 3950
613 4073
613 4266
613 4364
613 4380
613 4395
613 4532
613 4575
613 4823
613 4941
614 877
614 1548
614 1596
614 1729
614 1970
614 2208
614 2348
614 2860
614 2876
614 3130
614 3264
614 3392
614 3415
614 3581
614 4126
614 4478
614 4682
614 4710
614 4759
614 4763
614 4799
614 4827
614 4923
615 684
615 801
615 1210
615 1296
615 1321
615 1341
615 1457
615 1506
615 1770
615 1960
615 1976
615 2074
615 2123
615 2231
615 2441
615 2499
615 2728
615 3003
615 3151
615 3373
615 3503
615 3590
615 3640
615 3710
615 3719
615 3736
615 3769
615 3896
615 3905
615 4077
615 4140
615 4458
615 4575
615 4713
615 4722
615 4826
615 4893
615 4944
616 921
616 1395
616 1557
616 1682
616 2039
616 2513
616 2667
616 2744
616 3204
616 3438
616 3699
616 4372
616 4510
617 663
617 1413
617 1592
617 1831
617 1875
617 2676
617 2841
617 2966
617 3055
617 3156
617 3535
617 3817
617 4133
617 4625
618 796
618 1482
618 2211
618 2375
618 2394
618 2450
618 2806
618 2959
618 3194
618 3208
618 3733
618 3851
618 3926
618 4052
618 4183
618 4544
618 4911
619 909
619 1083
619 1341
619 1453
619 1633
619 1673
619 1724
619 1763
619 1821
619 2005
619 2162
619 2163
619 2324
619 2541
619 2571
619 2589
619 2801
619 2897
619 2942
619 3019
619 3274
619 3682
619 3790
619 3971
619 4195
619 4243
619 4312
619 4330
619 4607
619 4629
619 4870
619 4906
619 4959
620 871
620 1286
620 2623
620 3016
620 3084
620 3326
620 3381
620 3647
620 4484
621 925
621 1046
621 1197
621 1213
621 1291
621 1298
621 1442
621 1455
621 1609
621 1612
621 1683
621 1692
621 1717
621 1849
621 1887
621 2177
621 2303
621 2497
621 2573
621 3123
621 3683
621 3914
621 3972
621 4106
621 4124
621 4168
621 4212
621 4519
621 4746
621 4831
621 4854
622 761
622 860
622 880
622 973
622 1156
622 1173
622 1269
622 1293
622 1358
622 1494
622 1512
622 1618
622 1619
622 1895
622 1938
622 2020
622 2037
622 2125
622 2132
622 2137
622 2234
622 2240
622 2247
622 2257
622 2410
622 2449
622 2938
622 2970
622 3193
622 3225
622 3420
622 3428
622 3452
622 3635
622 3792
622 4106
622 4181
622 4274
622 4756
622 4964
623 630
623 679
623 945
623 1279
623 1522
623 1543
623 1653
623 1814
623 1924
623 2288
623 2298
623 2902
623 2936
623 3168
623 3455
623 3457
623 3586
623 3679
623 3733
623 3931
623 4006
623 4049
623 4232
623 4291
623 4612
623 4723
623 4733
623 4888
623 4916
623 4990
624 664
624 855
624 1210
624 1227
624 1424
624 1498
624 1581
624 2093
624 2098
624 2200
624 2259
624 2474
624 2571
624 3087
624 3300
624 3520
624 3727
624 3817
624 4089
624 4119
624 4138
624 4248
624 4291
624 4540
624 4600
624 4653
624 4710
624 4969
625 1309
625 1455
625 1539
625 1552
625 1773
625 1792
625 1914
625 2491
625 2617
625 2625
625 3116
625 3179
625 3661
625 3681
625 3697
625 4090
625 4288
625 4926
626 928
626 1202
626 2257
626 2506
626 3303
626 3384
626 3802
626 3938
626 4009
626 4375
626 4386
627 671
627 934
627 947
627 995
627 1098
627 1222
627 1319
627 1321
627 1493
627 1686
627 1797
627 2610
627 2629
627 2675
627 2730
627 3192
627 3277
627 3595
627 3655
627 3834
627 3938
627 4212
627 4745
627 4875
628 675
628 1032
628 1081
628 1271
628 1660
628 1748
628 1801
628 2145
628 2163
628 2170
628 2197
628 2336
628 2549
628 2587
628 3124
628 3146
628 3495
628 3635
628 3685
628 3958
628 4022
628 4229
628 4469
628 4546
628 4582
628 4655
628 4720
628 4809
628 4994
629 939
629 948
629 2012
629 2595
629 2746
629 2775
629 2879
629 3299
629 3348
629 3423
629 3513
629 4113
629 4364
629 4461
629 4484
630 908
630 1221
630 1365
630 1705
630 2006
630 2059
630 2364
630 2880
630 2930
630 3075
630 3618
630 3925
630 4110
630 4166
630 4804
630 4853
630 4879
631 645
631 758
631 837
631 948
631 982
631 1828
631 1829
631 1858
631 1929
631 1954
631 2183
631 2379
631 2693
631 2791
631 2938
631 2960
631 3032
631 3049
631 3058
631 3298
631 3300
631 3464
631 3513
631 3597
631 3629
631 3700
631 3744
631 3842
631 3987
631 4017
631 4274
631 4300
631 4385
631 4761
631 4789
632 1867
632 1890
632 1959
632 2305
632 2871
632 3273
632 3474
632 3557
632 3576
632 3631
632 4064
632 4495
632 4576
632 4647
632 4718
632 4748
633 1018
633 1086
633 1489
633 1652
633 1726
633 1916
633 1976
633 2106
633 2215
633 2655
633 3121
633 3224
633 3395
633 3529
633 4070
633 4177
633 4396
633 4851
634 667
634 696
634 840
634 918
634 948
634 1190
634 1608
634 1936
634 1983
634 2028
634 2145
634 2213
634 2353
634 2367
634 2623
634 2669
634 2808
634 3298
634 3302
634 3957
634 4207
634 4489
634 4563
635 762
635 791
635 993
635 1113
635 1177
635 2200
635 2449
635 2687
635 3182
635 4137
635 4389
635 4895
636 834
636 842
636 1487
636 3028
636 3892
636 4303
636 4355
636 4414
636 4631
636 4639
636 4988
637 1168
637 1330
637 2375
637 2515
637 2645
637 2935
637 3233
637 3238
637 3718
637 4012
637 4175
637 4774
637 4935
638 683
638 913
638 944
638 980
638 1136
638 1398
638 1851
638 2026
638 2229
638 2250
638 2364
638 2566
638 2672
638 3496
638 3517
638 4039
638 4198
638 4670
639 660
639 760
639 841
639 866
639 890
639 1228
639 1279
639 1366
639 1569
639 1601
639 1819
639 2068
639 2159
639 2168
639 2640
639 3116
639 3187
639 3268
639 3274
639 3315
639 3416
639 3575
639 3733
639 3779
639 3935
639 4134
639 4146
639 4215
639 4270
639 4443
639 4735
639 4766
639 4793
639 4896
639 4968
640 929
640 1115
640 1479
640 1913
640 2145
640 2551
640 2700
640 2801
640 3122
640 3333
640 3455
640 4231
641 980
641 1201
641 1313
641 1716
641 1920
641 1981
641 3312
641 3744
641 4310
641 4482
642 1651
642 1657
642 1829
642 2145
642 2393
642 3149
642 3314
642 3328
642 3439
642 4335
642 4639
643 786
643 808
643 933
643 1170
643 1198
643 1343
643 1820
643 1939
643 1973
643 1996
643 2162
643 2342
643 2499
643 2515
643 2936
643 3384
643 3697
643 4644
643 4667
644 688
644 735
644 860
644 968
644 1090
644 1139
644 1221
644 1386
644 1426
644 1498
644 1704
644 1865
644 1989
644 2437
644 2444
644 2573
644 2707
644 2926
644 2972
644 2994
644 3215
644 3292
644 3517
644 3575
644 3598
644 3832
644 4169
644 4259
644 4261
644 4302
644 4306
644 4309
644 4388
644 4436
644 4459
644 4461
644 4489
644 4536
644 4716
644 4830
644 4835
645 731
645 752
645 963
645 1067
645 1575
645 1608
645 2334
645 2430
645 2735
645 2753
645 2990
645 3024
645 3054
645 3106
645 3603
645 3926
645 4143
645 4155
645 4195
645 4868
646 955
646 998
646 1429
646 1623
646 1900
646 1932
646 2100
646 2316
646 2933
646 3305
646 3759
646 3944
646 4137
646 4690
646 4988
647 651
647 804
647 909
647 1114
647 1558
647 1560
647 1702
647 1767
647 1907
647 1957
647 1979
647 2297
647 2522
647 2886
647 3174
647 3230
647 3716
647 3986
647 4046
647 4192
647 4228
647 4259
647 4381
647 4863
648 796
648 933
648 1590
648 2203
648 2384
648 2774
648 3139
648 3174
648 3567
648 3749
648 4505
649 813
649 1138
649 1956
649 2343
649 2366
649 2469
649 2503
649 2914
649 2950
649 2981
649 3062
649 3387
649 3523
649 3546
649 3551
649 3889
649 4508
649 4534
649 4825
650 1102
650 1105
650 1608
650 1666
650 1689
650 1803
650 1852
650 2065
650 2279
650 2469
650 2524
650 2706
650 2709
650 2718
650 2816
650 2857
650 2939
650 3682
650 3736
650 3891
650 4742
650 4951
651 736
651 1089
651 1938
651 1979
651 2026
651 2141
651 2305
651 2337
651 2602
651 2676
651 2810
651 3168
651 3363
651 3454
651 3473
651 3497
651 3562
651 3766
651 3875
651 4000
651 4268
651 4528
651 4704
651 4868
652 1416
652 1443
652 1600
652 1784
652 2675
652 2943
652 2986
652 3127
652 3684
652 4690
652 4962
653 1062
653 2178
653 2433
653 2566
653 2943
653 2949
653 2976
653 3432
653 3515
653 3548
653 3867
653 4527
653 4642
653 4711
653 4880
654 713
654 795
654 1319
654 1443
654 1495
654 1708
654 1851
654 2029
654 2485
654 2609
654 2620
654 2815
654 2830
654 2866
654 2879
654 3076
654 3198
654 3319
654 3436
654 3463
654 3630
654 3804
654 3854
654 3864
654 3903
654 4008
654 4190
654 4460
654 4497
654 4563
654 4846
654 4987
655 700
655 955
655 1360
655 1650
655 2118
655 2185
655 2269
655 2350
655 2426
655 2532
655 3345
655 3577
655 3594
655 3847
655 4102
655 4567
655 4711
655 4806
655 4863
656 715
656 834
656 1176
656 1285
656 1308
656 1670
656 1848
656 2104
656 2440
656 2488
656 3404
656 3876
656 4354
657 760
657 822
657 957
657 970
657 985
657 1899
657 2196
657 2610
657 2908
657 2935
657 2992
657 3335
657 3394
657 3473
657 3744
657 3889
657 3896
657 4204
657 4375
657 4518
657 4627
658 825
658 1184
658 1338
658 1680
658 1913
658 2168
658 2440
658 2569
658 2675
658 2826
658 2935
658 3322
658 3517
658 4003
658 4612
658 4717
658 4744
659 660
659 681
659 688
659 689
659 761
659 821
659 861
659 952
659 984
659 1058
659 1247
659 1403
659 1409
659 1689
659 1779
659 1812
659 1850
659 2006
659 2123
659 2182
659 2213
659 2280
659 2358
659 2546
659 2654
659 2703
659 2755
659 2782
659 2801
659 2876
659 2924
659 2939
659 2987
659 3069
659 3104
659 3149
659 3257
659 3385
659 3761
659 3792
659 3855
659 3862
659 3911
659 3952
659 3986
659 4128
659 4149
659 4296
659 4423
659 4433
659 4533
659 4606
659 4754
659 4790
660 722
660 872
660 1027
660 1128
660 1582
660 1757
660 1875
660 2001
660 2027
660 2512
660 2721
660 2842
660 3423
660 3606
660 4040
660 4078
660 4097
660 4228
660 4609
660 4645
660 4809
661 818
661 1001
661 1121
661 1278
661 1416
661 1745
661 1813
661 1854
661 2030
661 2069
661 2211
661 2227
661 2379
661 2436
661 2514
661 2601
661 2919
661 3293
661 3664
661 3710
661 4744
661 4828
662 766
662 882
662 922
662 1034
662 1533
662 1590
662 1645
662 2103
662 2204
662 2515
662 3076
662 3448
662 3632
662 3810
662 3830
662 3841
662 3949
662 3965
662 4300
662 4818
662 4891
663 1068
663 1080
663 1465
663 1492
663 1650
663 2087
663 2105
663 2394
663 3049
663 3113
663 3126
663 3139
663 3363
663 3561
663 3595
663 3873
663 4153
663 4374
663 4621
663 4663
663 4782
663 4790
664 910
664 1170
664 1349
664 1388
664 1392
664 1420
664 1579
664 1669
664 1680
664 1765
664 1899
664 1966
664 2013
664 2050
664 2159
664 2263
664 2491
664 2682
664 2896
664 2954
664 3213
664 3228
664 3335
664 3682
664 3971
664 4122
664 4272
664 4283
664 4476
664 4959
664 4965
664 4968
665 1359
665 1590
665 1830
665 2432
665 2517
665 3039
665 3135
665 3279
665 3668
665 4476
665 4623
666 1362
666 1376
666 1437
666 1813
666 1860
666 1975
666 2028
666 2063
666 2734
666 2843
666 2937
666 2980
666 3035
666 3145
666 3243
666 3604
666 3678
666 4035
666 4196
666 4433
666 4982
667 907
667 1043
667 1341
667 1689
667 1707
667 1893
667 2269
667 2375
667 2702
667 3207
667 3328
667 3692
667 4991
668 704
668 972
668 1020
668 1232
668 1422
668 2253
668 2882
668 3049
668 3138
668 3202
668 3253
668 3520
668 3642
668 4031
668 4372
668 4541
669 758
669 994
669 1059
669 1165
669 1414
669 1694
669 1696
669 1856
669 2153
669 2485
669 2617
669 2855
669 3837
669 4001
669 4127
669 4430
669 4788
670 685
670 751
670 1033
670 1588
670 1676
670 1970
670 2028
670 2272
670 3335
670 3365
670 3518
670 3776
670 3805
670 3872
670 3878
670 3883
670 4068
670 4090
670 4093
670 4138
670 4433
670 4493
670 4810
671 863
671 867
671 1328
671 1339
671 1787
671 1972
671 2217
671 2966
671 3075
671 3314
671 3343
671 3554
671 3595
671 3628
671 3647
671 3754
671 3802
671 3805
671 3965
671 4516
671 4547
671 4573
671 4577
671 4647
671 4720
671 4770
671 4916
672 674
672 1008
672 1100
672 1206
672 1496
672 1556
672 2207
672 2217
672 2335
672 2371
672 2447
672 2449
672 2451
672 2547
672 2574
672 2880
672 2902
672 3236
672 3273
672 3426
672 3454
672 3498
672 3725
672 3873
672 4053
672 4067
672 4098
672 4196
672 4213
672 4367
672 4394
672 4541
672 4681
672 4802
672 4914
673 958
673 1009
673 1105
673 1136
673 1391
673 1539
673 1814
673 2367
673 2642
673 2839
673 3372
673 3889
673 4021
673 4149
673 4414
673 4489
673 4604
673 4682
674 990
674 1298
674 2285
674 2304
674 2544
674 2556
674 2794
674 4232
674 4665
674 4976
675 739
675 753
675 916
675 1004
675 1084
675 1265
675 1479
675 1557
675 1568
675 1703
675 2003
675 2018
675 2271
675 2507
675 3033
675 3190
675 3247
675 3250
675 3281
675 3390
675 3519
675 3556
675 4044
675 4084
675 4163
675 4211
675 4303
675 4428
675 4500
675 4573
675 4729
675 4740
675 4822
675 4871
676 918
676 1051
676 1213
676 1302
676 1511
676 1854
676 1990
676 2098
676 2140
676 2400
676 2693
676 2700
676 2729
676 2752
676 2948
676 3466
676 3480
676 3497
676 3978
676 4200
676 4370
676 4371
676 4901
677 1311
677 1445
677 1653
677 1659
677 1704
677 1897
677 2271
677 2449
677 2689
677 2986
677 2994
677 3162
677 3314
677 3405
677 3485
677 3517
677 3588
677 3766
677 4559
678 768
678 868
678 1613
678 1720
678 2217
678 2549
678 2595
678 2795
678 2820
678 2936
678 3764
678 3936
678 4147
678 4645
679 715
679 1104
679 1143
679 1813
679 1896
679 2074
679 2260
679 2282
679 2454
679 2669
679 2813
679 3373
679 3381
679 4050
679 4697
680 896
680 1009
680 1075
680 1326
680 1386
680 2029
680 2113
680 2247
680 2382
680 2660
680 2702
680 2853
680 3141
680 3295
680 3752
680 4880
681 958
681 1100
681 2149
681 2735
681 2781
681 2821
681 3277
681 3315
681 3557
681 4232
681 4446
681 4496
681 4675
682 1101
682 1348
682 1527
682 1793
682 1803
682 2427
682 2728
682 3017
682 3220
682 3491
682 3535
682 4116
682 4453
682 4889
682 4940
682 4966
683 803
683 844
683 887
683 991
683 1002
683 1102
683 1224
683 1243
683 1403
683 1570
683 1650
683 1652
683 1799
683 1882
683 1971
683 2118
683 2125
683 2439
683 2478
683 2804
683 2877
683 3013
683 3311
683 3433
683 3470
683 3695
683 3739
683 3811
683 3923
683 3945
683 3974
683 4037
683 4042
683 4217
683 4529
683 4546
683 4645
683 4646
683 4770
683 4905
683 4922
683 4952
684 738
684 818
684 931
684 990
684 1114
684 1479
684 1523
684 2119
684 2123
684 2325
684 2395
684 2416
684 2518
684 2653
684 2767
684 2779
684 2817
684 3053
684 3080
684 3132
684 3218
684 3425
684 3535
684 3751
684 3842
684 3859
684 3878
684 4000
684 4081
684 4247
684 4304
684 4340
684 4370
684 4467
684 4547
684 4600
684 4669
684 4730
684 4788
684 4933
684 4988
684 4997
685 822
685 1181
685 1240
685 1560
685 1625
685 1830
685 1883
685 2167
685 2228
685 2368
685 2384
685 2732
685 3161
685 3361
685 3426
685 3629
685 3646
685 3721
685 3891
685 4080
685 4256
685 4738
685 4889
686 852
686 1201
686 1263
686 1313
686 1405
686 1538
686 1590
686 1774
686 1804
686 2028
686 2049
686 2054
686 2152
686 2532
686 2550
686 2650
686 2834
686 2883
686 2918
686 3007
686 3042
686 3098
686 3123
686 3196
686 3338
686 3492
686 3529
686 3620
686 3872
686 3874
686 3896
686 3989
686 4004
686 4107
686 4248
686 4280
686 4443
686 4523
686 4531
686 4658
686 4715
686 4724
686 4757
687 1067
687 1128
687 1342
687 1435
687 1449
687 1729
687 1792
687 2029
687 2259
687 2681
687 2855
687 3074
687 3216
687 3382
687 3633
687 3740
687 4023
687 4040
687 4284
687 4507
687 4863
688 1095
688 1334
688 1632
688 1918
688 1939
688 2194
688 2462
688 2488
688 2535
688 2643
688 2944
688 3467
688 4125
688 4354
688 4418
688 4486
689 707
689 1073
689 1189
689 1264
689 2038
689 2192
689 2362
689 2365
689 2470
689 2492
689 2542
689 2666
689 2672
689 2936
689 2950
689 2977
689 3101
689 3169
689 3209
689 3344
689 3355
689 3477
689 3595
689 4127
689 4449
689 4822
689 4841
690 1286
690 1358
690 1367
690 1937
690 2180
690 2242
690 2333
690 2834
690 2938
690 3056
690 3147
690 3198
690 3541
690 3572
690 3721
690 3744
690 3973
690 4001
690 4846
690 4881
691 781
691 983
691 1304
691 1516
691 1577
691 1665
691 1836
691 2392
691 2587
691 2632
691 3318
691 3692
691 3719
691 3925
691 3953
691 4017
691 4177
691 4196
691 4348
691 4870
692 718
692 725
692 1608
692 1792
692 1800
692 1816
692 2461
692 2602
692 2785
692 2867
692 3190
692 3203
692 3388
692 3647
692 3749
692 4765
692 4772
692 4777
692 4883
692 4935
693 793
693 837
693 1159
693 1458
693 1516
693 1754
693 2557
693 2639
693 2736
693 3152
693 3476
693 3483
693 3763
693 3796
693 3798
693 4753
693 4894
693 4913
694 702
694 767
694 1512
694 1863
694 2149
694 2195
694 2729
694 3577
694 3583
694 3788
694 3838
695 1441
695 1542
695 1577
695 2276
695 2346
695 3603
695 3695
695 3793
695 4032
695 4323
695 4350
695 4610
695 4632
695 4684
695 4782
696 884
696 886
696 1199
696 1232
696 1450
696 1655
696 1726
696 1729
696 1734
696 1896
696 2261
696 2762
696 2910
696 3366
696 3548
696 3700
696 3822
696 4228
696 4472
696 4618
696 4646
696 4845
696 4973
697 780
697 1029
697 1101
697 1114
697 1437
697 1506
697 1872
697 2014
697 2343
697 2510
697 3552
697 3709
697 3938
697 4031
697 4374
698 718
698 1131
698 1407
698 1870
698 1949
698 1965
698 2042
698 2120
698 2220
698 2267
698 2369
698 2385
698 2407
698 3081
698 3125
698 3643
698 3786
698 4229
698 4358
698 4417
698 4825
699 794
699 979
699 1487
699 1669
699 1784
699 1885
699 2263
699 2279
699 2360
699 2839
699 3405
699 3487
699 3497
699 3567
699 3714
699 3958
699 4150
699 4941
699 4992
700 762
700 979
700 1020
700 1057
700 1157
700 1592
700 1643
700 1888
700 1902
700 2088
700 2092
700 2463
700 2835
700 3099
700 3293
700 3308
700 3536
700 3814
700 4057
701 865
701 999
701 1058
701 1064
701 1269
701 1429
701 1609
701 1681
701 1782
701 1984
701 2159
701 2284
701 2397
701 2505
701 2537
701 2685
701 2732
701 2838
701 2948
701 3131
701 3178
701 3284
701 3464
701 3531
701 4466
701 4486
702 958
702 967
702 1067
702 1138
702 1221
702 1239
702 1436
702 1452
702 1506
702 1628
702 1635
702 1654
702 1914
702 2009
702 2027
702 2398
702 2536
702 2627
702 3039
702 3109
702 3371
702 3376
702 4532
702 4598
702 4631
702 4769
702 4777
702 4825
702 4906
703 1053
703 1516
703 1582
703 1617
703 1879
703 2163
703 2236
703 2340
703 2633
703 2868
703 2902
703 3116
703 3240
703 3911
703 4104
703 4272
703 4635
703 4687
703 4747
703 4889
703 4938
703 4939
704 793
704 931
704 1074
704 1319
704 1376
704 1671
704 1700
704 1771
704 1884
704 2259
704 2552
704 2572
704 2917
704 2970
704 3089
704 3099
704 3327
704 3471
704 3476
704 3714
704 3822
704 4034
704 4218
704 4356
704 4413
704 4503
704 4587
704 4719
705 1275
705 1422
705 1533
705 1609
705 1655
705 1899
705 2313
705 2356
705 2519
705 2540
705 2569
705 2674
705 2878
705 2888
705 3393
705 3567
705 3842
705 4168
705 4506
705 4559
705 4676
705 4838
705 4986
706 725
706 794
706 822
706 918
706 1020
706 1091
706 1135
706 1260
706 1295
706 1601
706 1655
706 1947
706 1950
706 1989
706 2200
706 2604
706 3116
706 3213
706 3403
706 3418
706 3498
706 3701
706 3761
706 3848
706 3933
706 4006
706 4397
706 4489
706 4593
706 4606
706 4722
706 4778
706 4997
707 713
707 867
707 960
707 1056
707 1139
707 1287
707 1403
707 1437
707 1641
707 1801
707 1871
707 2024
707 2064
707 2066
707 2151
707 2276
707 2416
707 2476
707 2550
707 2745
707 2890
707 3186
707 3246
707 3330
707 3375
707 3456
707 3596
707 3652
707 3687
707 3782
707 4051
707 4178
707 4374
707 4490
707 4524
707 4640
707 4841
707 4938
708 1057
708 1132
708 1139
708 1209
708 1556
708 1762
708 1946
708 2163
708 2861
708 3051
708 3263
708 3697
708 3840
708 4096
708 4109
708 4152
708 4424
708 4736
708 4799
709 754
709 813
709 901
709 943
709 1343
709 2093
709 2145
709 2267
709 2615
709 3464
709 3545
709 3561
709 3918
709 3938
709 4388
710 721
710 973
710 1124
710 1557
710 1716
710 1827
710 1973
710 2898
710 3057
710 3234
710 3657
710 3703
710 3796
710 4429
710 4761
710 4880
711 1177
711 1247
711 1945
711 1990
711 2393
711 2452
711 2538
711 2548
711 3227
711 3276
711 3366
711 3805
711 4045
711 4154
711 4275
711 4397
711 4478
711 4655
711 4717
712 1006
712 1082
712 1316
712 1604
712 2459
712 2518
712 3174
712 3397
712 3590
712 4294
712 4836
713 732
713 734
713 1108
713 1175
713 1442
713 1571
713 1755
713 1940
713 1970
713 2037
713 2245
713 2377
713 2468
713 2479
713 2544
713 2577
713 2738
713 2785
713 3037
713 3087
713 3189
713 3384
713 3463
713 3476
713 3671
713 3744
713 3817
713 3890
713 4043
713 4421
713 4519
713 4836
714 724
714 920
714 1252
714 2085
714 2267
714 2673
714 2936
714 3028
714 3215
714 3515
714 3616
714 3710
714 4020
714 4717
715 939
715 1173
715 1342
715 1379
715 1608
715 2781
715 2907
715 2958
715 3227
715 4277
715 4308
715 4318
715 4634
715 4762
715 4911
716 1135
716 1195
716 1388
716 1781
716 1949
716 2001
716 2114
716 2224
716 2750
716 2936
716 3102
716 3321
716 3335
716 3435
716 3611
716 3729
716 3789
716 3803
716 3931
716 4071
716 4091
716 4492
716 4874
716 4907
716 4936
717 742
717 769
717 1343
717 1350
717 1486
717 1731
717 1878
717 1941
717 2754
717 3168
717 3315
717 3593
717 4077
717 4404
717 4417
717 4641
717 4710
717 4999
718 958
718 992
718 1043
718 1159
718 1284
718 1339
718 1403
718 1428
718 1467
718 1502
718 1518
718 1542
718 1546
718 1700
718 1754
718 1793
718 1805
718 1986
718 1994
718 2032
718 2221
718 2300
718 2339
718 2469
718 2534
718 2586
718 2780
718 2793
718 2855
718 3024
718 3028
718 3086
718 3112
718 3145
718 3211
718 3251
718 3281
718 3361
718 3552
718 3621
718 3634
718 3652
718 3774
718 3787
718 3790
718 3885
718 3953
718 4055
718 4066
718 4157
718 4220
718 4294
718 4406
718 4433
718 4452
718 4483
718 4499
718 4678
719 797
719 1090
719 1210
719 1439
719 1685
719 1745
719 3157
719 3165
719 3595
719 3749
719 3880
719 4057
719 4282
719 4732
720 857
720 1046
720 1487
720 1862
720 1953
720 2063
720 2295
720 2625
720 2714
720 2919
720 2954
720 3210
720 3253
720 3538
720 3579
720 3998
720 4190
721 724
721 725
721 854
721 1452
721 1700
721 1736
721 1781
721 2008
721 2100
721 2267
721 2272
721 2342
721 2443
721 2514
721 2538
721 3229
721 3249
721 3253
721 3607
721 3838
721 3896
721 3919
721 3931
721 4119
721 4124
721 4484
721 4512
722 846
722 1228
722 1414
722 1874
722 1970
722 2106
722 2418
722 2568
722 2752
722 2929
722 2936
722 3079
722 3249
722 3386
722 3531
722 3967
722 4253
722 4284
722 4474
722 4622
722 4687
722 4888
723 898
723 913
723 1782
723 2196
723 2438
723 2446
723 2585
723 3456
723 3660
723 3738
723 4314
724 800
724 944
724 1100
724 1250
724 1424
724 1558
724 1686
724 1729
724 1817
724 1905
724 2056
724 2095
724 2174
724 2289
724 2506
724 2856
724 3203
724 3239
724 3486
724 3538
724 3763
724 3835
724 3903
724 4116
724 4158
724 4362
724 4586
724 4623
724 4704
725 972
725 999
725 1116
725 1271
725 1915
725 1925
725 2061
725 2257
725 2311
725 2397
725 2512
725 2576
725 2656
725 2855
725 2920
725 2931
725 3036
725 3473
725 3590
725 3653
725 3788
725 4195
725 4318
725 4512
725 4632
725 4856
725 4976
726 866
726 1363
726 1382
726 1548
726 1600
726 1899
726 1940
726 2546
726 2706
726 2947
726 3340
726 3607
726 4523
726 4532
726 4888
727 1028
727 1488
727 1799
727 2236
727 2955
727 3057
727 3688
727 3853
727 4108
727 4183
727 4763
728 1101
728 1187
728 1620
728 1723
728 2207
728 2689
728 2767
728 3417
728 4006
728 4040
728 4577
728 4635
728 4636
729 791
729 795
729 828
729 832
729 1343
729 1412
729 1413
729 1470
729 1519
729 2028
729 2519
729 2607
729 2915
729 3163
729 3215
729 3567
729 3645
729 3763
729 3973
729 4055
729 4121
729 4213
729 4248
729 4319
729 4496
729 4570
729 4776
729 4843
730 805
730 1489
730 2403
730 2830
730 2901
730 3475
730 3612
730 4171
730 4394
730 4473
731 818
731 830
731 1033
731 1219
731 1794
731 1848
731 1949
731 2252
731 2396
731 2719
731 3097
731 3131
731 3138
731 3371
731 3451
731 3846
731 4044
731 4185
731 4730
731 4807
732 909
732 984
732 1834
732 1839
732 2058
732 2457
732 2788
732 3151
732 3283
732 3358
732 3627
732 3659
732 3714
732 4593
732 4746
732 4761
732 4901
733 1058
733 1140
733 2209
733 2698
733 3051
733 3339
733 3342
733 3887
733 4284
734 873
734 933
734 959
734 1521
734 1583
734 1603
734 1765
734 2113
734 2371
734 2508
734 2612
734 3073
734 3168
734 3262
734 3352
734 3369
734 3375
734 3475
734 3798
734 4073
734 4413
735 948
735 1142
735 1186
735 1409
735 1514
735 1534
735 1558
735 1662
735 1774
735 2019
735 2102
735 2131
735 2358
735 2362
735 2587
735 2665
735 2687
735 2707
735 2847
735 2890
735 2916
735 3023
735 3263
735 3449
735 3468
735 3537
735 3559
735 4144
735 4842
736 755
736 765
736 845
736 981
736 1379
736 1418
736 1530
736 1621
736 2034
736 2577
736 2655
736 2895
736 3167
736 3510
736 4070
736 4239
736 4246
736 4293
736 4594
736 4665
736 4670
736 4783
736 4821
737 939
737 1615
737 1641
737 1715
737 1746
737 1751
737 1851
737 1975
737 2028
737 2192
737 2321
737 2361
737 2530
737 2537
737 3378
737 3483
737 3544
737 3796
737 3875
737 4422
737 4780
738 906
738 1302
738 1729
738 1827
738 2056
738 2513
738 2728
738 3262
738 3657
738 4105
738 4707
738 4760
739 746
739 888
739 949
739 1274
739 1563
739 1729
739 1938
739 1967
739 2503
739 2964
739 2982
739 3651
739 3749
739 3911
739 4101
739 4124
739 4125
739 4388
739 4676
739 4706
739 4858
740 1632
740 1703
740 2185
740 2343
740 2363
740 2753
740 2779
740 3007
740 3116
740 3136
740 3233
740 3268
740 3465
740 3507
740 3611
740 3919
740 4205
740 4422
740 4629
740 4768
741 765
741 880
741 984
741 1005
741 1073
741 1088
741 1373
741 1486
741 1670
741 1899
741 2269
741 2562
741 2953
741 2965
741 3597
741 4039
741 4260
741 4346
741 4497
741 4757
741 4823
741 4846
742 823
742 856
742 898
742 1108
742 1303
742 1312
742 1408
742 2177
742 2220
742 2243
742 2411
742 2488
742 2597
742 2616
742 2674
742 2683
742 2787
742 2971
742 3427
742 3464
742 3595
742 3607
742 4418
742 4950
743 785
743 948
743 1137
743 1232
743 1473
743 1500
743 1627
743 1997
743 2094
743 2506
743 2521
743 2929
743 3148
743 3355
743 3395
743 4161
743 4280
743 4306
743 4582
743 4705
744 1029
744 1542
744 1586
744 1588
744 1932
744 2377
744 2399
744 3193
744 3293
744 3416
744 4350
744 4695
744 4710
744 4852
745 1148
745 1276
745 1545
745 1772
745 1944
745 1962
745 2380
745 2456
745 2583
745 2738
745 3060
745 3377
745 3497
745 4112
745 4206
745 4437
745 4795
745 4873
745 4877
746 749
746 787
746 1050
746 1184
746 1193
746 1448
746 1563
746 1704
746 2027
746 2247
746 2301
746 2352
746 2369
746 2420
746 2623
746 2904
746 3074
746 3116
746 3640
746 3793
746 4112
746 4128
746 4213
746 4243
746 4264
746 4278
746 4341
746 4680
746 4762
746 4927
746 4941
747 785
747 1048
747 1255
747 1552
747 1885
747 2143
747 2208
747 2305
747 2690
747 2848
747 3136
747 3168
747 3202
747 3212
747 3360
747 3830
748 886
748 948
748 1240
748 1257
748 1314
748 1597
748 1959
748 2193
748 2390
748 2580
748 3303
748 3349
748 3365
748 3408
748 3700
748 3723
748 3991
748 4087
748 4629
748 4925
749 1028
749 1136
749 2299
749 2637
749 2649
749 2872
749 2925
749 3429
749 3441
749 3479
749 3761
749 3786
749 3872
749 4369
749 4640
750 1428
750 1436
750 1479
750 1678
750 1801
750 2237
750 2286
750 2307
750 3360
750 3512
750 3532
750 3828
750 4242
750 4307
750 4328
751 874
751 1578
751 1908
751 1911
751 2056
751 2618
751 2718
751 3024
751 3536
751 4162
751 4323
751 4589
752 1608
752 1696
752 1913
752 1970
752 2889
752 3183
752 3464
752 3733
752 4050
752 4389
752 4656
752 4992
753 920
753 1017
753 1058
753 1175
753 1617
753 1720
753 1834
753 2416
753 2909
753 3154
753 3373
753 4145
753 4507
754 842
754 1001
754 1285
754 1293
754 1318
754 1547
754 2186
754 2360
754 2826
754 3158
754 3277
754 3424
754 3493
754 3519
754 3924
754 4428
754 4611
754 4653
755 836
755 1082
755 1090
755 1605
755 1608
755 1712
755 2016
755 2019
755 2063
755 2235
755 2263
755 3016
755 3053
755 3124
755 3534
755 3992
755 4192
755 4555
755 4567
756 1100
756 1300
756 1455
756 1465
756 2151
756 2355
756 2359
756 2632
756 2644
756 3511
756 3541
756 4222
756 4486
756 4835
757 859
757 979
757 1131
757 1377
757 1979
757 2126
757 3131
757 3182
757 3273
757 3518
757 3849
757 4006
757 4074
757 4111
757 4403
757 4603
757 4708
757 4723
757 4877
757 4954
758 780
758 800
758 847
758 851
758 1075
758 1323
758 1421
758 1632
758 1825
758 1857
758 2067
758 2106
758 2273
758 2443
758 2452
758 2477
758 2587
758 2644
758 2694
758 2873
758 2953
758 2978
758 3192
758 3414
758 3546
758 3683
758 3786
758 3861
758 3996
758 4092
758 4295
758 4464
758 4612
758 4660
758 4678
758 4806
758 4908
759 764
759 1009
759 1115
759 1500
759 1750
759 2547
759 2552
759 2794
759 4150
759 4417
759 4587
760 1171
760 1373
760 1379
760 1791
760 2236
760 2324
760 2382
760 2846
760 3069
760 3624
760 3909
760 3932
760 4191
760 4236
760 4388
760 4394
760 4609
760 4767
760 4925
761 784
761 795
761 874
761 1059
761 1218
761 1253
761 1451
761 1465
761 1586
761 1710
761 1754
761 1766
761 1863
761 1923
761 1992
761 2011
761 2019
761 2069
761 2109
761 2180
761 2249
761 2253
761 2359
761 2409
761 2596
761 2598
761 2661
761 2662
761 2714
761 2992
761 3036
761 3103
761 3105
761 3182
761 3211
761 3218
761 3249
761 3286
761 3371
761 3384
761 3452
761 3518
761 3597
761 3662
761 3696
761 3700
761 3871
761 3963
761 4013
761 4158
761 4168
761 4205
761 4234
761 4296
761 4457
761 4593
761 4827
761 4928
761 4939
761 4943
762 831
762 985
762 2189
762 2253
762 2333
762 2823
762 3093
762 3168
762 3311
762 3659
762 3833
762 3852
762 4141
762 4182
762 4524
763 885
763 1188
763 1272
763 1365
763 1875
763 2072
763 2238
763 2477
763 2655
763 3191
763 3241
763 3464
763 3673
763 4060
763 4068
763 4125
763 4145
763 4328
763 4669
763 4807
764 957
764 1366
764 1488
764 1612
764 1826
764 1925
764 1985
764 2555
764 2589
764 2601
764 2746
764 2888
764 3413
764 3496
764 3562
764 3687
764 3838
764 3966
764 4172
764 4234
764 4299
764 4608
764 4925
765 877
765 925
765 1051
765 1260
765 1881
765 1946
765 2946
765 3011
765 4173
765 4689
765 4806
766 1193
766 1210
766 1228
766 1287
766 1341
766 1367
766 1377
766 1492
766 1573
766 1762
766 1968
766 2145
766 2286
766 2345
766 2366
766 2509
766 2519
766 2742
766 2744
766 4077
766 4188
767 851
767 1309
767 1381
767 1448
767 1569
767 1697
767 2199
767 2376
767 2397
767 2947
767 2954
767 3043
767 3358
767 3463
767 3999
767 4718
767 4920
767 4936
768 917
768 1495
768 1610
768 1696
768 2018
768 2163
768 2762
768 2894
768 3422
768 3925
768 4318
768 4376
768 4404
768 4407
768 4498
768 4876
769 1019
769 1297
769 1328
769 1330
769 1517
769 1577
769 1665
769 1702
769 2005
769 2228
769 2242
769 2285
769 2415
769 2466
769 2490
769 2840
769 3076
769 3081
769 3115
769 3315
769 3714
769 3944
769 4209
769 4368
769 4402
769 4678
769 4772
769 4894
769 4926
769 4995
770 858
770 1011
770 2009
770 2100
770 2207
770 2861
770 3135
770 3149
770 3160
770 3252
770 3572
770 3653
770 3709
770 4035
770 4169
770 4189
770 4955
771 1702
771 2120
771 2272
771 2453
771 2886
771 3172
771 3545
771 3733
771 3758
771 3796
771 4289
771 4429
771 4456
771 4583
772 1067
772 1685
772 1935
772 2718
772 3048
772 3167
772 3213
772 3417
772 3932
772 3976
772 4263
772 4529
772 4639
773 969
773 1174
773 1181
773 1478
773 1516
773 2440
773 2574
773 3177
773 3582
773 3748
773 3889
773 4344
774 1099
774 1578
774 1744
774 2245
774 3375
774 3412
774 3543
774 3817
774 4407
774 4612
774 4730
774 4741
774 4882
775 1652
775 1719
775 1726
775 1742
775 1857
775 2183
775 2204
775 3388
775 3915
775 3982
775 4152
775 4367
775 4456
775 4662
775 4979
775 4989
776 1163
776 1522
776 1685
776 2030
776 2187
776 2260
776 2593
776 2616
776 2659
776 2929
776 2964
776 3229
776 3317
776 3637
776 3759
776 3979
776 4004
776 4190
776 4271
776 4537
776 4766
776 4832
777 856
777 1095
777 1401
777 1807
777 1828
777 2242
777 2499
777 3793
777 4329
777 4514
777 4715
777 4825
777 4852
777 4913
778 1191
778 1336
778 1657
778 2214
778 2271
778 2682
778 2853
778 3048
778 3315
778 3475
778 3691
778 3755
778 4068
778 4139
778 4392
778 4527
778 4773
778 4807
778 4888
779 955
779 1351
779 1751
779 2475
779 2553
779 2699
779 3301
779 3568
779 3663
779 3865
779 4174
779 4184
779 4416
779 4445
779 4476
779 4918
780 850
780 961
780 1234
780 1242
780 1332
780 1487
780 1605
780 1840
780 1886
780 2075
780 2167
780 2299
780 2471
780 2709
780 3107
780 3243
780 3258
780 3429
780 3764
780 3891
780 3930
780 4064
780 4181
780 4234
780 4527
780 4660
781 860
781 970
781 1374
781 1403
781 1470
781 2075
781 2162
781 2202
781 2246
781 2417
781 2455
781 2582
781 2713
781 3003
781 3184
781 3226
781 3325
781 3727
781 3736
781 4267
781 4380
781 4496
781 4636
781 4924
782 932
782 938
782 1626
782 1905
782 1938
782 1975
782 2185
782 2359
782 3128
782 3254
782 3657
782 3729
782 3953
782 4100
782 4127
782 4687
782 4959
783 906
783 1566
783 2020
783 2333
783 2524
783 2791
783 2984
783 3293
783 3541
783 3603
783 3619
783 3749
783 3854
783 3915
783 3921
783 4639
783 4690
783 4959
784 1083
784 1549
784 1641
784 1648
784 2144
784 2816
784 3708
784 3847
784 3874
784 3915
784 3980
784 4153
784 4301
784 4658
785 1061
785 1365
785 1710
785 2305
785 2610
785 2674
785 2687
785 2714
785 2966
785 3537
785 3945
785 4162
785 4296
785 4517
785 4621
785 4746
785 4896
785 4921
786 846
786 1137
786 1170
786 1275
786 1456
786 1534
786 1735
786 1835
786 2012
786 2048
786 2078
786 2162
786 2267
786 2299
786 2345
786 2435
786 2471
786 2748
786 2785
786 2885
786 2900
786 2995
786 3194
786 3304
786 3487
786 3493
786 3541
786 3621
786 3672
786 3934
786 3940
786 3972
786 4034
786 4046
786 4243
786 4258
786 4296
786 4325
786 4534
786 4565
786 4821
786 4911
786 4942
786 4975
787 2126
787 2224
787 2582
787 2832
787 2887
787 3003
787 3034
787 3176
787 3446
787 3517
787 4034
788 912
788 1348
788 1410
788 1515
788 1635
788 1643
788 2124
788 2237
788 2399
788 2784
788 2886
788 2895
788 3248
788 3293
788 3327
788 3690
788 3907
788 4489
788 4595
788 4982
789 953
789 1065
789 1105
789 1744
789 1851
789 2238
789 2711
789 2852
789 3108
789 3283
789 3507
789 3545
789 3559
789 3733
789 3769
789 3826
789 4179
789 4742
789 4941
790 1225
790 1431
790 1468
790 1490
790 1660
790 2001
790 2135
790 2571
790 2754
790 3034
790 3121
790 3360
790 3705
790 4290
790 4374
790 4773
790 4811
790 4941
791 1069
791 1241
791 1288
791 1403
791 1411
791 1423
791 1465
791 1485
791 1558
791 1652
791 1761
791 1784
791 1817
791 1819
791 1944
791 1950
791 2028
791 2111
791 2139
791 2166
791 2241
791 2511
791 2546
791 2611
791 2646
791 2700
791 2782
791 2805
791 2836
791 2906
791 2982
791 3007
791 3042
791 3304
791 3323
791 3346
791 3376
791 3420
791 3434
791 3456
791 3510
791 3528
791 3620
791 3633
791 3648
791 3701
791 3713
791 3755
791 3756
791 3976
791 4008
791 4076
791 4092
791 4166
791 4201
791 4426
791 4529
791 4538
791 4696
791 4713
791 4768
791 4808
791 4883
791 4889
791 4903
791 4937
792 922
792 1020
792 2665
792 2783
792 2790
792 3170
792 3509
792 3700
792 4023
792 4612
792 4661
792 4810
793 958
793 1196
793 1564
793 1625
793 1631
793 1746
793 1846
793 2370
793 2451
793 3361
793 3691
793 4191
793 4742
794 804
794 814
794 1313
794 1527
794 1816
794 1991
794 2289
794 2730
794 3072
794 3320
794 3957
794 4392
794 4772
794 4905
794 4911
795 922
795 1066
795 1408
795 1498
795 1540
795 1604
795 1933
795 2235
795 2533
795 2604
795 3049
795 3261
795 3267
795 3733
795 3776
795 4174
795 4722
796 1253
796 1605
796 1664
796 1798
796 2106
796 2166
796 2253
796 2269
796 2378
796 2744
796 2866
796 2990
796 3274
796 3366
796 3398
796 3492
796 3647
796 3816
796 3820
796 3955
796 4169
796 4489
796 4568
796 4742
796 4763
796 4862
796 4882
796 4951
797 850
797 1087
797 1207
797 1224
797 1544
797 1590
797 1677
797 2093
797 2100
797 2148
797 2403
797 2436
797 2467
797 3798
797 3872
797 3928
797 4082
797 4142
797 4395
797 4757
798 1317
798 1342
798 1436
798 1820
798 2185
798 2538
798 2608
798 2641
798 3053
798 3518
798 3708
798 4121
798 4220
798 4427
798 4436
798 4608
798 4616
798 4673
798 4762
799 1037
799 1050
799 1403
799 1404
799 1633
799 2163
799 2442
799 2823
799 3031
799 3174
799 3281
799 3833
799 3899
799 3915
799 4071
799 4127
799 4911
799 4926
800 892
800 982
800 993
800 1250
800 1312
800 1438
800 2489
800 2734
800 2857
800 3653
800 3679
800 3769
800 4541
800 4726
801 855
801 1518
801 1626
801 1637
801 1880
801 1950
801 2049
801 2361
801 2477
801 3685
801 4050
801 4099
801 4382
801 4400
801 4403
801 4481
801 4696
801 4717
802 1110
802 1437
802 1737
802 1771
802 2427
802 3121
802 3560
802 4086
802 4092
802 4152
802 4184
802 4252
802 4365
802 4583
802 4595
802 4604
802 4690
802 4772
803 1031
803 1200
803 1304
803 1370
803 1600
803 2311
803 2452
803 2545
803 2614
803 2615
803 3293
803 3327
803 3490
803 4017
803 4532
803 4540
803 4600
803 4670
804 860
804 947
804 977
804 1414
804 1568
804 1624
804 1627
804 1940
804 2162
804 2190
804 2372
804 2785
804 2944
804 3049
804 3162
804 3191
804 3396
804 3494
804 3624
804 3694
804 3775
804 4121
804 4442
804 4467
804 4594
804 4601
805 1037
805 1533
805 1953
805 1954
805 2133
805 2195
805 2580
805 2861
805 3010
805 3167
805 3246
805 3581
805 3802
805 3930
805 4216
805 4299
805 4356
806 823
806 890
806 1237
806 1667
806 2008
806 2145
806 2176
806 2254
806 2326
806 2665
806 3016
806 3305
806 3423
806 3681
806 3867
806 4166
806 4555
806 4584
806 4714
806 4729
807 888
807 1297
807 1325
807 1577
807 1617
807 1679
807 1939
807 2452
807 2816
807 2944
807 2978
807 3051
807 3449
807 4494
807 4602
807 4924
808 904
808 1299
808 1533
808 1983
808 2128
808 2145
808 2276
808 2367
808 2540
808 2604
808 3214
808 3517
808 3616
808 4064
808 4126
808 4450
809 813
809 883
809 945
809 947
809 1001
809 1017
809 1076
809 1223
809 1225
809 1295
809 1342
809 1371
809 1695
809 1822
809 1857
809 1905
809 2046
809 2107
809 2108
809 2130
809 2284
809 2298
809 2327
809 2405
809 2526
809 2707
809 2839
809 3070
809 3355
809 3397
809 3475
809 3486
809 3556
809 3698
809 3701
809 3722
809 3863
809 3895
809 4011
809 4040
809 4127
809 4149
809 4388
809 4434
809 4459
809 4495
809 4799
809 4829
809 4997
810 1214
810 2241
810 2452
810 2471
810 2492
810 3163
810 3520
810 3793
810 4136
810 4137
810 4345
811 1143
811 1197
811 1697
811 1715
811 1730
811 1787
811 1813
811 1846
811 1935
811 1938
811 2145
811 2291
811 2512
811 2554
811 2735
811 2796
811 3133
811 3183
811 3408
811 3576
811 3631
811 3722
811 3869
811 3936
811 4043
811 4394
811 4429
811 4486
811 4498
811 4563
811 4639
812 979
812 1116
812 1471
812 1538
812 2651
812 2687
812 2803
812 3056
812 3075
812 3431
812 3441
812 3844
812 4169
812 4496
812 4576
812 4985
813 868
813 1057
813 1343
813 1420
813 1483
813 1516
813 1580
813 2084
813 2497
813 2503
813 2556
813 2580
813 2581
813 2852
813 2884
813 2963
813 2987
813 3005
813 3027
813 3088
813 3103
813 3180
813 3583
813 3808
813 3854
813 3936
813 4089
813 4107
813 4116
813 4231
813 4289
813 4357
813 4394
813 4427
813 4429
813 4563
813 4902
813 4963
814 1036
814 1088
814 1413
814 1522
814 1679
814 2117
814 2430
814 2467
814 2869
814 3379
814 3392
814 3700
814 3777
814 4226
814 4394
814 4646
815 1225
815 1609
815 1660
815 1682
815 2141
815 2145
815 2299
815 2309
815 2483
815 2563
815 2792
815 3164
815 3255
815 3393
815 3623
815 3824
815 4307
815 4355
815 4361
815 4460
815 4532
815 4897
816 854
816 1114
816 1197
816 1508
816 1536
816 1598
816 1874
816 2336
816 2612
816 2718
816 2895
816 3212
816 3376
816 3439
816 3769
816 4229
816 4296
816 4438
816 4639
816 4740
817 916
817 1609
817 1771
817 2285
817 2946
817 3221
817 3840
817 3849
817 3857
817 4048
817 4136
817 4337
818 1020
818 1086
818 1311
818 1417
818 1481
818 1509
818 1617
818 1788
818 1986
818 2393
818 2505
818 2519
818 2524
818 2728
818 2903
818 2950
818 3004
818 3133
818 3213
818 3388
818 3390
818 3530
818 3551
818 3574
818 3770
818 3850
818 3891
818 3941
818 4451
818 4557
818 4763
818 4921
819 1090
819 1225
819 1305
819 1482
819 2587
819 2716
819 2895
819 3042
819 3301
819 3621
819 3646
819 3700
819 3764
819 3848
819 4009
819 4095
819 4551
819 4555
819 4598
819 4600
819 4674
819 4694
819 4755
819 4901
820 911
820 1093
820 1265
820 1296
820 1341
820 1377
820 1616
820 1636
820 1801
820 2192
820 2195
820 2316
820 2509
820 2628
820 2791
820 3291
820 3664
820 3685
820 4228
820 4631
820 4747
821 1153
821 1205
821 1287
821 1345
821 1539
821 1610
821 1620
821 1659
821 1737
821 1789
821 2419
821 2656
821 2685
821 3158
821 3535
821 3670
821 3887
821 3900
821 3954
821 3981
821 4692
822 915
822 933
822 1038
822 1079
822 1118
822 1151
822 1343
822 1626
822 1711
822 1913
822 1958
822 2130
822 2168
822 2345
822 2427
822 2629
822 2633
822 2652
822 2846
822 2927
822 2998
822 3051
822 3130
822 3173
822 3268
822 3430
822 3602
822 3673
822 3738
822 3810
822 3852
822 4146
822 4176
822 4238
822 4407
822 4723
822 4879
823 845
823 1000
823 1395
823 1604
823 1984
823 2019
823 3048
823 3209
823 3321
823 3443
823 3792
823 4197
824 1112
824 1274
824 2083
824 2549
824 2566
824 2616
824 3358
824 4140
824 4339
824 4681
824 4730
824 4731
825 1398
825 1438
825 1984
825 3024
825 3545
825 3995
825 4223
825 4351
825 4692
825 4894
825 4921
826 1091
826 1164
826 1324
826 1921
826 1991
826 2339
826 2791
826 2812
826 2834
826 2882
826 3040
826 3641
826 3891
826 4078
826 4963
827 962
827 1009
827 1088
827 1168
827 1335
827 1655
827 1804
827 1830
827 2579
827 2591
827 2675
827 2706
827 2796
827 2999
827 3608
827 4328
827 4760
827 4780
828 904
828 1044
828 1056
828 1132
828 1161
828 1226
828 1259
828 1525
828 1804
828 1814
828 1851
828 1950
828 2246
828 2279
828 2456
828 2506
828 2511
828 2692
828 2816
828 3226
828 3482
828 3484
828 3841
828 4227
828 4415
828 4465
828 4734
828 4792
829 876
829 883
829 1306
829 2019
829 2144
829 2207
829 2219
829 2631
829 2694
829 3389
829 3678
829 4405
829 4509
829 4732
829 4963
830 1017
830 1112
830 1191
830 1208
830 1485
830 1503
830 1568
830 1902
830 2202
830 2253
830 2305
830 2701
830 2803
830 3026
830 3732
830 3824
830 4549
830 4559
830 4594
830 4951
831 1502
831 1636
831 1853
831 1938
831 2275
831 2364
831 2754
831 3049
831 3340
831 3671
831 4020
831 4670
832 952
832 1213
832 1311
832 1798
832 3170
832 3618
832 4241
832 4322
832 4329
832 4333
832 4730
833 855
833 886
833 1469
833 2076
833 2209
833 2307
833 2440
833 2776
833 3072
833 3777
833 3958
833 4250
834 1210
834 1297
834 1359
834 1406
834 1458
834 1524
834 1638
834 1676
834 1997
834 2065
834 2073
834 2237
834 2279
834 2433
834 2468
834 2515
834 2702
834 2804
834 2907
834 2925
834 3061
834 3151
834 3175
834 3364
834 3548
834 3552
834 3590
834 3640
834 3658
834 3718
834 3763
834 3959
834 4139
834 4203
834 4233
834 4237
834 4244
834 4466
834 4496
834 4593
834 4625
834 4631
834 4847
834 4878
835 1002
835 1086
835 1175
835 1320
835 1526
835 1744
835 2206
835 2207
835 3117
835 3563
835 3628
835 3719
835 3780
835 3916
835 4605
836 1295
836 1344
836 1618
836 1836
836 2130
836 2201
836 2448
836 2496
836 2502
836 2553
836 2605
836 2641
836 2673
836 2776
836 2832
836 3317
836 3613
836 3656
836 3770
836 3773
836 3927
836 4312
836 4555
836 4660
836 4729
837 923
837 941
837 997
837 1551
837 2277
837 2327
837 2615
837 2751
837 2979
837 3321
837 3338
837 3595
837 3652
837 3718
837 3755
837 3789
837 3793
837 3916
837 4213
837 4737
837 4983
838 2574
838 2717
838 3115
838 3116
838 3576
838 3942
838 3971
838 4594
838 4612
838 4702
839 1080
839 1587
839 1914
839 1970
839 2703
839 2728
839 3188
839 3232
839 3597
839 3654
839 3697
839 4038
839 4152
840 1030
840 1495
840 1854
840 1970
840 2656
840 2761
840 2967
840 3029
840 3729
840 3736
840 4534
841 950
841 1122
841 1224
841 2442
841 2627
841 2879
841 2994
841 3731
841 4000
841 4035
841 4095
841 4222
841 4346
841 4566
842 896
842 1041
842 1131
842 1183
842 1258
842 1629
842 1773
842 2169
842 2176
842 2552
842 2735
842 3314
842 3360
842 3529
842 3596
842 3843
842 3920
842 4129
842 4383
842 4447
842 4661
842 4693
843 1015
843 1088
843 1343
843 1378
843 1753
843 2019
843 2100
843 2280
843 2385
843 2443
843 2727
843 2732
843 3622
843 3766
843 4059
843 4068
843 4199
843 4605
843 4730
844 1016
844 2081
844 2150
844 2233
844 2312
844 2320
844 2335
844 3024
844 3954
844 4243
844 4908
845 884
845 1106
845 1114
845 2104
845 3371
845 3918
845 4150
845 4570
846 977
846 1439
846 1600
846 1845
846 2001
846 2004
846 2218
846 2548
846 2925
846 2980
846 3031
846 3164
846 4097
846 4206
846 4534
847 885
847 914
847 969
847 988
847 1101
847 1223
847 1465
847 1716
847 1826
847 1957
847 2065
847 2100
847 2181
847 2261
847 2323
847 2412
847 2533
847 2629
847 2658
847 2974
847 3013
847 3048
847 3220
847 3293
847 3296
847 3396
847 3431
847 3506
847 3567
847 3796
847 3933
847 3934
847 3956
847 4053
847 4100
847 4226
847 4242
847 4311
847 4388
847 4554
847 4755
847 4927
848 945
848 963
848 1076
848 1328
848 1457
848 1596
848 2247
848 3562
848 3614
848 3851
848 3945
848 4394
848 4478
848 4515
848 4532
849 1107
849 1716
849 2057
849 2223
849 2240
849 2546
849 2699
849 3075
849 3584
849 3735
849 4281
849 4330
849 4489
850 941
850 1379
850 1408
850 1653
850 1757
850 1814
850 1979
850 2179
850 3135
850 3346
850 3425
850 3704
850 4164
850 4186
850 4317
850 4437
850 4507
850 4584
850 4732
851 977
851 1169
851 1371
851 1404
851 1437
851 1508
851 1699
851 1717
851 1735
851 1993
851 2037
851 2039
851 2067
851 2140
851 2694
851 2724
851 3031
851 3357
851 3490
851 3568
851 3713
851 3816
851 3825
851 3888
851 4065
851 4079
851 4294
851 4332
851 4512
851 4541
851 4576
851 4816
851 4866
851 4901
852 1242
852 1824
852 2023
852 2030
852 2081
852 2195
852 2363
852 2595
852 2635
852 2661
852 3256
852 3419
852 3478
852 3819
852 4282
852 4384
852 4762
852 4830
852 4934
853 1213
853 1306
853 1744
853 1937
853 3376
853 3584
853 3618
853 3853
853 3917
853 4473
853 4514
853 4765
853 4766
853 4911
854 1293
854 1361
854 1505
854 1633
854 1739
854 1879
854 2047
854 2801
854 2811
854 2813
854 3415
854 3535
854 3702
854 3936
854 4219
854 4359
854 4599
854 4635
854 4890
855 883
855 997
855 1122
855 1148
855 1180
855 1203
855 1366
855 1669
855 1761
855 1780
855 1945
855 2049
855 2053
855 2113
855 2165
855 2320
855 2419
855 2484
855 2542
855 2651
855 2999
855 3088
855 3211
855 3233
855 3249
855 3278
855 3389
855 3500
855 3510
855 3584
855 3609
855 3846
855 3988
855 4056
855 4114
855 4140
855 4157
855 4162
855 4305
855 4311
855 4345
855 4538
855 4693
855 4951
856 955
856 1090
856 1233
856 1484
856 1634
856 1685
856 2038
856 2222
856 2401
856 2467
856 3483
856 3833
856 3958
856 4266
856 4726
856 4760
856 4815
856 4941
857 1030
857 1296
857 2082
857 2672
857 3148
857 3181
857 3608
857 3653
857 4050
857 4127
857 4191
857 4270
857 4700
857 4869
858 897
858 1227
858 1377
858 1512
858 1664
858 1835
858 1853
858 2028
858 2335
858 2511
858 2610
858 2627
858 3175
858 3198
858 3303
858 3860
858 4012
858 4041
858 4106
858 4167
858 4291
858 4341
858 4350
858 4357
858 4372
858 4830
858 4911
859 1100
859 2521
859 2544
859 2602
859 2724
859 3025
859 3210
859 3795
859 4064
859 4632
859 4732
859 4988
860 863
860 1010
860 1364
860 1418
860 1422
860 1663
860 1698
860 1759
860 1870
860 2498
860 2698
860 2784
860 2804
860 2915
860 2928
860 2944
860 2977
860 3029
860 3120
860 3475
860 3553
860 3748
860 4136
860 4259
860 4320
860 4463
860 4522
860 4843
860 4891
860 4908
861 973
861 1009
861 1375
861 1873
861 2029
861 2440
861 2442
861 2595
861 2724
861 2797
861 2990
861 3060
861 3154
861 3239
861 3302
861 3579
861 3716
861 4132
861 4153
861 4348
861 4534
861 4662
861 4925
862 869
862 1043
862 1758
862 2019
862 2348
862 2428
862 2517
862 2703
862 2758
862 3132
862 4341
862 4380
862 4537
862 4595
863 990
863 1394
863 1526
863 2007
863 2595
863 2890
863 3111
863 3920
863 4508
864 880
864 964
864 1130
864 1191
864 1210
864 1291
864 1310
864 1328
864 1448
864 1763
864 1819
864 1839
864 1850
864 1860
864 1909
864 2302
864 2353
864 2441
864 2602
864 2856
864 2930
864 2963
864 2989
864 3106
864 3118
864 3206
864 3340
864 3352
864 3372
864 3441
864 3489
864 3550
864 3646
864 3767
864 3864
864 3980
864 4189
864 4193
864 4281
864 4306
864 4522
864 4623
864 4932
864 4947
865 957
865 1729
865 2226
865 2580
865 2681
865 2701
865 2960
865 3340
865 3792
865 3875
865 4077
865 4166
866 1028
866 1143
866 1190
866 1202
866 1265
866 1314
866 1381
866 1492
866 1613
866 1616
866 1617
866 1711
866 1802
866 2044
866 2134
866 2169
866 2261
866 2267
866 2339
866 2376
866 2689
866 2750
866 2756
866 2846
866 2887
866 2922
866 2977
866 2993
866 3135
866 3150
866 3153
866 3192
866 3216
866 3238
866 3240
866 3339
866 3529
866 3544
866 3664
866 3782
866 3807
866 4300
866 4350
866 4384
866 4390
866 4931
867 1223
867 1812
867 1883
867 2076
867 2484
867 2716
867 2908
867 2953
867 3810
867 3851
867 4523
867 4536
867 4756
868 910
868 922
868 1010
868 1122
868 1127
868 1320
868 1443
868 1515
868 1605
868 1814
868 2054
868 2142
868 2225
868 2364
868 2414
868 2466
868 2498
868 2713
868 2742
868 2828
868 3082
868 3193
868 3246
868 3272
868 3477
868 3526
868 3650
868 3784
868 3865
868 3930
868 4173
868 4498
868 4544
868 4624
869 1395
869 1951
869 2133
869 2374
869 2712
869 2970
869 3149
869 3703
869 3906
869 3921
869 3984
869 4037
869 4055
869 4099
869 4219
869 4316
869 4710
870 1079
870 1448
870 2614
870 2966
870 3019
870 3109
870 3168
870 3180
870 4141
870 4206
871 888
871 905
871 1041
871 1238
871 1688
871 2398
871 2424
871 2454
871 2561
871 2596
871 2600
871 3067
871 3353
871 3544
871 3572
871 3841
871 3974
871 4098
871 4153
871 4726
871 4771
871 4822
872 1114
872 1605
872 2787
872 3473
872 3494
872 3730
872 4270
873 876
873 882
873 1470
873 1481
873 1528
873 1536
873 1872
873 1927
873 2345
873 2417
873 2582
873 2658
873 2710
873 3091
873 3148
873 3376
873 3461
873 3497
873 3525
873 3681
873 3853
873 4008
873 4070
873 4130
873 4136
873 4833
873 4870
874 974
874 1116
874 1260
874 1533
874 1588
874 2201
874 2486
874 2624
874 2658
874 2731
874 2866
874 3259
874 3276
874 3412
874 3442
874 3586
874 3598
874 3623
874 3712
874 3928
874 4253
874 4329
874 4499
874 4559
874 4652
874 4886
875 1094
875 1262
875 2154
875 2246
875 2375
875 2407
875 2790
875 2925
875 2991
875 3050
875 3141
875 3475
875 3832
875 3915
875 4060
875 4071
875 4336
875 4341
875 4660
875 4687
875 4805
876 973
876 1398
876 1495
876 2203
876 2363
876 2440
876 2653
876 2872
876 3024
876 4035
876 4071
876 4234
876 4328
876 4825
876 4935
877 898
877 979
877 997
877 1089
877 1151
877 1672
877 1753
877 1808
877 2126
877 2300
877 3089
877 3378
877 3490
877 3706
877 3825
877 3916
877 3950
877 4070
877 4531
877 4748
877 4777
878 1048
878 1101
878 1191
878 1252
878 1274
878 1618
878 1631
878 1854
878 1984
878 2238
878 2272
878 2384
878 2399
878 2493
878 2516
878 3201
878 3263
878 3541
878 3580
878 3604
878 3753
878 3794
878 3982
878 4243
878 4331
878 4376
879 1366
879 2406
879 2454
879 2612
879 2740
879 2764
879 2785
879 2914
879 3040
879 3692
879 3870
879 3874
879 4255
879 4401
879 4852
879 4917
880 1027
880 1028
880 1071
880 1204
880 1232
880 1237
880 1297
880 1310
880 1340
880 1358
880 1382
880 1386
880 1399
880 1492
880 1499
880 1557
880 1601
880 1653
880 1827
880 1840
880 2027
880 2342
880 2749
880 2843
880 2945
880 2948
880 2966
880 3169
880 3182
880 3276
880 3308
880 3327
880 3348
880 3426
880 3428
880 3447
880 3449
880 3483
880 3698
880 3717
880 3721
880 4032
880 4134
880 4182
880 4223
880 4279
880 4384
880 4489
880 4539
880 4562
880 4574
880 4616
880 4663
880 4683
880 4729
880 4807
880 4956
881 1099
881 1327
881 1383
881 1577
881 1750
881 2029
881 2068
881 2217
881 2341
881 3186
881 3429
881 3439
881 3460
881 3681
881 3700
881 3848
881 3869
881 4210
881 4421
881 4756
882 965
882 1213
882 1642
882 1968
882 2016
882 2328
882 2373
882 2472
882 2506
882 2675
882 2956
882 3761
882 3963
882 4404
882 4516
882 4526
882 4540
882 4595
882 4644
883 933
883 1057
883 1713
883 1812
883 1934
883 2320
883 2506
883 2508
883 2639
883 2793
883 2959
883 3035
883 3341
883 3587
883 3733
883 3875
883 4351
883 4535
883 4617
883 4623
884 1036
884 1196
884 1511
884 1700
884 1745
884 1900
884 1988
884 2028
884 2359
884 2371
884 2592
884 2712
884 2925
884 3058
884 3163
884 3223
884 3341
884 3596
884 3780
884 3813
884 4850
885 1061
885 1092
885 1229
885 1297
885 1301
885 1659
885 1774
885 1952
885 1997
885 2167
885 2352
885 2638
885 3097
885 3155
885 3348
885 3494
885 3824
885 4011
885 4022
885 4037
885 4347
885 4481
885 4612
885 4983
886 1031
886 1088
886 1223
886 1375
886 1654
886 1761
886 1770
886 2305
886 2349
886 2920
886 3166
886 3367
886 4201
886 4416
886 4760
887 1044
887 1295
887 1332
887 1460
887 1796
887 1849
887 2018
887 2386
887 2713
887 2714
887 2724
887 2986
887 3057
887 3232
887 3333
887 3560
887 3569
887 3612
887 3738
887 3899
887 4058
887 4090
887 4120
887 4347
887 4527
887 4539
887 4684
888 948
888 1133
888 1984
888 3368
888 3482
888 3709
888 4035
888 4464
888 4529
888 4804
888 4994
889 1038
889 1684
889 1853
889 2137
889 2208
889 2312
889 2685
889 3214
889 3268
889 3733
889 3902
889 3918
889 3943
889 4355
889 4595
889 4639
889 4762
890 891
890 947
890 1309
890 1310
890 1544
890 2453
890 2670
890 2785
890 3946
890 4238
890 4371
890 4394
890 4950
891 1037
891 1250
891 1488
891 1685
891 2521
891 2582
891 2587
891 2630
891 2870
891 3135
891 3242
891 3360
891 3550
891 3740
891 4298
891 4451
891 4614
892 1342
892 1403
892 1413
892 1854
892 1905
892 1963
892 1967
892 2360
892 2387
892 2408
892 2560
892 2677
892 2768
892 2791
892 3038
892 3622
892 4145
892 4781
892 4860
893 1612
893 2267
893 2619
893 2705
893 3275
893 3848
893 3872
893 4284
893 4489
893 4694
893 4857
893 4982
894 1507
894 1594
894 1660
894 2050
894 2336
894 2918
894 3097
894 3323
894 3748
894 4077
894 4376
894 4589
894 4982
895 1874
895 2162
895 2370
895 3607
895 3632
895 3807
895 4322
895 4896
896 954
896 1058
896 1226
896 1445
896 1597
896 1732
896 2120
896 2134
896 2264
896 2328
896 2656
896 3464
896 3468
896 3557
896 3717
896 4225
896 4495
897 1052
897 1243
897 1698
897 1715
897 1731
897 3089
897 3530
897 3817
897 3887
897 4016
897 4238
897 4541
897 4661
897 4880
897 4974
898 929
898 997
898 1037
898 1330
898 1373
898 1470
898 1472
898 1509
898 1694
898 1779
898 1916
898 2297
898 2354
898 2382
898 2387
898 2654
898 2970
898 3185
898 3262
898 3364
898 3543
898 3780
898 3874
898 3960
898 4082
898 4388
898 4416
898 4489
898 4569
898 4779
898 4820
899 1224
899 1923
899 2309
899 2437
899 2533
899 2700
899 3722
899 4664
899 4733
899 4811
900 977
900 1160
900 2098
900 2384
900 2595
900 3024
900 3323
900 3603
900 4807
901 913
901 1562
901 1949
901 2144
901 3049
901 3612
901 3762
901 4140
901 4353
901 4355
901 4489
901 4518
901 4696
901 4876
902 1116
902 1563
902 2797
902 3402
902 3967
902 4181
902 4204
902 4400
902 4499
902 4605
903 1562
903 1762
903 2019
903 2701
903 2777
903 2869
903 2909
903 3025
903 3162
903 3245
903 3351
903 3692
903 3851
903 4247
903 4256
903 4493
903 4929
903 4961
904 1587
904 1996
904 2240
904 2342
904 2499
904 2958
904 3065
904 3075
904 3421
904 3472
904 3654
904 3979
904 4237
904 4256
905 1458
905 1929
905 2700
905 3003
905 3104
905 3294
905 3543
905 4218
905 4271
905 4309
905 4992
906 1279
906 1369
906 1780
906 1785
906 2055
906 2208
906 2311
906 2442
906 2498
906 2563
906 2772
906 2847
906 3362
906 4097
906 4181
906 4205
906 4341
906 4392
906 4476
906 4486
907 1042
907 1152
907 1607
907 1627
907 1711
907 1725
907 1914
907 2221
907 2297
907 2356
907 2364
907 2365
907 2525
907 2649
907 2674
907 2675
907 2949
907 2991
907 3151
907 3233
907 3341
907 3661
907 4050
907 4055
907 4211
907 4357
907 4373
907 4461
907 4623
907 4629
907 4701
907 4740
907 4863
907 4944
908 962
908 1164
908 1303
908 2280
908 3073
908 3317
908 3408
908 3593
908 4009
908 4054
908 4101
908 4146
908 4559
908 4640
908 4756
909 1093
909 1404
909 1448
909 1458
909 1591
909 1641
909 1660
909 2153
909 2625
909 2724
909 2738
909 3075
909 3233
909 3259
909 3371
909 3595
909 3748
909 4567
909 4722
909 4742
909 4946
910 1078
910 1632
910 1712
910 1893
910 1985
910 2049
910 2153
910 2861
910 2869
910 3532
910 4629
911 1063
911 1364
911 1475
911 2309
911 2609
911 2816
911 3072
911 3138
911 3151
911 3173
911 3700
911 4087
911 4546
911 4550
911 4992
912 978
912 1068
912 1377
912 2287
912 2289
912 2594
912 2675
912 2816
912 2969
912 3415
912 3443
912 3568
912 3755
912 3850
912 4381
912 4403
912 4450
912 4717
912 4949
912 4982
912 4988
913 1007
913 1030
913 1171
913 1198
913 1297
913 1370
913 1442
913 1460
913 1857
913 2132
913 2143
913 2308
913 2341
913 3094
913 3289
913 3374
913 3480
913 3835
913 3839
913 3863
913 3875
913 4306
913 4589
913 4638
913 4710
914 1178
914 1527
914 2227
914 2723
914 2734
914 2976
914 3169
914 3765
914 4311
914 4523
914 4800
914 4856
915 1758
915 2331
915 2695
915 3262
915 3293
915 3513
915 3582
915 3608
915 3920
915 4059
915 4344
915 4458
915 4632
915 4929
916 1010
916 1065
916 1098
916 2174
916 2409
916 2793
916 3010
916 3126
916 3471
916 3487
916 3663
916 4327
916 4839
917 1311
917 1337
917 1501
917 1619
917 2039
917 2335
917 2923
917 2925
917 4193
917 4657
917 4767
917 4768
918 1009
918 1213
918 1598
918 1955
918 2459
918 2524
918 2566
918 2726
918 4157
918 4663
919 933
919 1089
919 1429
919 2077
919 2117
919 2440
919 3561
919 3586
919 3619
919 3700
919 3845
919 3854
919 4145
919 4172
919 4386
919 4567
919 4649
919 4676
919 4739
920 931
920 1023
920 1048
920 1267
920 1609
920 1661
920 1693
920 1793
920 1800
920 1813
920 2021
920 2118
920 2172
920 2213
920 2528
920 2771
920 2783
920 3043
920 3057
920 3303
920 3384
920 3533
920 3559
920 3589
920 3828
920 4039
920 4088
920 4122
920 4146
920 4213
920 4247
920 4258
920 4265
920 4836
920 4876
921 1102
921 1214
921 1232
921 1276
921 1505
921 2210
921 2304
921 2403
921 2651
921 2655
921 2861
921 3235
921 3505
921 3582
921 4247
921 4493
921 4655
921 4738
921 4769
922 1288
922 1352
922 1414
922 1680
922 1957
922 2145
922 2257
922 2559
922 2702
922 2753
922 2950
922 2966
922 3120
922 3131
922 3509
922 4409
922 4604
922 4880
922 4971
922 4975
923 1181
923 1288
923 1908
923 1987
923 2488
923 2841
923 3105
923 3641
923 3694
923 3769
923 3909
923 4096
923 4114
923 4275
923 4423
923 4491
924 928
924 1031
924 1143
924 2130
924 2256
924 2513
924 2726
924 3265
924 4318
924 4359
924 4523
924 4579
924 4870
925 983
925 1520
925 1609
925 1893
925 2073
925 2086
925 2236
925 2531
925 2700
925 2715
925 3057
925 3090
925 3194
925 3231
925 3295
925 3410
925 3439
925 3768
925 4121
925 4128
925 4233
925 4529
925 4713
925 4724
926 989
926 1083
926 1101
926 1542
926 2009
926 2039
926 2167
926 2295
926 2380
926 2657
926 2788
926 2995
926 3030
926 3076
926 3218
926 3681
926 4125
926 4342
926 4502
926 4785
926 4848
927 944
927 968
927 1026
927 1579
927 1851
927 2014
927 2190
927 2304
927 2442
927 2801
927 2828
927 2856
927 3134
927 3354
927 3492
928 980
928 1437
928 1764
928 2018
928 2051
928 2162
928 2219
928 2296
928 2629
928 2659
928 2945
928 3048
928 3192
928 3205
928 3969
928 4077
928 4384
928 4522
928 4598
928 4743
928 4945
929 2650
929 2758
929 2941
929 3303
929 3394
929 3712
929 3733
929 3944
929 3991
930 1189
930 1702
930 2019
930 2254
930 2440
930 2607
930 2799
930 3007
930 3177
930 3465
930 3637
930 3688
930 3851
930 4050
930 4153
931 1096
931 1122
931 1204
931 1627
931 1771
931 1924
931 2427
931 2552
931 2779
931 3201
931 3411
931 3833
931 4242
931 4474
931 4514
931 4572
931 4639
931 4869
932 993
932 1159
932 1327
932 1359
932 1429
932 1432
932 1620
932 1763
932 1826
932 1877
932 1878
932 1929
932 2028
932 2652
932 2851
932 2971
932 3045
932 3181
932 3215
932 3428
932 3611
932 3736
932 4026
932 4063
932 4356
932 4679
932 4969
933 968
933 1099
933 1201
933 1225
933 1312
933 1427
933 1484
933 1538
933 1552
933 1665
933 1684
933 1715
933 1770
933 1795
933 1796
933 1858
933 1907
933 1913
933 1962
933 1998
933 2004
933 2296
933 2361
933 2377
933 2613
933 2644
933 2646
933 2813
933 3061
933 3280
933 3294
933 3337
933 3359
933 3455
933 3487
933 3653
933 3727
933 3768
933 3811
933 3826
933 3882
933 3936
933 4230
933 4260
933 4508
933 4538
933 4546
933 4568
933 4744
933 4805
933 4864
934 1029
934 1615
934 1655
934 1729
934 1888
934 2147
934 3025
934 3085
934 3293
934 3619
934 4070
934 4177
934 4283
934 4328
934 4750
934 4910
934 4995
935 1009
935 1241
935 1338
935 1645
935 1892
935 2204
935 2473
935 2548
935 2771
935 2859
935 3117
935 3287
935 3331
935 3484
935 3549
935 3744
935 3984
935 4386
935 4405
935 4590
936 946
936 1137
936 1308
936 1439
936 1781
936 1816
936 1835
936 2082
936 2361
936 2462
936 3547
936 3814
937 1058
937 1063
937 1167
937 1555
937 1896
937 2312
937 3070
937 3375
937 3441
937 3628
937 3908
937 3998
937 4197
937 4414
937 4886
937 4961
938 1077
938 1153
938 1750
938 1855
938 2080
938 2177
938 2448
938 2985
938 3075
938 3170
938 3314
938 3827
938 4355
938 4968
939 1107
939 1148
939 1487
939 2007
939 2113
939 2170
939 2182
939 2223
939 2279
939 2282
939 2483
939 2773
939 2774
939 2831
939 3278
939 3548
939 3556
939 3593
939 3609
939 3762
939 3973
939 4136
939 4179
939 4199
939 4420
939 4732
939 4790
939 4846
939 4850
940 1042
940 1428
940 1703
940 1970
940 2240
940 2756
940 2867
940 3096
940 3430
940 3485
940 3627
940 3831
940 4043
940 4661
941 944
941 974
941 1272
941 1339
941 2181
941 2182
941 2407
941 2471
941 2762
941 3059
941 3322
941 3679
941 3973
941 4051
941 4096
941 4159
941 4242
941 4717
942 1073
942 1224
942 1226
942 1948
942 2276
942 2383
942 2422
942 2572
942 2655
942 3427
942 4569
942 4776
943 992
943 1279
943 1743
943 1861
943 2056
943 2075
943 2277
943 2418
943 2426
943 2580
943 2596
943 2938
943 2944
943 2986
943 3007
943 3033
943 3080
943 3232
943 3595
943 3765
943 4056
943 4071
943 4206
943 4522
944 1041
944 1110
944 1114
944 1310
944 1431
944 1589
944 1887
944 1999
944 2063
944 2245
944 2276
944 2285
944 2691
944 2748
944 2910
944 3307
944 3624
944 4125
944 4243
944 4378
944 4427
944 4801
944 4813
944 4844
944 4891
944 4920
945 1216
945 1375
945 1641
945 1670
945 1949
945 2001
945 2510
945 2654
945 3335
945 4146
945 4163
945 4184
945 4306
945 4722
945 4985
946 1143
946 1297
946 1375
946 1390
946 1465
946 1611
946 2499
946 2519
946 3535
946 3595
946 3627
946 3661
946 4149
946 4164
946 4396
947 1057
947 1253
947 1312
947 1314
947 1349
947 1364
947 1415
947 1596
947 1953
947 1989
947 1993
947 2711
947 2738
947 2924
947 2965
947 3132
947 3208
947 3416
947 3472
947 3532
947 3538
947 3661
947 3664
947 3674
947 4080
947 4127
947 4162
947 4183
947 4378
947 4578
947 4612
947 4651
947 4929
947 4991
948 1049
948 1055
948 1223
948 1232
948 1344
948 1366
948 1433
948 1551
948 1572
948 1606
948 1647
948 1702
948 1707
948 1769
948 1771
948 1782
948 1862
948 1981
948 1992
948 2168
948 2274
948 2460
948 2479
948 2482
948 2571
948 2709
948 2779
948 2860
948 2863
948 2921
948 2931
948 3076
948 3119
948 3131
948 3315
948 3398
948 3471
948 3515
948 3566
948 3599
948 3618
948 3663
948 3739
948 3842
948 3963
948 4008
948 4053
948 4240
948 4341
948 4505
948 4521
948 4537
948 4602
948 4612
948 4707
948 4749
948 4784
948 4787
948 4789
948 4797
948 4804
948 4940
948 4960
948 4973
949 1849
949 2599
949 2675
949 2706
949 3086
949 3780
949 4509
949 4659
949 4742
950 1500
950 1952
950 3044
950 3194
950 3282
950 3395
950 4121
950 4145
950 4548
950 4897
950 4999
951 1065
951 1162
951 1343
951 1630
951 1839
951 1895
951 2172
951 2410
951 3075
951 3365
951 3407
951 3417
951 3568
951 3715
951 3889
951 3954
951 4142
951 4198
951 4506
951 4639
951 4852
952 1686
952 2531
952 2584
952 2658
952 2676
952 2849
952 2938
952 3193
952 3554
952 3597
952 3872
952 4235
952 4264
952 4284
952 4493
952 4618
953 2424
953 2654
953 2717
953 2726
953 3243
953 3824
953 4266
953 4436
954 995
954 1383
954 1781
954 1809
954 2067
954 2272
954 2300
954 3163
954 3348
954 3850
954 4113
954 4116
954 4386
954 4506
954 4526
954 4688
954 4785
955 1072
955 1330
955 1403
955 1406
955 1431
955 1774
955 1821
955 1979
955 2054
955 2083
955 2114
955 2410
955 2450
955 2521
955 2596
955 2685
955 2795
955 2815
955 3062
955 3091
955 3101
955 3134
955 3142
955 3333
955 3654
955 3655
955 3810
955 3884
955 4073
955 4096
955 4318
955 4715
955 4760
955 4949
955 4992
956 1007
956 1082
956 1288
956 1391
956 1458
956 1466
956 1497
956 1527
956 1899
956 2034
956 2069
956 2220
956 2320
956 2353
956 2400
956 2445
956 2720
956 2895
956 2913
956 2964
956 3144
956 3295
956 3341
956 3388
956 3463
956 3554
956 3785
956 4140
956 4141
956 4174
956 4639
956 4655
956 4877
957 1336
957 1521
957 1629
957 1684
957 1711
957 1852
957 1863
957 1929
957 1960
957 2011
957 2085
957 2211
957 2488
957 2502
957 2723
957 2856
957 2897
957 3354
957 3445
957 3789
957 3833
957 4176
957 4330
957 4353
957 4561
957 4646
957 4698
957 4808
958 987
958 992
958 1055
958 1116
958 1194
958 1215
958 1409
958 1542
958 1711
958 1754
958 1755
958 1778
958 1781
958 1872
958 1902
958 1974
958 2076
958 2324
958 2498
958 2680
958 2704
958 2732
958 2769
958 3034
958 3205
958 3249
958 3324
958 3345
958 3406
958 3576
958 3683
958 3750
958 3913
958 3949
958 3966
958 4131
958 4418
958 4452
958 4557
958 4683
958 4701
959 967
959 991
959 1221
959 1722
959 1791
959 1819
959 2198
959 2628
959 3166
959 3338
959 3348
959 3359
959 3644
959 3704
959 4122
959 4198
959 4226
959 4927
959 4961
960 1107
960 1368
960 1435
960 1489
960 2199
960 2401
960 2469
960 2492
960 2538
960 2648
960 2846
960 2966
960 3011
960 3089
960 3104
960 3218
960 3363
960 3393
960 3614
960 3640
960 3716
960 3786
960 3809
960 3870
960 3934
960 3957
960 4416
960 4466
960 4884
960 4960
961 980
961 2094
961 2265
961 2364
961 2530
961 2861
961 2904
961 2933
961 2939
961 3195
961 3223
961 3279
961 3359
961 4325
961 4384
961 4400
961 4634
962 1014
962 1030
962 1101
962 1421
962 1644
962 2067
962 2210
962 2454
962 2512
962 2815
962 2872
962 2877
962 3009
962 3059
962 3398
962 3757
962 4051
962 4507
962 4717
962 4764
962 4831
962 4906
963 973
963 1062
963 1769
963 1881
963 2010
963 2238
963 2343
963 2362
963 2706
963 3184
963 3289
963 3391
963 3502
963 3798
963 4365
963 4388
963 4632
963 4953
964 1106
964 1631
964 1740
964 2014
964 2547
964 2832
964 3028
964 3376
964 3450
964 3488
964 3548
964 3559
964 3715
964 3853
964 3915
964 4253
964 4319
964 4461
964 4474
964 4779
964 4911
965 1086
965 1131
965 1421
965 1768
965 2074
965 2607
965 2725
965 2773
965 3192
965 3196
965 3223
965 4456
965 4615
965 4667
965 4823
965 4965
966 980
966 1686
966 2382
966 2607
966 2958
966 3068
966 3431
966 3798
966 3950
966 4908
967 1241
967 1842
967 2075
967 2243
967 2639
967 2643
967 3489
967 3932
967 3999
967 4137
967 4639
967 4896
968 1020
968 1314
968 1326
968 1395
968 1596
968 1979
968 1997
968 2190
968 2223
968 2480
968 2516
968 2920
968 2972
968 3031
968 3168
968 3368
968 3393
968 3395
968 3922
968 4189
968 4643
969 1518
969 1996
969 2418
969 2627
969 2675
969 2728
969 2887
969 3225
969 3385
969 3796
969 4075
969 4095
969 4378
969 4386
970 1455
970 1677
970 1859
970 1879
970 2362
970 2932
970 3011
970 3330
970 3482
970 4248
970 4314
970 4464
970 4503
970 4678
970 4831
971 1250
971 1399
971 2067
971 2103
971 2832
971 3034
971 3927
971 4316
971 4388
971 4717
972 1122
972 1163
972 1327
972 1947
972 2566
972 2685
972 2735
972 3055
972 3361
972 3824
972 4375
972 4740
972 4864
972 4865
973 1012
973 1063
973 1078
973 1079
973 1283
973 1320
973 1369
973 1391
973 1399
973 1498
973 1582
973 1675
973 1774
973 1826
973 2195
973 2321
973 2433
973 2615
973 2658
973 2708
973 2736
973 2749
973 2836
973 2887
973 2896
973 2897
973 2973
973 3013
973 3040
973 3072
973 3307
973 3384
973 3672
973 3856
973 4020
973 4069
973 4090
973 4138
973 4145
973 4152
973 4493
973 4519
973 4769
973 4997
974 1118
974 1156
974 1353
974 1633
974 1750
974 1816
974 1905
974 1923
974 1990
974 2099
974 2424
974 2591
974 2876
974 3010
974 3218
974 3263
974 3373
974 3476
974 4055
974 4273
974 4385
974 4486
974 4630
974 4639
975 998
975 1150
975 1581
975 1597
975 1879
975 1984
975 2378
975 2559
975 2793
975 2908
975 2970
975 3015
975 3054
975 3168
975 3597
975 3603
975 4312
975 4639
975 4694
975 4702
975 4994
976 1920
976 2037
976 2162
976 2363
976 2849
976 3237
976 3280
976 3701
976 3728
976 3828
976 4297
976 4404
976 4465
976 4544
977 1007
977 1131
977 1334
977 1354
977 1521
977 1554
977 1587
977 2067
977 2157
977 2242
977 2290
977 2635
977 2911
977 2968
977 2981
977 3048
977 3270
977 3398
977 3425
977 3909
977 4536
977 4814
977 4958
978 1054
978 1104
978 1533
978 2031
978 2143
978 2180
978 2328
978 2334
978 2386
978 2550
978 2582
978 2644
978 3167
978 3737
978 3755
978 4037
978 4145
978 4168
978 4251
978 4266
978 4322
978 4397
978 4429
978 4448
978 4813
978 4880
978 4964
979 1129
979 1178
979 1347
979 1367
979 1766
979 2145
979 2287
979 2453
979 2495
979 2603
979 2663
979 2869
979 3468
979 3473
979 3881
979 4016
979 4256
979 4459
979 4529
979 4744
979 4789
979 4810
979 4884
980 1003
980 1027
980 1064
980 1088
980 1425
980 1428
980 1585
980 1656
980 1820
980 2449
980 2457
980 2752
980 2780
980 3040
980 3101
980 3160
980 3186
980 3314
980 3413
980 3628
980 3665
980 3742
980 3792
980 4043
980 4061
980 4073
980 4105
980 4139
980 4180
980 4420
980 4685
980 4957
981 1188
981 1437
981 1574
981 1645
981 1688
981 1729
981 1837
981 1960
981 2002
981 2035
981 2175
981 2302
981 2685
981 2852
981 2861
981 3260
981 3265
981 3314
981 3398
981 3476
981 3592
981 3796
981 3869
981 3931
981 4067
981 4150
981 4356
981 4359
981 4396
981 4599
981 4614
981 4783
982 1038
982 1116
982 1627
982 1653
982 1654
982 1954
982 2127
982 2144
982 2241
982 2454
982 2542
982 3027
982 3096
982 3482
982 3596
982 3670
982 3736
982 4293
982 4295
982 4330
982 4370
982 4493
982 4568
982 4660
982 4729
983 1149
983 1893
983 1929
983 2446
983 2544
983 3016
983 3180
983 3497
983 4082
983 4750
983 4911
983 4949
984 1344
984 1658
984 1848
984 1942
984 1945
984 1969
984 2418
984 2534
984 2804
984 3197
984 3231
984 3246
984 3269
984 3731
984 3978
984 3983
984 3989
984 3990
984 4359
984 4496
984 4658
984 4805
984 4991
985 1439
985 1813
985 1872
985 2162
985 2447
985 2558
985 3194
985 3335
985 3427
985 3559
985 3773
985 3774
985 4054
985 4326
985 4339
985 4664
985 4857
985 4977
986 1024
986 1119
986 1631
986 1908
986 1929
986 2372
986 2384
986 2420
986 2452
986 2735
986 2754
986 2990
986 2992
986 3024
986 3048
986 3221
986 3281
986 3537
986 3887
986 4055
986 4250
986 4412
986 4779
986 4850
986 4993
987 1125
987 1284
987 1328
987 1538
987 1948
987 2111
987 3118
987 3184
987 3887
987 4355
987 4496
987 4525
987 4784
987 4828
988 1745
988 1751
988 1818
988 2727
988 2963
988 4358
988 4474
988 4598
989 1531
989 1662
989 2469
989 2590
989 2644
989 2752
989 3025
989 3081
989 3355
989 3543
989 3729
989 4115
989 4133
989 4191
989 4306
989 4309
989 4876
990 1105
990 1557
990 1819
990 1913
990 2115
990 2168
990 2254
990 2419
990 2675
990 3352
990 3476
990 3611
990 3805
990 3811
990 3823
990 3923
990 3994
990 4061
990 4346
990 4731
990 4939
991 1030
991 1067
991 1376
991 1676
991 1678
991 2028
991 2097
991 2285
991 2424
991 2438
991 2819
991 2833
991 2960
991 3076
991 3322
991 4088
991 4154
991 4233
991 4309
992 1080
992 1279
992 1382
992 2124
992 2619
992 2894
992 3024
992 3059
992 3068
992 3075
992 3258
992 3333
992 3760
992 4176
992 4307
992 4523
992 4757
992 4872
993 1805
993 2063
993 2846
993 3007
993 3475
993 3756
993 3998
993 4158
993 4328
993 4765
994 1000
994 1447
994 1673
994 1765
994 1910
994 1915
994 2006
994 2514
994 2718
994 2720
994 2739
994 3125
994 3172
994 3180
994 3293
994 3487
994 3741
994 3743
994 4103
994 4258
994 4565
994 4653
994 4936
995 1386
995 1396
995 1762
995 1842
995 2277
995 3262
995 3895
995 4279
995 4340
995 4769
995 4880
996 1325
996 1636
996 1713
996 2040
996 2067
996 2268
996 2315
996 2960
996 2991
996 3176
996 3775
996 3924
996 4015
996 4122
996 4407
996 4581
996 4740
997 1043
997 1736
997 1899
997 1984
997 2345
997 4035
997 4203
997 4658
997 4740
997 4794
997 4833
998 1020
998 1161
998 1210
998 1338
998 1556
998 1893
998 1902
998 2047
998 2232
998 2266
998 2304
998 2438
998 2675
998 2730
998 2938
998 3149
998 3471
998 3582
998 3839
998 3894
998 3996
998 4014
998 4022
998 4098
998 4437
998 4621
998 4833
999 1054
999 1223
999 1444
999 1512
999 1686
999 1709
999 1984
999 2219
999 2345
999 2462
999 2575
999 2784
999 3059
999 3227
999 3361
999 3450
999 4253
999 4281
999 4454
999 4615
999 4813
999 4854
999 4955
1000 1188
1000 1315
1000 1341
1000 1737
1000 2134
1000 2162
1000 2364
1000 2684
1000 2718
1000 2737
1000 3008
1000 3498
1000 3514
1000 3610
1000 3951
1000 4152
1000 4163
1000 4183
1000 4310
1000 4818
1001 1100
1001 1383
1001 1431
1001 1451
1001 1857
1001 2202
1001 2328
1001 2661
1001 2790
1001 3093
1001 3178
1001 3326
1001 3444
1001 3475
1001 3603
1001 3899
1001 3936
1001 4045
1001 4280
1002 1020
1002 1541
1002 1892
1002 2178
1002 2482
1002 3561
1002 4052
1002 4152
1002 4740
1002 4953
1003 1051
1003 1321
1003 1490
1003 1563
1003 1743
1003 2659
1003 2805
1003 2874
1003 3039
1003 3575
1003 3602
1003 4147
1003 4312
1003 4664
1003 4835
1004 1206
1004 1210
1004 1344
1004 1439
1004 1498
1004 1611
1004 1671
1004 1686
1004 1731
1004 1735
1004 2030
1004 2269
1004 2831
1004 3080
1004 3082
1004 3334
1004 3391
1004 3441
1004 3470
1004 3534
1004 3545
1004 3576
1004 3655
1004 4071
1004 4328
1004 4475
1004 4591
1004 4671
1004 4759
1004 4787
1004 4858
1004 4867
1005 1185
1005 1226
1005 1354
1005 1533
1005 1619
1005 2374
1005 2440
1005 2479
1005 2728
1005 3511
1005 4925
1006 1122
1006 1270
1006 1973
1006 2526
1006 2850
1006 2885
1006 3058
1006 3599
1006 3670
1006 3840
1006 3998
1006 4695
1007 1058
1007 1131
1007 1223
1007 1279
1007 1292
1007 1458
1007 1660
1007 1707
1007 1817
1007 1933
1007 2301
1007 2559
1007 2584
1007 2610
1007 2690
1007 2745
1007 2964
1007 2990
1007 3273
1007 3457
1007 3501
1007 3559
1007 3668
1007 3923
1007 4246
1007 4353
1007 4571
1007 4579
1007 4671
1007 4755
1007 4774
1007 4874
1007 4951
1008 1264
1008 1577
1008 1751
1008 1818
1008 1953
1008 2314
1008 3435
1008 3972
1008 4049
1008 4573
1008 4911
1009 1014
1009 1109
1009 1182
1009 1283
1009 1668
1009 2002
1009 2078
1009 2171
1009 2290
1009 2362
1009 2473
1009 2549
1009 2614
1009 2622
1009 2652
1009 2662
1009 2705
1009 2814
1009 3066
1009 3115
1009 3170
1009 3175
1009 3311
1009 3539
1009 3824
1009 3912
1009 4091
1009 4111
1009 4113
1009 4204
1009 4442
1009 4727
1009 4814
1009 4858
1010 1062
1010 1308
1010 1521
1010 2149
1010 2644
1010 2787
1010 2960
1010 3952
1010 3960
1010 4385
1010 4835
1010 4949
1011 1618
1011 1645
1011 2275
1011 2337
1011 2489
1011 3168
1011 3480
1011 3504
1011 3562
1011 3631
1011 3803
1011 4016
1011 4133
1011 4971
1012 1021
1012 1024
1012 1063
1012 1175
1012 1180
1012 1326
1012 1395
1012 1715
1012 1749
1012 1751
1012 1890
1012 1926
1012 2076
1012 2378
1012 2499
1012 2706
1012 2802
1012 3093
1012 3650
1012 3710
1012 3928
1012 4004
1012 4130
1012 4132
1012 4237
1012 4435
1012 4462
1012 4509
1012 4683
1012 4930
1012 4937
1013 1367
1013 1586
1013 1684
1013 1937
1013 2052
1013 2284
1013 2759
1013 2784
1013 2872
1013 3303
1013 3733
1013 3752
1013 3887
1013 4050
1013 4113
1013 4249
1013 4252
1013 4359
1014 1033
1014 1066
1014 1067
1014 1084
1014 1230
1014 1321
1014 1507
1014 1617
1014 2264
1014 2984
1014 3236
1014 3245
1014 3272
1014 3591
1014 4552
1014 4789
1015 1523
1015 1603
1015 1723
1015 1783
1015 1959
1015 2164
1015 2649
1015 2666
1015 3129
1015 3243
1015 3395
1015 3789
1015 3900
1015 4143
1015 4163
1015 4489
1016 2153
1016 2364
1016 3090
1016 3105
1016 3216
1016 3219
1016 3700
1016 4160
1016 4620
1016 4833
1017 1018
1017 1657
1017 1680
1017 1813
1017 1943
1017 2201
1017 2335
1017 2368
1017 2814
1017 3336
1017 3471
1017 3592
1017 4176
1018 1036
1018 1223
1018 1405
1018 1531
1018 1761
1018 2014
1018 2264
1018 2290
1018 2554
1018 2667
1018 2748
1018 2842
1018 2936
1018 2970
1018 3026
1018 3357
1018 3434
1018 3561
1018 3666
1018 3801
1018 3972
1018 4170
1018 4375
1018 4453
1018 4592
1018 4762
1018 4864
1019 1226
1019 1239
1019 1314
1019 1490
1019 1557
1019 1622
1019 2055
1019 2221
1019 2325
1019 2783
1019 2888
1019 2914
1019 3022
1019 3104
1019 3276
1019 3483
1019 3832
1019 4199
1019 4237
1019 4367
1019 4632
1019 4884
1020 1121
1020 1172
1020 1285
1020 1367
1020 1431
1020 1568
1020 1616
1020 1630
1020 1697
1020 1816
1020 1928
1020 2066
1020 2075
1020 2161
1020 2177
1020 2391
1020 2490
1020 2537
1020 2560
1020 2562
1020 2649
1020 2779
1020 2932
1020 3157
1020 3398
1020 3578
1020 3721
1020 3911
1020 3934
1020 4003
1020 4097
1020 4346
1020 4368
1020 4597
1020 4697
1020 4702
1020 4887
1020 4930
1020 4954
1021 1723
1021 2494
1021 2846
1021 3011
1021 3381
1021 3463
1021 3476
1021 3654
1021 3671
1021 4157
1021 4388
1021 4436
1021 4486
1021 4658
1021 4855
1021 4957
1022 1073
1022 1127
1022 1199
1022 1266
1022 1321
1022 1406
1022 1519
1022 1705
1022 1761
1022 1777
1022 2012
1022 2087
1022 2119
1022 2329
1022 2431
1022 2469
1022 2566
1022 2674
1022 2765
1022 2796
1022 2859
1022 2968
1022 3067
1022 3071
1022 3121
1022 3219
1022 3684
1022 3687
1022 3711
1022 3713
1022 3725
1022 3805
1022 3891
1022 3892
1022 3906
1022 4031
1022 4241
1022 4343
1022 4570
1022 4585
1022 4647
1022 4729
1022 4883
1022 4969
1023 1230
1023 1311
1023 1426
1023 1448
1023 2117
1023 2143
1023 2362
1023 3030
1023 3096
1023 3168
1023 3914
1023 4141
1023 4372
1024 1176
1024 1385
1024 1488
1024 1919
1024 1989
1024 2473
1024 2699
1024 3222
1024 3318
1024 3328
1024 3571
1024 3783
1024 3906
1025 1067
1025 1302
1025 1437
1025 1507
1025 1682
1025 2200
1025 2634
1025 2675
1025 2735
1025 2867
1025 3306
1025 3333
1025 3523
1025 3595
1025 4929
1026 1058
1026 1953
1026 1954
1026 2973
1026 3383
1026 3398
1026 3568
1026 3681
1026 4174
1026 4496
1027 1143
1027 1232
1027 1281
1027 1324
1027 1440
1027 1461
1027 1591
1027 1618
1027 1658
1027 1749
1027 1751
1027 1796
1027 2325
1027 2515
1027 2726
1027 2751
1027 2834
1027 2917
1027 3119
1027 3259
1027 3292
1027 3676
1027 3795
1027 3824
1027 3875
1027 3920
1027 3963
1027 4175
1027 4239
1027 4340
1027 4422
1027 4603
1027 4608
1027 4640
1027 4675
1027 4731
1027 4895
1028 1086
1028 1126
1028 1637
1028 1655
1028 1984
1028 2093
1028 2180
1028 2511
1028 2524
1028 2645
1028 2836
1028 2875
1028 2896
1028 2978
1028 3249
1028 3273
1028 3883
1028 3976
1028 4024
1028 4066
1028 4067
1028 4071
1028 4108
1028 4200
1028 4391
1028 4579
1028 4605
1028 4743
1029 1716
1029 2446
1029 2469
1029 2555
1029 2612
1029 2808
1029 3157
1029 3158
1029 3205
1029 3480
1029 3962
1029 4081
1029 4147
1029 4192
1029 4603
1029 4805
1029 4995
1030 1094
1030 1391
1030 1458
1030 1553
1030 1883
1030 2030
1030 2072
1030 2213
1030 2667
1030 2915
1030 3380
1030 3409
1030 3457
1030 3502
1030 3699
1030 3794
1030 3879
1030 3892
1030 3942
1030 4122
1030 4140
1030 4188
1030 4617
1030 4694
1030 4774
1030 4850
1031 1237
1031 1752
1031 2029
1031 2057
1031 2065
1031 2529
1031 2558
1031 2623
1031 2692
1031 2838
1031 3055
1031 3119
1031 3127
1031 3233
1031 3395
1031 3404
1031 3565
1031 3806
1031 4265
1031 4341
1031 4369
1031 4769
1032 1128
1032 1300
1032 1410
1032 2215
1032 2702
1032 2816
1032 3349
1032 3405
1032 3467
1032 3661
1032 4019
1032 4328
1032 4531
1032 4920
1033 1330
1033 1462
1033 2288
1033 2312
1033 2734
1033 2876
1033 2929
1033 3109
1033 3122
1033 3163
1033 3449
1033 3924
1033 4023
1033 4049
1033 4153
1033 4199
1033 4974
1033 4975
1034 1086
1034 1477
1034 1483
1034 1676
1034 1974
1034 2110
1034 3582
1034 3595
1034 3678
1034 3680
1034 4565
1034 4595
1034 4753
1034 4852
1034 4940
1035 1438
1035 1688
1035 1726
1035 2017
1035 2136
1035 2501
1035 2513
1035 3035
1035 3395
1035 3571
1035 4004
1035 4102
1035 4156
1035 4258
1035 4476
1036 1205
1036 1279
1036 1318
1036 1674
1036 1773
1036 2095
1036 2208
1036 2564
1036 2661
1036 2998
1036 3280
1036 4008
1036 4256
1037 1565
1037 1747
1037 1812
1037 1897
1037 1982
1037 2185
1037 2848
1037 2901
1037 2909
1037 3034
1037 3300
1037 3352
1037 3576
1037 3598
1037 3741
1037 3790
1037 3927
1037 4191
1037 4598
1037 4888
1038 1111
1038 1292
1038 1587
1038 1762
1038 1862
1038 1868
1038 2040
1038 2305
1038 3289
1038 3426
1038 3700
1038 3932
1038 4557
1038 4595
1038 4615
1038 4703
1039 1602
1039 2330
1039 2590
1039 2692
1039 2783
1039 3144
1039 3562
1039 3782
1039 3995
1039 4170
1039 4231
1039 4264
1039 4535
1040 1325
1040 1336
1040 1516
1040 2083
1040 2195
1040 2384
1040 2872
1040 2990
1040 3016
1040 3057
1040 3326
1040 3959
1040 4049
1040 4328
1040 4389
1040 4450
1041 1116
1041 1189
1041 1557
1041 1746
1041 2035
1041 2661
1041 2769
1041 3424
1041 3443
1041 3532
1041 3894
1041 4226
1041 4309
1041 4403
1041 4432
1041 4573
1041 4638
1041 4814
1041 4846
1041 4908
1042 1325
1042 1334
1042 1371
1042 1427
1042 2213
1042 2499
1042 2721
1042 3270
1042 3627
1042 3863
1042 4002
1042 4142
1042 4235
1042 4540
1042 4654
1042 4772
1042 4777
1042 4845
1043 2209
1043 2499
1043 3028
1043 3057
1043 3176
1043 3232
1043 3885
1043 3915
1043 4356
1043 4537
1043 4617
1043 4747
1044 1110
1044 1649
1044 1779
1044 1865
1044 2240
1044 2813
1044 2872
1044 2906
1044 2912
1044 2982
1044 3067
1044 3257
1044 3371
1044 3491
1044 3495
1044 3526
1044 3594
1044 3700
1044 3789
1044 3880
1044 4181
1045 1207
1045 1613
1045 1985
1045 2117
1045 2178
1045 2233
1045 2250
1045 2264
1045 2312
1045 2361
1045 2383
1045 2447
1045 2499
1045 2677
1045 2889
1045 3172
1045 3595
1045 3929
1045 4098
1045 4358
1045 4411
1045 4444
1045 4562
1045 4621
1045 4891
1045 4927
1046 1180
1046 1737
1046 1905
1046 2345
1046 2424
1046 2428
1046 2489
1046 2859
1046 2881
1046 3501
1046 3535
1046 3538
1046 3641
1046 4035
1046 4303
1046 4387
1047 1358
1047 1394
1047 1778
1047 2840
1047 2890
1047 3075
1047 3135
1047 3480
1047 3547
1047 3643
1047 3758
1047 4196
1048 1054
1048 1258
1048 1367
1048 1755
1048 2328
1048 2973
1048 3276
1048 3293
1048 3309
1048 4400
1048 4674
1049 1066
1049 1086
1049 1329
1049 1428
1049 1504
1049 1892
1049 1895
1049 2229
1049 2535
1049 2610
1049 3217
1049 3293
1049 3781
1049 3958
1049 4264
1049 4571
1049 4876
1050 1095
1050 1268
1050 1337
1050 1478
1050 1502
1050 1503
1050 1515
1050 1879
1050 1985
1050 2031
1050 2127
1050 2393
1050 2723
1050 2848
1050 2932
1050 3233
1050 3658
1050 4949
1050 4983
1051 2213
1051 2871
1051 3306
1051 3602
1051 4035
1051 4247
1051 4534
1052 1199
1052 1454
1052 1532
1052 1727
1052 1867
1052 2235
1052 3243
1052 3328
1052 3363
1052 3999
1052 4155
1052 4284
1052 4916
1053 1151
1053 1199
1053 1240
1053 1296
1053 1317
1053 1389
1053 1431
1053 1724
1053 2436
1053 2524
1053 2599
1053 2603
1053 2883
1053 3081
1053 3221
1053 3280
1053 3303
1053 3315
1053 3356
1053 3425
1053 3499
1053 3716
1053 3761
1053 4079
1053 4304
1053 4737
1053 4943
1053 4995
1054 1112
1054 1277
1054 1445
1054 1620
1054 1820
1054 2164
1054 2312
1054 2343
1054 2364
1054 3166
1054 3338
1054 3692
1054 4140
1054 4388
1054 4471
1054 4755
1054 4995
1055 1100
1055 1169
1055 1334
1055 1437
1055 1776
1055 1836
1055 1916
1055 1927
1055 2675
1055 2694
1055 2726
1055 3030
1055 3135
1055 3179
1055 3744
1055 4281
1055 4785
1056 1231
1056 1240
1056 1260
1056 1436
1056 1523
1056 1732
1056 1882
1056 1958
1056 1960
1056 1968
1056 2101
1056 2304
1056 2661
1056 2817
1056 2843
1056 2900
1056 2914
1056 2996
1056 3495
1056 3758
1056 3946
1056 3988
1056 4077
1056 4267
1056 4420
1056 4524
1057 1290
1057 1330
1057 1434
1057 1689
1057 1802
1057 1922
1057 1950
1057 2036
1057 2038
1057 2044
1057 2369
1057 2393
1057 2426
1057 2461
1057 2512
1057 2642
1057 2865
1057 2893
1057 2907
1057 2922
1057 2934
1057 3260
1057 3263
1057 3294
1057 3348
1057 3370
1057 3459
1057 3501
1057 3960
1057 4045
1057 4146
1057 4177
1057 4271
1057 4330
1057 4442
1057 4498
1057 4520
1057 4536
1057 4584
1057 4778
1057 4797
1058 1532
1058 1859
1058 1862
1058 1894
1058 1906
1058 2283
1058 2285
1058 2333
1058 2342
1058 2389
1058 2390
1058 2599
1058 2730
1058 2929
1058 2978
1058 3128
1058 3418
1058 3551
1058 3559
1058 3748
1058 3902
1058 3995
1058 4040
1058 4064
1058 4145
1058 4408
1058 4419
1058 4781
1059 1082
1059 1590
1059 1642
1059 2159
1059 2231
1059 2557
1059 2830
1059 3041
1059 3485
1059 3879
1059 3928
1059 4502
1059 4519
1059 4547
1059 4889
1060 1157
1060 1181
1060 1727
1060 1852
1060 2067
1060 2164
1060 2432
1060 2544
1060 2587
1060 2593
1060 2976
1060 3405
1060 3496
1060 3788
1060 3820
1060 3853
1060 4506
1060 4602
1060 4746
1060 4794
1061 1599
1061 1654
1061 2360
1061 2668
1061 2686
1061 2924
1061 3031
1061 3123
1061 3467
1061 3701
1061 3833
1061 4111
1061 4239
1061 4412
1061 4670
1062 1347
1062 1794
1062 2010
1062 2432
1062 2640
1062 2835
1062 3105
1062 3647
1062 3650
1062 3810
1062 3932
1062 4361
1062 4413
1062 4485
1062 4506
1062 4901
1062 4912
1062 4977
1063 1837
1063 2186
1063 2240
1063 2257
1063 2467
1063 3314
1063 3698
1063 4077
1063 4432
1064 1465
1064 2003
1064 2052
1064 2091
1064 2162
1064 2537
1064 2556
1064 2625
1064 2676
1064 3135
1064 3840
1064 3843
1064 3927
1064 3948
1064 4313
1064 4425
1064 4621
1064 4726
1065 1074
1065 2100
1065 2447
1065 2461
1065 2647
1065 2962
1065 3265
1065 3367
1065 4074
1065 4106
1065 4339
1065 4582
1065 4637
1065 4877
1066 1353
1066 1530
1066 2010
1066 2830
1066 2932
1066 3136
1066 3196
1066 3235
1066 4103
1066 4152
1066 4657
1067 1080
1067 1111
1067 1206
1067 1267
1067 1841
1067 1937
1067 1994
1067 2019
1067 2143
1067 2327
1067 2353
1067 2355
1067 2513
1067 2592
1067 2614
1067 2660
1067 2672
1067 2927
1067 3033
1067 3087
1067 3201
1067 3434
1067 3459
1067 3646
1067 3683
1067 3854
1067 3920
1067 4085
1067 4122
1067 4277
1067 4349
1067 4431
1067 4466
1067 4717
1067 4896
1068 1363
1068 1520
1068 2879
1068 3011
1068 3061
1068 3303
1068 3499
1068 3629
1068 4042
1068 4228
1068 4261
1068 4688
1068 4706
1069 1206
1069 1455
1069 1534
1069 1981
1069 2148
1069 2637
1069 2642
1069 2738
1069 2754
1069 3081
1069 3320
1069 3924
1069 4798
1070 2427
1070 3026
1070 3165
1070 3279
1070 3416
1070 3725
1070 4213
1070 4266
1070 4541
1070 4815
1071 1086
1071 2080
1071 2164
1071 2618
1071 3039
1071 3517
1071 3596
1071 3799
1071 4127
1071 4239
1071 4717
1072 1130
1072 1505
1072 1705
1072 1882
1072 2155
1072 2451
1072 2475
1072 2479
1072 2550
1072 2808
1072 2819
1072 2820
1072 2871
1072 2909
1072 3080
1072 3106
1072 3144
1072 4069
1072 4233
1072 4259
1072 4389
1072 4610
1073 1232
1073 1636
1073 1729
1073 1894
1073 2194
1073 2728
1073 2792
1073 3401
1073 3593
1073 4020
1073 4213
1073 4288
1073 4432
1073 4765
1073 4926
1074 1260
1074 1361
1074 1724
1074 2164
1074 2240
1074 2336
1074 2433
1074 2598
1074 2620
1074 2814
1074 2872
1074 3426
1074 3514
1074 3595
1074 4238
1074 4358
1074 4411
1074 4461
1074 4621
1075 1439
1075 1946
1075 2240
1075 2499
1075 2663
1075 2729
1075 3051
1075 3303
1075 3979
1075 4363
1075 4581
1075 4605
1076 1197
1076 1311
1076 1367
1076 1512
1076 1700
1076 1834
1076 2080
1076 2280
1076 2341
1076 2750
1076 2903
1076 3293
1076 3378
1076 3383
1076 3757
1076 3774
1076 3890
1076 3970
1076 4488
1076 4650
1076 4667
1076 4672
1076 4707
1076 4850
1076 4857
1077 1159
1077 1342
1077 1481
1077 1507
1077 1702
1077 1727
1077 1842
1077 1885
1077 1901
1077 2053
1077 2148
1077 2172
1077 2191
1077 2234
1077 2332
1077 2364
1077 2581
1077 2593
1077 2652
1077 2668
1077 2828
1077 2850
1077 2869
1077 2961
1077 3012
1077 3089
1077 3111
1077 3120
1077 3213
1077 3295
1077 3325
1077 3593
1077 3739
1077 3771
1077 3845
1077 3947
1077 4110
1077 4287
1077 4439
1077 4490
1077 4753
1077 4802
1078 1355
1078 1407
1078 1493
1078 1529
1078 1564
1078 1587
1078 1959
1078 2014
1078 2430
1078 2754
1078 2992
1078 3082
1078 3111
1078 3358
1078 3434
1078 3440
1078 3446
1078 3603
1078 3671
1078 3712
1078 3979
1078 4207
1078 4432
1078 4434
1078 4553
1078 4573
1078 4658
1078 4804
1078 4823
1078 4890
1079 1113
1079 1126
1079 2297
1079 2983
1079 3168
1079 3404
1079 3475
1079 4040
1079 4077
1079 4130
1079 4477
1080 1189
1080 1373
1080 1399
1080 1433
1080 1496
1080 1538
1080 1832
1080 1845
1080 2131
1080 2233
1080 2275
1080 2353
1080 2441
1080 2582
1080 2670
1080 3094
1080 3218
1080 3277
1080 3454
1080 3634
1080 3793
1080 4349
1080 4401
1080 4514
1080 4792
1081 1083
1081 1224
1081 1331
1081 1419
1081 1474
1081 1683
1081 1721
1081 1882
1081 1943
1081 2246
1081 2463
1081 2588
1081 2656
1081 2901
1081 2960
1081 3094
1081 3138
1081 3267
1081 3525
1081 3601
1081 3757
1081 3875
1081 4213
1081 4514
1081 4533
1081 4587
1081 4608
1081 4620
1081 4700
1081 4909
1081 4989
1081 4995
1082 1281
1082 1463
1082 1884
1082 2059
1082 2502
1082 2743
1082 2785
1082 3551
1082 3729
1082 3852
1082 4306
1082 4496
1082 4720
1083 1146
1083 1453
1083 1470
1083 1908
1083 2015
1083 2227
1083 2237
1083 2420
1083 2461
1083 3529
1083 3601
1083 3695
1083 3703
1083 3815
1083 3992
1083 4050
1083 4148
1083 4296
1083 4595
1083 4661
1083 4663
1083 4846
1083 4917
1084 1183
1084 2220
1084 2477
1084 2685
1084 3158
1084 3166
1084 3395
1084 3467
1084 4245
1084 4590
1084 4964
1085 1540
1085 2589
1085 2998
1085 3372
1085 3681
1085 3773
1085 3910
1085 4189
1085 4277
1085 4498
1085 4855
1086 1147
1086 1173
1086 1217
1086 1242
1086 1261
1086 1339
1086 1486
1086 1487
1086 1563
1086 1605
1086 1616
1086 1639
1086 1683
1086 1718
1086 1764
1086 1817
1086 1900
1086 2049
1086 2115
1086 2124
1086 2255
1086 2339
1086 2394
1086 2415
1086 2459
1086 2647
1086 2710
1086 2746
1086 2809
1086 3150
1086 3204
1086 3226
1086 3247
1086 3355
1086 3378
1086 3421
1086 3424
1086 3454
1086 3603
1086 3679
1086 3732
1086 3749
1086 3770
1086 3896
1086 3900
1086 3904
1086 4040
1086 4145
1086 4183
1086 4232
1086 4252
1086 4271
1086 4417
1086 4469
1086 4537
1086 4657
1086 4669
1086 4706
1086 4746
1086 4772
1087 1128
1087 1580
1087 1887
1087 2029
1087 2056
1087 2403
1087 2996
1087 3305
1087 3562
1087 3722
1087 4092
1087 4318
1087 4467
1087 4547
1087 4734
1087 4919
1088 1133
1088 1516
1088 1610
1088 1690
1088 1734
1088 2181
1088 2354
1088 2894
1088 3689
1088 4172
1088 4845
1088 4986
1089 1182
1089 1417
1089 1814
1089 1916
1089 2332
1089 2568
1089 3031
1089 3355
1089 3543
1089 3603
1089 3685
1089 3704
1089 3998
1089 4188
1089 4397
1089 4573
1089 4820
1089 4834
1089 4977
1090 1196
1090 1211
1090 1225
1090 1285
1090 1567
1090 1592
1090 1690
1090 1865
1090 2062
1090 2076
1090 2175
1090 2279
1090 2303
1090 2309
1090 2382
1090 2502
1090 2654
1090 2854
1090 2897
1090 2899
1090 3152
1090 3204
1090 3217
1090 3307
1090 3497
1090 3523
1090 3524
1090 3660
1090 3732
1090 3834
1090 3968
1090 4228
1090 4241
1090 4295
1090 4352
1090 4373
1090 4402
1090 4459
1090 4474
1090 4480
1090 4554
1090 4556
1090 4648
1090 4657
1090 4782
1090 4785
1090 4801
1090 4995
1091 1275
1091 1288
1091 1977
1091 1986
1091 1996
1091 3143
1091 3148
1091 3527
1091 3645
1091 3708
1091 3740
1091 3841
1091 3851
1091 4023
1091 4031
1091 4035
1091 4402
1092 1116
1092 1275
1092 1500
1092 2279
1092 2393
1092 2469
1092 3391
1092 3699
1092 3969
1092 4338
1092 4578
1092 4783
1092 4785
1092 4920
1093 1449
1093 1814
1093 2095
1093 2393
1093 2706
1093 2846
1093 2914
1093 3179
1093 3239
1093 3265
1093 3278
1093 3333
1093 3569
1093 3776
1093 4403
1093 4749
1093 4789
1093 4856
1093 4976
1094 1259
1094 1303
1094 1327
1094 1388
1094 1810
1094 1935
1094 1976
1094 2352
1094 2449
1094 2847
1094 2953
1094 3041
1094 3342
1094 3778
1094 4430
1094 4661
1095 1783
1095 1867
1095 2418
1095 2641
1095 2974
1095 3726
1095 3931
1095 4038
1095 4232
1095 4632
1095 4940
1096 1097
1096 1504
1096 1609
1096 1721
1096 2171
1096 2280
1096 2288
1096 2844
1096 3087
1096 3107
1096 3130
1096 3376
1096 3701
1096 3746
1096 3807
1096 4363
1096 4424
1096 4869
1097 1583
1097 1779
1097 1794
1097 1964
1097 2156
1097 2320
1097 2321
1097 2361
1097 2573
1097 2859
1097 3007
1097 3193
1097 3315
1097 3398
1097 3413
1097 3463
1097 3667
1097 3847
1097 4203
1097 4730
1097 4938
1097 4952
1098 1102
1098 2092
1098 2308
1098 2348
1098 2537
1098 2757
1098 3668
1098 4035
1098 4063
1098 4309
1098 4388
1098 4481
1098 4529
1098 4635
1098 4835
1098 4848
1098 4994
1099 1152
1099 1618
1099 1794
1099 1970
1099 1978
1099 2505
1099 2556
1099 3370
1099 3677
1099 3793
1099 4623
1099 4672
1099 4872
1100 1184
1100 1357
1100 1380
1100 1457
1100 1504
1100 1580
1100 1610
1100 1637
1100 1871
1100 1875
1100 1938
1100 2077
1100 2283
1100 2632
1100 2654
1100 2682
1100 2953
1100 3050
1100 3089
1100 3133
1100 3284
1100 3396
1100 3546
1100 3567
1100 3695
1100 3721
1100 3841
1100 3881
1100 4012
1100 4050
1100 4266
1100 4438
1100 4517
1100 4575
1100 4944
1100 4992
1101 1170
1101 1490
1101 1685
1101 1859
1101 2062
1101 2074
1101 2134
1101 2213
1101 2251
1101 2257
1101 2382
1101 2404
1101 2528
1101 2948
1101 3092
1101 3166
1101 3358
1101 3410
1101 3457
1101 3543
1101 3966
1101 4088
1101 4103
1101 4141
1101 4213
1101 4265
1101 4275
1101 4282
1101 4355
1101 4400
1101 4524
1101 4538
1101 4702
1101 4724
1102 1333
1102 1608
1102 1764
1102 1937
1102 2060
1102 2728
1102 2826
1102 2842
1102 3083
1102 3287
1102 3356
1102 3803
1102 3967
1102 4107
1102 4169
1102 4663
1102 4835
1103 1511
1103 1618
1103 1897
1103 1917
1103 1980
1103 2126
1103 2221
1103 2357
1103 2541
1103 2776
1103 2889
1103 3479
1103 3747
1103 4524
1103 4754
1104 1129
1104 1740
1104 1771
1104 1813
1104 1870
1104 1982
1104 2081
1104 2126
1104 2192
1104 2259
1104 2412
1104 2428
1104 2584
1104 2607
1104 3027
1104 3057
1104 3562
1104 3748
1104 3750
1104 3789
1104 4050
1104 4133
1104 4594
1104 4880
1104 4946
1104 4951
1105 1283
1105 1420
1105 1628
1105 1708
1105 2271
1105 2547
1105 2568
1105 2706
1105 2768
1105 2949
1105 3414
1105 3431
1105 3461
1105 3474
1105 3504
1105 3670
1105 3913
1105 4321
1105 4742
1105 4810
1106 1678
1106 2417
1106 2614
1106 2891
1106 3375
1106 3471
1106 3531
1106 3670
1106 3736
1106 3903
1106 4019
1106 4237
1106 4408
1106 4527
1106 4715
1106 4729
1106 4816
1106 4889
1107 1449
1107 1506
1107 1521
1107 1600
1107 1625
1107 1678
1107 1723
1107 1888
1107 2012
1107 2064
1107 2129
1107 2138
1107 2169
1107 2260
1107 2291
1107 2499
1107 2632
1107 2917
1107 2934
1107 2978
1107 2998
1107 3533
1107 3561
1107 3590
1107 3592
1107 3676
1107 3744
1107 3819
1107 3949
1107 4006
1107 4053
1107 4070
1107 4163
1107 4516
1107 4620
1107 4660
1107 4698
1107 4725
1108 1438
1108 1763
1108 1991
1108 2036
1108 2320
1108 2395
1108 2610
1108 2867
1108 2975
1108 3103
1108 3517
1108 3735
1108 3815
1108 3851
1108 3870
1108 4104
1108 4496
1108 4547
1108 4666
1108 4750
1108 4928
1109 1462
1109 1546
1109 1705
1109 1779
1109 1839
1109 1871
1109 1880
1109 2133
1109 2305
1109 2341
1109 2452
1109 2486
1109 2734
1109 2944
1109 2945
1109 3168
1109 3299
1109 3417
1109 3561
1109 3624
1109 3680
1109 3791
1109 3916
1109 3944
1109 4258
1109 4312
1109 4524
1109 4931
1109 4959
1110 1614
1110 1641
1110 1677
1110 1724
1110 2295
1110 2638
1110 2797
1110 2815
1110 2924
1110 2951
1110 2980
1110 3082
1110 3090
1110 3355
1110 3367
1110 3423
1110 3572
1110 3618
1110 3653
1110 3854
1110 3940
1110 4478
1110 4817
1110 4910
1111 1168
1111 1396
1111 1641
1111 1976
1111 2105
1111 2164
1111 2202
1111 2664
1111 3029
1111 3043
1111 3064
1111 3083
1111 3146
1111 3351
1111 4002
1111 4244
1111 4524
1111 4837
1112 1311
1112 1343
1112 1465
1112 1698
1112 1759
1112 1810
1112 2317
1112 2705
1112 3194
1112 3229
1112 3602
1112 3621
1112 3851
1112 4305
1112 4365
1112 4400
1112 4635
1112 4911
1113 1120
1113 1165
1113 1203
1113 1231
1113 1232
1113 1522
1113 1971
1113 2215
1113 2718
1113 3038
1113 3420
1113 4000
1113 4522
1113 4762
1113 4872
1113 4895
1114 1465
1114 1472
1114 1476
1114 1614
1114 1718
1114 1749
1114 1755
1114 1764
1114 1826
1114 1828
1114 1993
1114 2176
1114 2194
1114 2519
1114 2565
1114 2579
1114 2634
1114 2673
1114 2788
1114 2796
1114 2883
1114 2895
1114 2955
1114 2972
1114 3042
1114 3101
1114 3105
1114 3198
1114 3214
1114 3303
1114 3352
1114 3364
1114 3368
1114 3426
1114 3500
1114 3519
1114 3526
1114 3536
1114 3707
1114 3787
1114 3934
1114 3938
1114 3961
1114 4143
1114 4182
1114 4204
1114 4386
1114 4394
1114 4423
1114 4489
1114 4549
1114 4596
1114 4605
1114 4664
1114 4745
1114 4791
1114 4857
1114 4858
1115 1157
1115 1301
1115 1664
1115 2073
1115 2158
1115 2236
1115 2323
1115 2399
1115 2639
1115 2754
1115 3167
1115 3350
1115 3506
1115 3860
1115 3959
1115 4171
1115 4204
1115 4287
1115 4354
1115 4684
1116 1262
1116 1283
1116 1633
1116 1964
1116 2038
1116 2074
1116 2088
1116 2213
1116 2319
1116 2606
1116 2823
1116 2966
1116 3026
1116 3153
1116 3250
1116 3270
1116 3491
1116 3564
1116 3568
1116 3676
1116 3895
1116 3971
1116 4008
1116 4136
1116 4163
1116 4627
1116 4628
1116 4670
1116 4783
1116 4820
1116 4924
1117 1173
1117 1738
1117 1850
1117 1888
1117 2276
1117 3805
1117 4204
1117 4364
1117 4653
1117 4889
1117 4999
1118 1182
1118 1244
1118 1384
1118 1432
1118 1597
1118 1750
1118 2044
1118 2167
1118 2293
1118 2426
1118 2432
1118 2521
1118 2537
1118 2785
1118 2869
1118 2945
1118 2992
1118 3520
1118 3852
1118 3857
1118 3868
1118 3980
1118 4046
1118 4192
1118 4322
1118 4459
1118 4470
1118 4524
1119 1380
1119 1726
1119 1905
1119 2067
1119 2172
1119 3254
1119 3256
1119 3365
1119 3740
1119 3836
1119 4567
1119 4625
1119 4742
1119 4746
1120 1306
1120 1442
1120 1512
1120 1549
1120 1739
1120 1935
1120 2059
1120 2361
1120 2462
1120 2706
1120 3273
1120 3682
1120 3738
1120 3742
1120 4067
1120 4146
1120 4455
1120 4945
1121 1252
1121 1877
1121 2175
1121 2418
1121 2757
1121 2859
1121 3420
1121 4197
1121 4241
1121 4342
1121 4772
1122 1313
1122 1357
1122 1559
1122 1654
1122 1665
1122 1874
1122 1945
1122 2136
1122 2236
1122 2297
1122 2550
1122 2984
1122 3026
1122 3049
1122 3167
1122 3175
1122 3279
1122 3348
1122 3387
1122 3488
1122 3623
1122 3701
1122 3747
1122 3886
1122 3895
1122 3966
1122 4078
1122 4266
1122 4369
1122 4405
1122 4726
1122 4845
1122 4959
1123 1427
1123 1715
1123 2010
1123 2031
1123 2059
1123 3026
1123 3326
1123 3597
1123 4611
1123 4735
1123 4788
1124 1431
1124 1697
1124 1820
1124 2026
1124 2592
1124 2600
1124 2859
1124 3766
1124 3794
1124 4364
1125 1187
1125 1547
1125 1571
1125 1807
1125 1808
1125 1885
1125 1902
1125 2026
1125 2517
1125 2694
1125 3087
1125 3088
1125 3243
1125 3272
1125 3461
1125 3877
1125 3888
1125 3942
1125 3949
1125 3954
1125 3982
1125 3991
1125 4052
1125 4093
1125 4394
1125 4757
1125 4836
1125 4870
1126 1290
1126 1388
1126 1487
1126 1552
1126 1729
1126 1850
1126 1879
1126 2371
1126 2787
1126 3656
1126 3981
1126 4175
1126 4207
1126 4733
1126 4745
1126 4779
1126 4831
1126 4853
1127 1284
1127 1842
1127 2418
1127 2718
1127 3334
1127 3440
1127 3467
1127 3857
1127 4383
1127 4849
1128 1179
1128 1199
1128 1277
1128 1330
1128 1423
1128 1681
1128 1743
1128 1750
1128 1960
1128 2137
1128 2143
1128 2215
1128 2240
1128 2344
1128 2655
1128 2680
1128 2932
1128 3177
1128 3301
1128 3359
1128 3449
1128 3527
1128 3747
1128 3903
1128 4183
1128 4208
1128 4400
1128 4932
1129 1164
1129 1403
1129 1532
1129 1782
1129 2002
1129 2731
1129 2851
1129 2923
1129 3031
1129 3338
1129 3359
1129 3610
1129 3956
1129 4067
1129 4087
1129 4404
1129 4422
1129 4598
1129 4624
1129 4639
1129 4777
1130 1302
1130 1528
1130 1975
1130 2047
1130 2176
1130 2225
1130 2705
1130 2783
1130 2949
1130 3036
1130 3145
1130 3412
1130 3527
1130 3694
1130 3726
1130 4256
1130 4360
1130 4493
1130 4520
1130 4606
1130 4755
1131 1238
1131 1246
1131 1263
1131 1288
1131 1322
1131 1719
1131 1789
1131 1791
1131 1813
1131 1823
1131 1914
1131 2101
1131 2231
1131 2247
1131 2259
1131 2260
1131 2463
1131 2489
1131 2653
1131 2698
1131 2719
1131 2785
1131 2829
1131 2889
1131 3058
1131 3106
1131 3346
1131 3492
1131 3549
1131 3599
1131 3728
1131 3901
1131 4060
1131 4090
1131 4166
1131 4248
1131 4360
1131 4707
1131 4723
1131 4756
1131 4929
1132 1682
1132 2018
1132 2229
1132 2347
1132 2459
1132 2625
1132 2759
1132 2772
1132 3151
1132 3293
1132 3367
1132 3423
1132 3439
1132 3481
1132 4282
1132 4340
1132 4456
1132 4501
1132 4508
1133 1232
1133 1320
1133 1342
1133 1458
1133 1773
1133 2031
1133 2212
1133 2375
1133 2548
1133 2553
1133 2719
1133 2855
1133 2859
1133 2983
1133 2985
1133 3021
1133 3101
1133 3144
1133 3166
1133 3201
1133 3354
1133 3796
1133 4152
1133 4213
1133 4263
1133 4615
1133 4664
1133 4870
1134 1345
1134 1608
1134 1881
1134 2394
1134 2585
1134 3533
1134 3547
1134 3561
1134 3629
1134 4329
1134 4906
1135 1302
1135 1622
1135 1734
1135 1924
1135 1980
1135 2570
1135 2691
1135 2759
1135 3090
1135 3266
1135 3359
1135 3363
1135 3896
1135 3915
1135 4101
1135 4303
1136 1137
1136 1237
1136 1263
1136 1293
1136 1305
1136 1384
1136 1566
1136 1694
1136 1702
1136 1740
1136 1837
1136 1858
1136 1980
1136 2037
1136 2086
1136 2124
1136 2182
1136 2229
1136 2277
1136 2390
1136 2442
1136 2497
1136 2521
1136 2563
1136 2607
1136 2851
1136 2872
1136 3151
1136 3154
1136 3267
1136 3572
1136 3617
1136 3648
1136 3873
1136 3945
1136 3982
1136 3992
1136 4054
1136 4196
1136 4290
1136 4304
1136 4335
1136 4350
1136 4366
1136 4456
1136 4643
1136 4673
1136 4822
1136 4826
1136 4839
1136 4867
1136 4899
1137 1362
1137 1443
1137 1445
1137 1617
1137 1711
1137 1808
1137 2270
1137 2292
1137 2335
1137 2392
1137 2462
1137 2607
1137 2700
1137 2713
1137 2741
1137 2991
1137 3228
1137 3371
1137 3780
1137 3849
1137 3932
1137 4025
1137 4036
1137 4137
1137 4229
1137 4317
1137 4332
1137 4507
1137 4678
1137 4681
1137 4721
1137 4727
1137 4809
1138 2722
1138 2925
1138 3214
1138 4138
1138 4200
1139 1524
1139 2019
1139 2028
1139 2277
1139 2295
1139 2352
1139 3016
1139 3138
1139 3458
1139 4042
1139 4367
1139 4652
1139 4981
1140 1162
1140 1506
1140 1563
1140 1657
1140 1732
1140 1756
1140 1819
1140 2019
1140 2036
1140 2799
1140 2887
1140 3110
1140 4346
1140 4389
1140 4710
1140 4742
1141 1458
1141 1577
1141 1850
1141 2223
1141 2604
1141 2718
1141 2886
1141 3019
1141 3180
1141 3789
1141 4854
1141 4896
1142 1165
1142 1616
1142 1707
1142 1905
1142 1913
1142 1987
1142 2416
1142 2831
1142 3341
1142 3442
1142 3496
1142 3986
1142 3999
1142 4387
1142 4417
1142 4595
1142 4604
1143 1201
1143 1289
1143 1361
1143 1403
1143 1616
1143 1684
1143 1695
1143 1721
1143 2049
1143 2106
1143 2153
1143 2166
1143 2180
1143 2332
1143 2439
1143 2546
1143 2601
1143 2646
1143 2798
1143 2946
1143 3009
1143 3035
1143 3112
1143 3302
1143 3516
1143 3535
1143 3588
1143 3817
1143 3902
1143 3974
1143 4043
1143 4161
1143 4232
1143 4327
1143 4547
1143 4563
1143 4645
1143 4681
1144 1370
1144 1638
1144 1915
1144 1953
1144 2583
1144 2769
1144 2983
1144 3887
1144 3899
1144 4247
1144 4360
1144 4727
1144 4822
1144 4823
1145 1292
1145 1976
1145 1983
1145 2133
1145 2248
1145 2783
1145 3028
1145 3293
1145 3412
1145 4171
1145 4524
1145 4606
1145 4609
1145 4665
1145 4737
1145 4961
1146 1188
1146 1469
1146 1623
1146 3011
1146 3164
1146 4102
1146 4297
1146 4721
1146 4772
1147 1764
1147 1779
1147 1914
1147 1920
1147 1989
1147 2315
1147 2444
1147 2700
1147 2843
1147 3036
1147 3095
1147 3244
1147 3418
1147 3848
1147 4623
1148 1897
1148 2187
1148 2209
1148 3137
1148 3176
1148 3841
1148 4048
1148 4074
1148 4346
1148 4678
1149 1590
1149 1671
1149 1681
1149 1695
1149 1797
1149 2057
1149 2071
1149 2109
1149 2287
1149 2632
1149 2636
1149 2851
1149 3219
1149 3406
1149 3541
1149 3611
1149 3690
1149 4479
1149 4823
1149 4833
1150 1538
1150 2240
1150 2394
1150 2793
1150 2894
1150 3104
1150 3221
1150 3535
1150 3610
1150 3652
1150 4016
1150 4071
1150 4196
1150 4285
1150 4344
1150 4454
1150 4882
1151 1232
1151 1432
1151 1502
1151 1721
1151 1868
1151 1916
1151 2063
1151 2104
1151 2285
1151 2382
1151 2405
1151 2443
1151 2550
1151 2777
1151 3109
1151 3366
1151 3613
1151 3887
1151 4612
1151 4729
1151 4847
1152 1343
1152 1374
1152 1528
1152 1551
1152 1663
1152 1709
1152 1715
1152 1720
1152 1789
1152 1839
1152 1879
1152 1996
1152 2412
1152 2540
1152 2623
1152 2966
1152 3065
1152 3429
1152 3567
1152 4240
1152 4467
1152 4476
1152 4702
1152 4864
1153 1338
1153 1648
1153 1871
1153 1885
1153 1899
1153 1905
1153 2407
1153 3098
1153 3276
1153 3537
1153 3669
1153 3918
1153 4131
1153 4722
1154 1164
1154 1667
1154 2342
1154 2384
1154 3036
1154 3069
1154 3119
1154 3135
1154 3248
1154 3366
1154 3881
1154 4665
1154 4848
1155 1156
1155 1366
1155 1613
1155 1626
1155 2457
1155 2625
1155 2642
1155 2721
1155 3011
1155 3497
1155 3525
1155 3608
1155 4106
1155 4357
1155 4588
1155 4594
1155 4672
1155 4784
1155 4976
1156 1160
1156 1402
1156 1840
1156 2191
1156 2307
1156 3088
1156 3162
1156 3464
1156 3957
1156 4451
1157 1189
1157 1196
1157 1250
1157 1269
1157 1590
1157 2105
1157 2367
1157 2524
1157 2534
1157 2621
1157 2701
1157 3233
1157 3286
1157 3499
1157 4761
1157 4787
1158 1166
1158 1422
1158 1888
1158 2105
1158 2671
1158 2744
1158 3168
1158 3272
1158 3423
1158 3576
1158 4045
1158 4583
1158 4817
1159 1232
1159 1317
1159 1750
1159 2626
1159 2872
1159 3417
1159 3627
1159 3658
1159 3753
1159 4109
1159 4272
1159 4529
1159 4723
1160 1212
1160 1229
1160 1516
1160 1533
1160 2426
1160 2617
1160 2870
1160 3023
1160 3044
1160 3348
1160 3445
1160 3551
1160 3889
1160 3896
1160 4123
1160 4152
1160 4207
1160 4234
1160 4239
1160 4835
1161 1211
1161 1341
1161 1577
1161 1682
1161 1799
1161 2092
1161 2715
1161 2805
1161 3254
1161 3383
1161 3766
1161 3879
1161 4029
1161 4616
1161 4740
1162 1506
1162 1596
1162 1618
1162 1861
1162 1914
1162 1933
1162 1989
1162 2366
1162 2469
1162 2499
1162 3036
1162 3356
1162 3391
1162 3403
1162 3446
1162 4388
1162 4497
1162 4726
1163 1233
1163 1846
1163 1961
1163 2214
1163 2320
1163 2489
1163 2886
1163 3328
1163 3384
1163 3434
1163 3663
1163 3729
1163 3935
1163 4056
1163 4732
1164 1241
1164 1319
1164 1483
1164 2013
1164 2140
1164 2669
1164 2835
1164 3039
1164 3418
1164 3520
1164 3915
1164 3963
1164 4158
1164 4522
1164 4758
1165 1455
1165 1576
1165 1679
1165 1812
1165 2233
1165 2692
1165 3417
1165 3697
1165 4413
1165 4437
1165 4498
1165 4661
1165 4918
1166 1511
1166 1518
1166 1984
1166 2384
1166 2432
1166 2499
1166 2524
1166 2985
1166 3038
1166 3232
1166 3828
1166 4288
1166 4388
1167 1506
1167 1531
1167 2309
1167 2435
1167 2538
1167 3303
1167 3335
1167 3398
1167 3731
1167 4160
1167 4183
1167 4461
1167 4488
1167 4552
1168 1241
1168 2436
1168 2494
1168 2645
1168 2965
1168 3088
1168 3740
1168 3862
1168 4159
1168 4171
1168 4425
1168 4507
1169 1406
1169 1990
1169 2055
1169 2099
1169 2360
1169 2643
1169 3322
1169 3518
1169 4384
1169 4476
1169 4526
1170 1884
1170 1916
1170 2003
1170 2069
1170 2107
1170 2363
1170 3053
1170 3210
1170 3262
1170 3322
1170 3540
1170 3553
1170 3718
1170 3825
1170 4016
1170 4095
1170 4198
1170 4249
1170 4280
1170 4482
1171 1421
1171 1583
1171 1919
1171 2043
1171 2056
1171 2284
1171 2571
1171 2644
1171 2834
1171 3025
1171 3528
1171 3548
1171 3557
1171 3690
1171 3871
1171 4085
1171 4213
1171 4217
1171 4296
1171 4549
1171 4777
1172 1191
1172 1227
1172 1900
1172 2123
1172 2235
1172 2366
1172 2405
1172 2868
1172 3724
1172 3761
1172 3779
1172 4049
1172 4699
1173 1367
1173 1435
1173 1471
1173 1850
1173 2258
1173 2270
1173 3467
1173 3619
1173 4070
1173 4078
1173 4202
1173 4437
1173 4450
1173 4481
1173 4911
1174 1476
1174 1490
1174 1671
1174 2474
1174 2477
1174 2846
1174 2939
1174 3255
1174 3529
1174 3551
1174 3557
1174 3784
1174 4518
1174 4595
1174 4618
1174 4670
1175 1524
1175 1575
1175 1981
1175 1998
1175 2302
1175 2544
1175 2630
1175 3125
1175 3398
1175 3584
1175 3661
1175 3681
1175 3728
1175 3977
1175 4589
1176 1636
1176 1854
1176 2530
1176 3057
1176 3284
1176 3335
1176 3409
1176 3787
1176 3944
1176 4065
1176 4381
1177 1280
1177 1299
1177 1413
1177 1850
1177 1928
1177 2475
1177 2496
1177 2864
1177 2944
1177 3028
1177 3032
1177 3349
1177 3418
1177 4190
1177 4373
1177 4430
1177 4827
1177 4889
1177 4898
1177 4918
1178 1370
1178 1526
1178 2209
1178 2237
1178 2611
1178 2676
1178 2904
1178 2954
1178 2986
1178 4624
1179 1434
1179 1512
1179 1541
1179 1899
1179 2272
1179 2443
1179 2499
1179 2824
1179 3419
1179 3541
1179 4222
1179 4280
1179 4439
1179 4524
1179 4594
1180 1197
1180 1587
1180 1694
1180 1769
1180 2028
1180 2062
1180 2081
1180 3193
1180 3508
1180 3685
1180 3944
1180 4090
1180 4127
1180 4630
1180 4688
1180 4849
1180 4896
1181 1200
1181 1403
1181 1419
1181 1520
1181 1670
1181 1710
1181 1857
1181 2204
1181 2415
1181 2438
1181 2568
1181 2942
1181 2984
1181 3335
1181 3395
1181 3468
1181 3495
1181 3498
1181 3584
1181 3924
1181 3958
1181 4135
1181 4186
1181 4324
1181 4489
1182 2056
1182 2551
1182 3046
1182 3364
1182 3432
1182 3470
1182 3593
1182 3987
1182 4583
1182 4792
1183 1372
1183 1494
1183 1692
1183 1770
1183 1815
1183 1929
1183 2474
1183 2738
1183 2862
1183 2974
1183 3053
1183 3077
1183 3829
1183 3939
1183 4324
1183 4617
1183 4671
1183 4722
1183 4862
1184 1240
1184 1543
1184 1722
1184 1872
1184 2269
1184 2479
1184 2728
1184 2938
1184 3168
1184 3202
1184 3545
1184 3625
1184 3923
1184 4556
1184 4716
1184 4961
1185 1383
1185 1488
1185 2056
1185 2067
1185 2420
1185 2899
1185 3253
1185 3348
1185 3582
1185 3584
1185 3639
1185 3766
1185 4028
1185 4192
1185 4359
1185 4398
1185 4420
1185 4474
1185 4701
1185 4703
1186 1195
1186 2025
1186 2209
1186 2320
1186 2506
1186 2706
1186 3403
1186 3743
1186 3872
1186 3994
1186 4263
1186 4901
1187 1268
1187 1276
1187 1392
1187 1444
1187 1497
1187 1563
1187 1616
1187 1768
1187 2604
1187 2749
1187 3015
1187 3130
1187 3162
1187 3476
1187 3739
1187 3863
1187 3967
1187 4049
1187 4202
1187 4323
1187 4412
1187 4547
1187 4700
1188 1245
1188 1318
1188 1475
1188 1609
1188 1813
1188 1989
1188 2127
1188 2201
1188 2894
1188 2937
1188 3011
1188 3188
1188 3529
1188 4138
1188 4587
1188 4662
1188 4717
1189 1480
1189 1733
1189 1879
1189 1912
1189 1918
1189 2102
1189 2312
1189 2438
1189 2924
1189 3133
1189 3355
1189 3642
1189 4584
1189 4699
1189 4732
1189 4896
1190 1237
1190 1559
1190 1577
1190 1676
1190 2022
1190 2513
1190 2601
1190 3318
1190 3382
1190 3440
1190 3939
1190 4278
1191 1326
1191 1977
1191 2145
1191 2191
1191 2206
1191 2290
1191 2784
1191 3274
1191 3351
1191 3464
1191 3527
1191 3720
1191 3804
1191 3887
1191 3987
1191 4193
1191 4661
1191 4952
1192 1318
1192 1341
1192 1568
1192 1858
1192 2386
1192 3135
1192 3514
1192 3769
1192 3877
1192 3973
1192 4165
1192 4711
1193 1434
1193 1505
1193 1563
1193 1721
1193 1956
1193 2384
1193 2409
1193 2500
1193 3075
1193 3414
1193 3580
1193 3887
1193 4366
1193 4453
1194 2273
1194 3219
1194 3496
1194 3554
1194 3559
1194 3938
1194 4307
1194 4602
1194 4781
1195 1310
1195 1403
1195 1435
1195 1442
1195 1549
1195 1773
1195 1832
1195 1911
1195 2006
1195 2086
1195 2366
1195 2384
1195 2404
1195 2531
1195 2589
1195 2633
1195 3037
1195 3138
1195 3231
1195 3240
1195 3313
1195 3325
1195 3355
1195 3463
1195 3499
1195 3641
1195 3753
1195 3861
1195 3907
1195 4055
1195 4338
1195 4376
1195 4411
1195 4439
1195 4563
1195 4599
1195 4662
1195 4712
1195 4780
1195 4796
1195 4895
1195 4947
1195 4961
1195 4988
1196 1332
1196 1527
1196 1542
1196 1844
1196 2080
1196 2317
1196 2373
1196 3261
1196 3365
1196 4330
1196 4730
1197 1411
1197 1521
1197 1652
1197 1763
1197 1830
1197 1956
1197 2078
1197 2142
1197 2173
1197 2214
1197 2374
1197 2547
1197 2736
1197 3051
1197 3068
1197 3141
1197 3347
1197 3364
1197 3417
1197 3633
1197 3827
1197 3997
1197 4043
1197 4177
1197 4349
1197 4431
1197 4510
1197 4592
1197 4826
1197 4863
1197 4918
1198 1421
1198 1652
1198 1982
1198 2143
1198 2145
1198 2288
1198 2521
1198 3813
1198 4163
1198 4388
1198 4477
1198 4841
1198 4901
1198 4908
1198 4988
1199 1359
1199 1372
1199 1414
1199 2062
1199 2097
1199 2152
1199 2344
1199 2384
1199 2779
1199 2942
1199 3082
1199 3148
1199 3499
1199 3535
1199 3736
1199 3796
1199 3841
1199 4127
1199 4237
1199 4407
1199 4532
1199 4688
1200 1202
1200 1367
1200 1459
1200 1665
1200 1821
1200 2027
1200 2190
1200 2333
1200 2611
1200 2896
1200 3149
1200 3593
1200 3986
1200 4034
1200 4059
1200 4230
1200 4630
1200 4974
1200 4995
1201 1224
1201 1531
1201 1600
1201 2181
1201 2537
1201 2581
1201 2674
1201 2782
1201 2862
1201 2919
1201 2955
1201 3217
1201 3619
1201 4159
1201 4454
1201 4490
1201 4659
1201 4670
1202 1747
1202 1824
1202 1955
1202 2357
1202 3166
1202 3322
1202 3488
1202 3972
1202 4612
1203 1962
1203 2429
1203 2988
1203 3103
1203 3114
1203 3281
1203 3365
1203 3628
1203 3991
1203 4050
1203 4080
1203 4133
1203 4901
1203 4919
1204 1396
1204 1789
1204 1944
1204 2159
1204 2607
1204 2970
1204 3746
1204 4484
1204 4534
1205 1260
1205 1518
1205 1686
1205 1839
1205 2204
1205 2754
1205 2900
1205 3137
1205 3281
1205 3298
1205 3314
1205 3776
1205 3853
1205 3926
1205 3990
1205 4192
1205 4213
1205 4258
1205 4353
1205 4731
1205 4896
1205 4992
1206 2019
1206 2048
1206 3597
1206 4082
1206 4267
1206 4402
1206 4911
1207 1279
1207 1578
1207 1949
1207 1960
1207 3152
1207 3281
1207 3347
1207 3475
1207 4421
1207 4523
1207 4581
1207 4858
1208 1544
1208 1589
1208 2165
1208 2575
1208 3356
1208 3437
1208 3582
1208 3942
1208 3950
1208 4055
1208 4261
1208 4479
1208 4872
1208 4941
1209 1359
1209 1395
1209 1750
1209 1751
1209 1951
1209 2128
1209 2254
1209 2600
1209 2785
1209 2812
1209 3110
1209 3514
1209 3564
1209 3681
1209 3701
1209 3784
1209 4096
1209 4271
1209 4355
1209 4443
1209 4523
1210 1359
1210 1367
1210 1377
1210 1381
1210 1416
1210 1511
1210 1765
1210 1777
1210 1778
1210 1849
1210 1869
1210 1918
1210 1928
1210 1980
1210 2116
1210 2364
1210 2546
1210 2556
1210 2607
1210 2775
1210 2792
1210 2863
1210 2903
1210 3070
1210 3201
1210 3247
1210 3267
1210 3320
1210 3614
1210 3619
1210 3658
1210 3710
1210 3769
1210 3903
1210 4140
1210 4194
1210 4195
1210 4256
1210 4263
1210 4281
1210 4434
1210 4502
1210 4512
1210 4560
1210 4625
1210 4686
1210 4713
1210 4759
1210 4783
1210 4895
1210 4911
1211 1237
1211 1741
1211 1831
1211 2063
1211 3017
1211 3658
1211 3872
1211 3887
1211 4133
1211 4265
1211 4485
1211 4924
1212 1684
1212 1698
1212 1935
1212 2150
1212 2455
1212 2816
1212 3210
1212 3586
1212 3928
1212 3950
1212 4062
1212 4137
1212 4301
1212 4702
1213 1682
1213 2015
1213 2746
1213 3000
1213 3271
1213 3593
1213 3673
1213 3837
1213 4191
1213 4484
1213 4582
1213 4796
1214 1404
1214 1464
1214 1465
1214 1977
1214 3679
1214 4803
1215 1322
1215 1450
1215 1850
1215 2534
1215 3492
1215 3759
1215 3810
1215 4271
1215 4742
1216 1456
1216 1478
1216 1623
1216 2288
1216 2302
1216 2365
1216 3031
1216 3224
1216 3346
1216 3364
1216 3474
1216 3726
1216 4040
1216 4288
1216 4471
1216 4523
1217 1485
1217 2145
1217 2252
1217 2555
1217 2776
1217 3162
1217 3659
1217 3859
1217 4080
1217 4377
1217 4454
1217 4793
1218 1226
1218 1321
1218 1325
1218 1875
1218 2331
1218 2550
1218 2674
1218 2762
1218 2769
1218 3078
1218 3265
1218 3674
1218 3705
1218 3934
1218 4190
1218 4466
1218 4594
1218 4736
1218 4899
1219 1248
1219 1370
1219 1667
1219 1732
1219 1910
1219 1976
1219 1982
1219 2042
1219 2130
1219 2538
1219 3101
1219 3176
1219 3193
1219 3682
1219 3713
1219 3741
1219 4780
1219 4888
1219 4894
1220 1232
1220 2800
1220 3045
1220 3288
1220 3744
1220 4226
1220 4228
1220 4282
1220 4343
1220 4424
1220 4528
1220 4672
1221 1325
1221 1328
1221 1489
1221 1512
1221 1595
1221 1632
1221 1682
1221 1684
1221 1694
1221 1858
1221 1884
1221 1908
1221 2073
1221 2134
1221 2240
1221 2338
1221 2495
1221 2570
1221 2675
1221 3045
1221 3196
1221 3281
1221 3522
1221 3524
1221 3605
1221 3698
1221 4137
1221 4395
1221 4441
1221 4464
1221 4493
1221 4552
1221 4623
1221 4629
1221 4643
1221 4839
1221 4905
1222 1356
1222 2259
1222 2344
1222 3163
1222 3228
1222 3243
1222 4015
1222 4621
1223 1320
1223 1463
1223 1488
1223 1584
1223 1950
1223 2028
1223 2033
1223 2147
1223 2180
1223 2255
1223 2330
1223 2374
1223 2432
1223 2491
1223 2816
1223 2936
1223 2968
1223 3085
1223 3294
1223 3488
1223 3661
1223 3733
1223 3857
1223 3893
1223 3906
1223 3998
1223 4224
1223 4431
1223 4554
1223 4563
1223 4592
1224 1242
1224 1250
1224 1397
1224 1476
1224 1501
1224 1575
1224 1632
1224 1636
1224 1641
1224 1695
1224 1735
1224 1745
1224 1802
1224 2070
1224 2101
1224 2164
1224 2197
1224 2279
1224 2309
1224 2313
1224 2336
1224 2458
1224 2489
1224 2541
1224 2567
1224 2595
1224 2737
1224 2839
1224 2904
1224 2927
1224 2962
1224 2984
1224 2987
1224 3024
1224 3120
1224 3137
1224 3160
1224 3231
1224 3463
1224 3475
1224 3585
1224 3598
1224 3613
1224 3617
1224 3630
1224 3717
1224 3733
1224 3751
1224 3895
1224 3959
1224 3975
1224 4104
1224 4196
1224 4266
1224 4269
1224 4287
1224 4662
1224 4689
1225 2065
1225 2158
1225 2295
1225 2307
1225 2364
1225 2662
1225 2806
1225 3538
1225 3614
1225 3991
1225 3993
1225 4034
1225 4107
1225 4162
1225 4804
1226 1430
1226 1548
1226 1829
1226 1831
1226 1935
1226 2114
1226 2140
1226 2329
1226 2352
1226 2423
1226 2489
1226 2562
1226 2618
1226 2639
1226 2706
1226 2854
1226 3365
1226 3690
1226 3846
1226 3924
1226 4178
1226 4185
1226 4876
1227 1302
1227 1542
1227 1613
1227 1787
1227 1929
1227 1956
1227 2112
1227 2174
1227 2233
1227 2833
1227 2911
1227 3211
1227 3349
1227 3364
1227 3642
1227 3801
1227 3855
1227 4000
1227 4485
1227 4774
1227 4796
1228 1479
1228 1533
1228 1655
1228 1686
1228 3115
1228 3343
1228 3613
1228 3956
1228 4782
1228 4875
1229 1571
1229 2182
1229 2207
1229 2305
1229 2360
1229 2557
1229 3075
1229 3245
1229 3595
1229 4376
1229 4476
1229 4510
1230 1383
1230 1402
1230 1728
1230 1869
1230 2049
1230 2863
1230 3020
1230 3023
1230 3163
1230 3322
1230 3443
1230 3503
1230 3679
1230 4493
1230 4558
1230 4620
1231 1429
1231 2190
1231 2293
1231 2345
1231 2449
1231 2632
1231 3116
1231 3490
1231 4065
1231 4368
1231 4394
1231 4717
1231 4872
1232 1310
1232 1314
1232 1430
1232 1438
1232 1545
1232 1584
1232 1588
1232 1611
1232 1637
1232 1769
1232 1776
1232 1780
1232 1795
1232 1859
1232 1878
1232 2054
1232 2177
1232 2228
1232 2630
1232 2644
1232 2650
1232 2815
1232 2895
1232 2929
1232 3185
1232 3229
1232 3235
1232 3268
1232 3292
1232 3348
1232 3356
1232 3382
1232 3476
1232 3514
1232 3529
1232 3613
1232 3698
1232 3790
1232 3850
1232 3876
1232 3899
1232 4003
1232 4130
1232 4134
1232 4147
1232 4226
1232 4445
1232 4529
1232 4585
1232 4729
1232 4739
1232 4769
1232 4826
1232 4863
1232 4908
1232 4969
1233 1503
1233 1784
1233 1899
1233 2602
1233 2644
1233 2675
1233 2684
1233 2888
1233 2912
1233 3036
1233 3039
1233 3118
1233 3761
1233 4103
1233 4690
1234 1326
1234 1512
1234 1731
1234 1798
1234 2238
1234 2272
1234 2376
1234 2496
1234 2519
1234 2526
1234 2550
1234 2587
1234 2605
1234 2678
1234 2935
1234 2969
1234 3407
1234 3518
1234 4054
1234 4213
1234 4512
1234 4758
1235 1318
1235 1538
1235 1726
1235 1891
1235 1894
1235 1980
1235 2499
1235 2555
1235 2624
1235 2694
1235 3120
1235 3374
1235 3573
1235 3744
1235 3854
1235 3914
1235 4198
1235 4547
1235 4703
1235 4898
1236 1294
1236 1325
1236 1443
1236 1966
1236 1983
1236 2096
1236 2228
1236 2257
1236 2497
1236 2764
1236 3270
1236 3769
1236 3817
1236 3839
1236 4545
1236 4595
1236 4743
1237 1353
1237 1444
1237 1799
1237 1834
1237 1847
1237 2049
1237 2096
1237 2160
1237 2227
1237 2257
1237 2388
1237 2511
1237 2548
1237 2590
1237 2708
1237 2782
1237 3072
1237 3105
1237 3363
1237 3406
1237 3459
1237 3483
1237 3533
1237 3680
1237 3684
1237 3726
1237 3880
1237 3913
1237 4099
1237 4429
1237 4640
1237 4679
1237 4732
1237 4760
1237 4762
1238 1710
1238 2221
1238 2459
1238 3482
1238 4066
1238 4074
1238 4719
1238 4830
1238 4831
1238 4842
1239 1244
1239 1925
1239 2030
1239 2431
1239 3228
1239 3231
1239 3232
1239 3276
1239 3328
1239 3626
1239 3854
1239 4071
1239 4785
1239 4870
1240 1366
1240 1413
1240 2257
1240 2763
1240 2901
1240 2929
1240 3009
1240 3065
1240 3258
1240 3712
1240 3780
1240 4018
1240 4068
1240 4475
1240 4581
1240 4920
1241 1304
1241 2118
1241 2163
1241 2644
1241 2961
1241 3324
1241 3345
1241 3670
1241 3764
1241 4421
1241 4820
1241 4858
1241 4893
1241 4911
1242 1549
1242 1551
1242 1917
1242 2056
1242 3315
1242 3415
1242 3697
1243 1414
1243 1421
1243 1551
1243 1955
1243 2479
1243 2728
1243 3175
1243 3475
1243 4583
1243 4633
1243 4783
1244 1394
1244 1450
1244 1476
1244 1652
1244 2337
1244 2385
1244 2432
1244 2963
1244 2972
1244 3089
1244 3562
1244 4307
1244 4694
1244 4883
1244 4894
1245 1895
1245 1958
1245 2519
1245 2739
1245 3227
1245 3293
1245 3718
1245 3733
1245 3884
1245 3973
1245 4058
1245 4338
1245 4621
1245 4678
1245 4873
1245 4995
1246 1751
1246 1772
1246 1879
1246 2081
1246 2162
1246 2267
1246 2272
1246 3156
1246 3176
1246 3210
1246 3700
1246 3892
1246 4315
1246 4341
1246 4731
1246 4752
1246 4761
1247 1297
1247 1694
1247 1734
1247 1811
1247 2102
1247 2331
1247 2409
1247 2432
1247 2498
1247 2752
1247 3045
1247 3249
1247 3638
1247 3729
1247 4005
1247 4066
1247 4071
1247 4242
1247 4260
1247 4328
1247 4393
1247 4514
1247 4664
1247 4751
1247 4892
1247 4951
1248 2036
1248 2383
1248 2510
1248 2633
1248 3105
1248 3789
1248 3966
1248 4160
1248 4461
1248 4573
1248 4742
1248 4846
1249 1428
1249 1472
1249 1518
1249 2054
1249 2137
1249 2754
1249 3053
1249 3159
1249 3568
1249 3569
1249 3692
1249 4189
1249 4288
1249 4561
1249 4786
1249 4906
1250 1403
1250 2217
1250 2262
1250 2427
1250 2469
1250 2802
1250 2849
1250 2855
1250 2975
1250 3093
1250 3108
1250 3203
1250 3231
1250 3269
1250 3271
1250 3566
1250 3602
1250 3625
1250 4074
1250 4151
1250 4162
1250 4772
1251 1594
1251 1827
1251 2345
1251 2728
1251 3029
1251 3169
1251 3592
1251 3742
1251 3824
1251 3915
1251 4314
1251 4485
1252 1714
1252 1971
1252 2342
1252 2504
1252 3031
1252 3162
1252 3276
1252 3344
1252 3440
1252 3784
1252 3871
1252 3958
1252 4287
1252 4341
1252 4492
1252 4498
1252 4501
1252 4745
1252 4797
1252 4852
1253 1356
1253 1663
1253 1674
1253 1870
1253 2257
1253 2623
1253 3655
1253 3935
1253 4140
1253 4227
1253 4344
1254 1358
1254 1716
1254 2051
1254 2076
1254 2077
1254 2291
1254 2640
1254 2909
1254 2994
1254 3111
1254 3169
1254 3318
1254 3344
1254 3366
1254 3390
1254 3410
1254 3634
1254 3934
1255 1314
1255 1396
1255 1784
1255 2358
1255 2738
1255 2931
1255 3081
1255 3267
1255 3365
1255 3762
1255 3992
1255 4051
1255 4823
1255 4942
1255 4981
1256 1533
1256 1775
1256 1984
1256 2158
1256 3238
1256 3621
1256 3626
1256 3822
1256 4039
1256 4265
1256 4311
1256 4721
1256 4895
1257 1512
1257 1552
1257 1593
1257 1725
1257 2480
1257 3584
1257 3890
1257 3906
1257 4294
1257 4562
1257 4799
1257 4872
1257 4947
1258 1435
1258 1616
1258 1725
1258 2152
1258 2236
1258 2287
1258 2292
1258 2502
1258 2533
1258 2803
1258 2840
1258 3239
1258 3428
1258 3716
1258 3920
1258 3960
1258 3994
1258 4121
1258 4456
1258 4511
1258 4715
1258 4849
1259 1389
1259 2674
1259 3196
1259 3448
1259 3626
1259 3952
1259 4183
1259 4381
1259 4924
1260 1326
1260 1617
1260 1875
1260 2144
1260 2688
1260 2785
1260 2881
1260 2943
1260 3077
1260 3082
1260 3100
1260 3236
1260 3356
1260 3389
1260 3631
1260 3888
1260 3925
1260 4006
1260 4052
1260 4281
1260 4767
1260 4785
1260 4853
1260 4966
1261 1268
1261 1395
1261 1967
1261 2291
1261 2412
1261 2524
1261 3609
1261 3745
1261 4071
1261 4329
1261 4380
1261 4582
1261 4595
1261 4833
1262 1279
1262 1321
1262 1857
1262 1968
1262 1988
1262 2228
1262 2588
1262 2970
1262 3248
1262 3631
1262 4004
1263 1386
1263 1739
1263 2194
1263 2632
1263 2947
1263 3215
1263 3243
1263 3252
1263 3606
1263 3939
1263 3960
1263 4218
1263 4458
1263 4622
1263 4810
1263 4904
1263 4965
1264 1478
1264 2046
1264 2166
1264 2202
1264 2222
1264 2252
1264 2467
1264 2530
1264 2538
1264 2565
1264 2754
1264 2785
1264 3206
1264 3532
1264 3631
1264 3769
1264 3958
1264 3970
1264 4084
1264 4277
1264 4537
1264 4785
1265 1319
1265 1404
1265 1734
1265 1893
1265 2097
1265 2135
1265 2138
1265 2348
1265 2762
1265 2920
1265 2957
1265 3043
1265 3155
1265 3641
1265 4271
1265 4322
1265 4705
1265 4896
1265 4961
1266 1826
1266 2009
1266 2148
1266 2217
1266 2584
1266 2940
1266 3167
1266 3384
1266 3464
1266 3659
1266 3769
1266 4852
1266 4919
1267 1496
1267 1719
1267 1799
1267 1833
1267 2353
1267 2644
1267 2663
1267 2896
1267 2921
1267 3326
1267 3365
1267 3412
1267 3625
1267 3794
1267 4041
1267 4131
1267 4278
1267 4448
1267 4547
1267 4746
1267 4952
1268 1299
1268 1492
1268 1520
1268 1859
1268 2405
1268 2469
1268 2724
1268 2778
1268 3021
1268 3116
1268 3498
1268 4196
1268 4303
1268 4639
1268 4645
1268 4995
1269 1638
1269 1933
1269 2333
1269 2365
1269 2523
1269 2828
1269 2829
1269 2911
1269 2928
1269 3211
1269 3349
1269 3870
1269 4143
1269 4170
1269 4270
1269 4292
1269 4405
1269 4876
1269 4973
1270 1549
1270 1563
1270 1930
1270 1943
1270 2215
1270 2652
1270 3181
1270 3918
1270 4116
1270 4515
1270 4729
1270 4776
1270 4837
1270 4863
1271 1504
1271 1729
1271 1846
1271 1920
1271 2226
1271 2537
1271 3245
1271 3252
1271 3304
1271 3417
1271 3544
1271 3583
1271 3604
1271 3912
1271 4069
1271 4133
1271 4826
1272 1288
1272 1319
1272 1342
1272 1655
1272 2226
1272 2944
1272 2978
1272 4104
1272 4463
1272 4497
1272 4749
1273 1356
1273 1665
1273 1803
1273 2056
1273 2488
1273 3968
1273 4048
1273 4164
1273 4317
1273 4318
1273 4417
1273 4728
1273 4988
1274 1640
1274 1892
1274 1979
1274 2940
1274 3076
1274 3116
1274 3177
1274 3496
1274 3893
1274 4402
1274 4527
1274 4585
1274 4864
1275 1298
1275 2221
1275 2309
1275 2589
1275 3340
1275 3562
1275 4078
1275 4143
1275 4193
1275 4366
1275 4387
1275 4762
1275 4823
1275 4880
1276 1442
1276 1977
1276 2031
1276 2848
1276 3049
1276 3276
1276 3395
1276 3441
1276 3881
1276 4119
1276 4510
1276 4585
1276 4612
1276 4657
1277 2218
1277 2777
1277 3131
1277 3292
1277 3777
1277 3922
1277 4309
1277 4420
1277 4777
1277 4870
1278 1848
1278 2214
1278 2678
1278 2998
1278 3170
1278 3326
1278 3579
1278 3700
1278 3834
1278 4132
1278 4751
1279 1359
1279 1360
1279 1390
1279 1402
1279 1433
1279 2001
1279 2073
1279 2169
1279 2831
1279 2867
1279 2905
1279 3123
1279 3250
1279 3257
1279 3270
1279 3324
1279 3345
1279 3361
1279 3545
1279 3656
1279 3805
1279 3964
1279 3967
1279 4327
1279 4432
1279 4578
1279 4812
1280 1453
1280 1460
1280 1866
1280 1905
1280 2019
1280 2404
1280 2426
1280 2583
1280 2649
1280 2701
1280 2845
1280 3302
1280 4100
1280 4270
1280 4330
1280 4512
1281 1325
1281 2211
1281 2268
1281 2568
1281 2650
1281 2785
1281 2860
1281 3095
1281 3152
1281 3242
1281 3368
1281 3970
1281 4202
1281 4263
1281 4817
1281 4848
1282 1939
1282 2022
1282 2088
1282 2211
1282 2420
1282 2692
1282 3038
1282 3378
1282 3384
1282 3439
1282 3476
1282 3977
1282 4015
1282 4034
1282 4112
1282 4524
1282 4849
1283 1294
1283 1850
1283 1945
1283 2150
1283 2218
1283 2275
1283 2620
1283 2945
1283 2977
1283 3013
1283 3949
1283 4543
1283 4823
1283 4855
1284 1324
1284 1468
1284 1560
1284 1899
1284 2115
1284 2382
1284 2537
1284 2644
1284 3040
1284 3317
1284 3683
1284 4098
1284 4458
1284 4754
1285 1587
1285 2049
1285 2364
1285 2367
1285 2390
1285 2623
1285 3240
1285 3759
1285 4423
1286 1469
1286 1795
1286 1913
1286 2066
1286 2259
1286 2376
1286 2421
1286 2553
1286 2607
1286 2708
1286 3378
1286 3781
1286 3865
1286 4060
1286 4653
1287 1672
1287 1751
1287 1830
1287 3038
1287 3135
1287 3733
1287 4244
1287 4747
1287 4904
1288 1519
1288 1525
1288 1644
1288 1757
1288 1844
1288 1959
1288 1989
1288 2143
1288 2417
1288 2907
1288 3203
1288 3210
1288 3396
1288 3448
1288 3994
1288 4152
1288 4154
1288 4343
1288 4393
1288 4657
1289 1335
1289 1552
1289 1641
1289 1785
1289 1983
1289 2223
1289 2257
1289 2346
1289 2561
1289 3246
1289 3658
1289 3950
1289 3983
1289 4153
1289 4448
1289 4484
1289 4493
1289 4537
1289 4558
1290 1438
1290 1601
1290 1801
1290 2003
1290 2074
1290 2246
1290 2470
1290 2499
1290 2558
1290 3099
1290 3260
1290 3440
1290 3576
1290 4029
1290 4180
1290 4363
1290 4496
1291 1397
1291 1697
1291 1962
1291 2631
1291 2723
1291 2726
1291 3065
1291 3123
1291 3402
1291 3582
1291 4477
1291 4628
1292 1376
1292 1552
1292 1600
1292 1667
1292 1913
1292 1975
1292 2097
1292 2209
1292 3425
1292 3500
1292 3670
1292 3792
1292 3957
1292 4188
1292 4916
1293 2067
1293 2079
1293 2216
1293 2228
1293 2283
1293 2409
1293 2410
1293 2536
1293 2760
1293 2787
1293 2935
1293 3042
1293 3132
1293 3837
1293 3911
1293 4651
1293 4835
1294 1524
1294 1622
1294 2719
1294 2811
1294 3028
1294 3546
1294 3595
1294 4077
1295 1455
1295 1865
1295 2174
1295 2659
1295 2690
1295 2836
1295 2941
1295 3024
1295 3321
1295 3488
1295 4166
1295 4289
1295 4690
1295 4711
1296 1391
1296 1635
1296 1841
1296 1905
1296 2011
1296 2242
1296 2922
1296 3160
1296 3410
1296 3590
1296 3807
1296 4128
1296 4896
1297 1382
1297 2600
1297 2882
1297 4049
1297 4467
1297 4515
1297 4594
1297 4761
1298 1972
1298 2473
1298 2706
1298 2943
1298 3020
1298 3195
1298 3466
1298 4100
1298 4110
1298 4185
1298 4313
1298 4446
1298 4750
1298 4977
1299 1575
1299 1715
1299 1846
1299 1933
1299 2262
1299 2448
1299 2965
1299 2980
1299 3263
1299 3562
1299 3908
1299 4045
1299 4160
1299 4222
1299 4414
1299 4633
1300 1369
1300 1391
1300 1407
1300 2168
1300 2262
1300 2291
1300 2544
1300 2739
1300 2966
1300 3306
1300 3518
1300 3603
1300 3903
1300 4114
1300 4581
1300 4746
1300 4962
1301 1308
1301 1419
1301 1509
1301 1540
1301 1571
1301 1577
1301 1729
1301 2019
1301 2096
1301 2292
1301 2342
1301 2373
1301 2415
1301 2471
1301 2719
1301 2750
1301 3060
1301 3075
1301 3078
1301 3122
1301 3172
1301 3340
1301 3427
1301 3475
1301 3539
1301 3598
1301 3666
1301 3844
1301 3958
1301 3963
1301 3974
1301 4083
1301 4141
1301 4365
1301 4528
1301 4541
1301 4654
1302 1692
1302 1790
1302 1867
1302 2113
1302 2137
1302 2533
1302 2694
1302 3348
1302 3431
1302 3465
1302 3492
1302 3772
1302 3978
1302 4243
1302 4333
1302 4493
1303 1366
1303 1395
1303 1570
1303 2504
1303 2627
1303 2700
1303 2837
1303 3144
1303 3256
1303 3596
1303 4208
1303 4240
1303 4930
1304 1397
1304 2186
1304 2944
1304 3323
1304 3398
1304 3651
1304 4162
1304 4655
1305 1439
1305 1477
1305 1855
1305 2062
1305 2254
1305 2328
1305 2650
1305 2780
1305 3347
1305 4336
1305 4594
1305 4595
1305 4631
1305 4710
1305 4715
1305 4981
1306 1422
1306 1609
1306 1794
1306 1988
1306 2058
1306 2167
1306 2565
1306 2859
1306 3447
1306 3691
1306 3748
1306 4263
1306 4403
1306 4507
1306 4534
1306 4632
1307 1635
1307 1890
1307 2534
1307 2947
1307 4102
1307 4333
1307 4381
1307 4877
1307 4984
1308 1617
1308 1836
1308 2037
1308 2081
1308 2120
1308 2257
1308 2357
1308 2447
1308 2758
1308 2795
1308 3218
1308 3264
1308 3571
1308 3697
1308 3812
1308 3829
1308 4137
1308 4541
1308 4568
1308 4681
1308 4709
1309 1383
1309 1403
1309 1660
1309 1936
1309 2350
1309 2454
1309 2678
1309 2737
1309 2768
1309 2859
1309 2868
1309 3238
1309 4520
1309 4734
1310 1311
1310 1493
1310 1789
1310 1798
1310 2185
1310 2883
1310 3099
1310 3187
1310 3253
1310 3641
1310 3669
1310 3959
1310 4218
1310 4454
1310 4867
1311 1425
1311 1515
1311 1566
1311 1581
1311 1630
1311 1632
1311 1816
1311 1823
1311 1952
1311 2061
1311 2088
1311 2180
1311 2277
1311 2369
1311 2419
1311 2500
1311 2693
1311 2700
1311 2731
1311 2876
1311 3057
1311 3069
1311 3077
1311 3125
1311 3404
1311 3609
1311 3780
1311 3785
1311 3801
1311 3803
1311 3869
1311 3908
1311 3970
1311 4039
1311 4069
1311 4279
1311 4350
1311 4370
1311 4426
1311 4496
1311 4506
1311 4597
1311 4736
1311 4766
1311 4812
1311 4838
1312 1533
1312 1870
1312 1885
1312 1917
1312 1920
1312 3351
1312 3726
1312 3798
1312 4157
1312 4346
1312 4968
1313 1389
1313 1395
1313 1938
1313 2074
1313 2195
1313 2422
1313 2634
1313 2659
1313 3140
1313 3158
1313 3185
1313 3390
1313 3397
1313 3542
1313 3674
1313 3803
1313 3879
1313 3970
1314 1323
1314 1447
1314 1757
1314 1945
1314 1985
1314 2087
1314 2542
1314 2821
1314 2846
1314 2881
1314 3048
1314 3122
1314 3218
1314 3337
1314 3527
1314 3564
1314 3624
1314 3854
1314 3928
1314 4089
1314 4122
1314 4207
1314 4683
1314 4863
1315 1589
1315 1742
1315 1901
1315 2013
1315 2435
1315 4358
1316 1483
1316 1643
1316 1699
1316 1771
1316 1908
1316 2249
1316 2307
1316 2628
1316 2644
1316 3297
1316 3336
1316 3405
1316 3459
1316 4142
1316 4282
1316 4436
1316 4467
1316 4790
1316 4935
1317 1388
1317 1881
1317 2625
1317 2714
1317 2723
1317 2786
1317 2878
1317 3315
1317 3852
1318 1559
1318 1784
1318 2457
1318 2644
1318 2736
1318 2749
1318 2841
1318 3040
1318 3050
1318 3185
1318 3698
1318 4066
1318 4319
1318 4578
1318 4621
1318 4633
1318 4752
1318 4900
1318 4944
1319 1656
1319 1711
1319 1937
1319 1980
1319 1997
1319 2441
1319 2572
1319 3200
1319 3620
1319 3668
1319 3751
1319 3804
1319 3947
1319 4121
1319 4400
1319 4642
1319 4662
1319 4881
1320 1553
1320 1851
1320 1942
1320 2391
1320 2525
1320 2894
1320 3069
1320 3149
1320 3451
1320 3571
1320 3709
1320 4006
1320 4049
1320 4644
1320 4649
1320 4757
1320 4905
1320 4978
1321 1373
1321 1387
1321 1400
1321 1401
1321 1466
1321 1472
1321 1710
1321 1765
1321 1772
1321 1985
1321 2019
1321 2130
1321 2168
1321 2169
1321 2218
1321 2244
1321 2306
1321 2435
1321 2563
1321 2591
1321 2652
1321 2866
1321 3039
1321 3228
1321 3271
1321 3527
1321 3693
1321 3713
1321 3797
1321 3807
1321 4061
1321 4301
1321 4349
1321 4552
1321 4749
1321 4886
1322 1337
1322 1383
1322 1516
1322 1588
1322 1682
1322 1702
1322 2003
1322 2453
1322 3011
1322 3284
1322 3455
1322 3597
1322 3853
1322 4146
1323 1334
1323 1597
1323 1729
1323 1730
1323 2272
1323 2385
1323 2451
1323 2759
1323 2796
1323 2950
1323 2972
1323 3040
1323 3064
1323 3619
1323 3881
1323 4203
1323 4305
1323 4347
1323 4724
1324 1642
1324 1659
1324 1687
1324 1702
1324 1729
1324 1984
1324 2014
1324 2036
1324 2088
1324 2093
1324 2203
1324 2436
1324 2687
1324 2706
1324 2930
1324 2940
1324 3144
1324 3328
1324 4195
1324 4515
1324 4711
1324 4729
1325 1360
1325 1579
1325 1663
1325 1667
1325 1974
1325 2126
1325 2428
1325 2434
1325 2441
1325 2472
1325 2517
1325 2644
1325 2690
1325 2718
1325 2776
1325 2798
1325 2825
1325 2830
1325 2985
1325 2990
1325 3149
1325 3193
1325 3641
1325 4005
1325 4117
1325 4118
1325 4127
1325 4265
1325 4266
1325 4348
1325 4368
1325 4458
1325 4739
1325 4911
1326 1428
1326 1458
1326 1584
1326 1899
1326 1922
1326 1936
1326 1957
1326 1989
1326 2177
1326 2675
1326 2884
1326 2925
1326 3036
1326 3169
1326 3199
1326 3271
1326 3289
1326 3443
1326 3568
1326 3575
1326 3663
1326 3718
1326 3776
1326 3799
1326 3960
1326 4024
1326 4028
1326 4070
1326 4159
1326 4177
1326 4239
1326 4389
1326 4398
1326 4406
1326 4453
1326 4587
1326 4618
1326 4666
1326 4685
1326 4815
1326 4817
1326 4984
1326 4992
1327 1669
1327 1989
1327 2078
1327 3177
1327 3415
1327 3461
1327 3517
1327 3994
1327 4068
1327 4127
1327 4164
1327 4432
1327 4669
1327 4770
1328 1350
1328 1551
1328 1668
1328 1708
1328 1724
1328 1729
1328 1745
1328 1749
1328 1820
1328 1827
1328 1955
1328 2043
1328 2100
1328 2131
1328 2519
1328 2537
1328 2589
1328 2603
1328 2605
1328 2633
1328 2662
1328 2666
1328 2792
1328 2886
1328 2954
1328 2985
1328 3065
1328 3070
1328 3132
1328 3276
1328 3293
1328 3312
1328 3317
1328 3385
1328 3471
1328 3472
1328 3497
1328 3523
1328 3526
1328 3613
1328 3828
1328 3852
1328 3940
1328 4096
1328 4237
1328 4330
1328 4347
1328 4387
1328 4430
1328 4550
1328 4611
1328 4673
1328 4767
1328 4915
1328 4951
1329 1366
1329 1597
1329 1818
1329 1851
1329 1865
1329 1866
1329 2000
1329 2246
1329 2282
1329 2440
1329 2656
1329 2791
1329 3332
1329 3478
1329 3792
1329 3919
1329 4258
1329 4403
1329 4507
1329 4655
1329 4838
1329 4844
1330 1870
1330 1930
1330 2276
1330 2322
1330 2364
1330 2385
1330 2709
1330 2719
1330 2822
1330 2861
1330 3328
1330 3719
1330 4060
1330 4093
1330 4306
1330 4392
1330 4564
1330 4792
1331 1428
1331 1890
1331 2056
1331 2213
1331 2331
1331 2364
1331 2413
1331 2971
1331 3162
1331 3387
1331 3440
1331 3648
1331 3936
1331 3937
1331 4214
1332 1587
1332 2209
1332 2230
1332 2282
1332 2454
1332 2675
1332 2950
1332 3303
1332 3322
1332 3352
1332 3791
1332 3805
1332 3853
1332 4062
1332 4141
1332 4735
1333 1397
1333 1576
1333 2125
1333 2598
1333 2804
1333 3140
1333 3342
1333 4639
1333 4649
1334 1355
1334 1563
1334 1593
1334 1747
1334 2002
1334 2048
1334 2226
1334 2644
1334 2999
1334 3021
1334 3288
1334 3432
1334 3516
1334 3628
1334 3733
1334 3842
1334 3959
1334 4213
1334 4258
1334 4857
1335 1426
1335 1770
1335 2343
1335 2453
1335 2582
1335 2675
1335 3582
1335 3585
1335 3720
1336 1369
1336 1452
1336 1506
1336 1582
1336 1783
1336 1815
1336 1851
1336 1854
1336 2043
1336 2121
1336 2135
1336 2180
1336 2292
1336 2460
1336 2539
1336 2558
1336 2585
1336 2747
1336 3141
1336 3185
1336 3264
1336 3646
1336 3653
1336 3723
1336 3863
1336 4119
1336 4129
1336 4137
1336 4144
1336 4280
1336 4410
1336 4432
1336 4499
1336 4669
1336 4970
1337 1434
1337 1511
1337 1566
1337 2256
1337 2267
1337 2563
1337 2660
1337 2848
1337 2897
1337 3127
1337 3171
1337 3754
1337 3909
1337 3936
1337 3956
1337 4167
1337 4556
1337 4681
1337 4796
1337 4853
1338 1340
1338 1520
1338 1831
1338 2338
1338 2467
1338 2493
1338 2538
1338 2554
1338 2658
1338 2754
1338 2779
1338 2874
1338 3515
1338 3685
1338 3741
1338 4034
1338 4364
1338 4445
1338 4955
1338 4987
1339 2515
1339 2723
1339 2727
1339 3504
1339 3588
1339 3599
1339 3810
1339 4455
1339 4953
1340 1341
1340 2348
1340 2460
1340 3197
1340 3744
1340 4165
1340 4450
1340 4490
1341 1704
1341 1947
1341 2240
1341 2442
1341 2446
1341 2792
1341 2902
1341 2936
1341 3069
1341 3303
1341 3363
1341 3394
1341 3459
1341 3544
1341 3619
1341 3642
1341 3652
1341 3710
1341 4140
1341 4149
1341 4306
1341 4330
1341 4564
1341 4640
1341 4913
1341 4921
1342 1397
1342 1515
1342 1646
1342 1667
1342 1765
1342 1773
1342 1870
1342 1935
1342 1981
1342 1985
1342 1991
1342 2347
1342 2391
1342 2724
1342 2862
1342 2954
1342 3293
1342 3317
1342 3362
1342 3449
1342 3466
1342 3778
1342 4018
1342 4090
1342 4118
1342 4169
1342 4174
1342 4335
1342 4434
1342 4567
1342 4578
1342 4698
1342 4771
1342 4955
1343 1648
1343 1828
1343 1948
1343 2168
1343 3309
1343 3358
1343 3398
1343 3605
1343 3737
1343 3744
1343 3860
1343 3915
1343 4003
1343 4424
1343 4486
1343 4490
1343 4651
1343 4859
1344 1935
1344 2226
1344 2544
1344 2729
1344 2800
1344 2940
1344 3498
1344 3595
1344 3623
1344 3733
1344 3871
1344 4183
1344 4227
1345 1523
1345 2181
1345 2210
1345 2309
1345 2410
1345 2867
1345 3134
1345 3351
1345 3465
1345 3972
1346 1557
1346 1933
1346 1989
1346 2138
1346 2154
1346 2368
1346 2863
1346 3595
1346 3811
1346 3813
1346 3832
1346 4290
1346 4299
1346 4473
1346 4873
1346 4889
1347 1668
1347 2081
1347 2469
1347 3142
1347 3355
1347 3370
1347 3547
1347 3674
1347 3677
1347 3802
1347 4383
1347 4598
1347 4707
1348 1845
1348 2570
1348 2618
1348 2751
1348 3160
1348 3322
1348 3417
1348 3700
1348 3967
1348 4257
1348 4834
1348 4846
1349 1352
1349 1548
1349 1968
1349 1981
1349 2604
1349 3368
1349 3821
1349 3923
1349 4068
1349 4083
1350 1454
1350 1486
1350 1646
1350 2233
1350 2585
1350 2597
1350 2709
1350 2781
1350 2786
1350 3406
1350 3677
1350 3824
1350 3863
1350 4039
1350 4211
1350 4468
1350 4550
1350 4827
1351 1500
1351 1823
1351 1848
1351 2499
1351 2676
1351 2718
1351 3135
1351 3695
1351 4049
1351 4143
1351 4439
1352 1641
1352 1936
1352 2148
1352 2538
1352 2853
1352 3832
1352 3990
1352 4002
1352 4137
1352 4987
1353 1656
1353 2131
1353 2382
1353 3339
1353 3349
1353 3506
1353 3749
1353 4080
1353 4255
1353 4746
1354 1797
1354 1908
1354 2022
1354 2633
1354 2770
1354 3734
1354 3996
1354 4078
1354 4788
1355 2258
1355 2281
1355 2759
1355 2794
1355 2896
1355 2926
1355 3812
1355 3849
1355 4467
1355 4689
1355 4863
1355 4972
1356 1358
1356 1468
1356 1993
1356 2384
1356 2728
1356 3068
1356 3322
1356 3349
1356 3507
1356 3792
1356 3989
1356 4464
1357 1380
1357 1838
1357 1905
1357 2207
1357 2539
1357 2569
1357 2668
1357 2721
1357 2776
1357 3081
1357 3379
1357 3544
1357 4014
1357 4258
1357 4432
1357 4555
1358 1495
1358 1518
1358 1649
1358 1698
1358 1711
1358 1730
1358 1865
1358 2096
1358 2328
1358 2773
1358 2883
1358 2902
1358 3069
1358 3292
1358 3322
1358 3411
1358 4145
1358 4240
1358 4487
1358 4701
1358 4711
1358 4808
1358 4961
1359 1376
1359 1526
1359 1762
1359 2138
1359 2315
1359 2452
1359 2516
1359 2798
1359 3047
1359 3253
1359 3475
1359 3507
1359 3590
1359 3611
1359 3619
1359 3640
1359 3658
1359 3747
1359 3834
1359 4203
1359 4423
1359 4493
1359 4573
1359 4625
1359 4669
1359 4747
1360 1856
1360 2528
1360 2538
1360 2949
1360 2990
1360 3504
1360 4820
1360 4862
1361 1506
1361 1537
1361 1629
1361 1711
1361 2028
1361 3373
1361 3510
1361 4301
1361 4375
1361 4632
1362 1690
1362 1887
1362 1961
1362 2108
1362 2210
1362 2427
1362 3042
1362 3576
1362 3597
1362 3617
1362 3815
1362 4479
1362 4744
1362 4992
1363 1516
1363 1561
1363 1913
1363 2570
1363 2931
1363 2950
1363 3094
1363 3326
1363 3387
1363 3517
1363 3642
1363 3868
1363 3927
1363 3978
1363 3994
1363 4293
1363 4522
1363 4671
1363 4885
1364 2450
1364 2829
1364 3189
1364 3467
1364 3512
1364 3583
1364 3616
1364 3677
1364 4263
1364 4274
1364 4705
1364 4740
1364 4786
1364 4950
1365 1411
1365 1561
1365 1620
1365 1715
1365 2240
1365 2469
1365 2550
1365 3105
1365 3518
1365 3625
1365 3830
1365 4420
1365 4653
1365 4708
1366 1384
1366 1677
1366 1802
1366 2002
1366 2187
1366 2363
1366 2502
1366 2641
1366 2720
1366 2886
1366 3168
1366 3225
1366 3308
1366 3360
1366 3366
1366 3716
1366 4359
1366 4663
1367 1623
1367 1703
1367 2044
1367 2148
1367 2270
1367 2392
1367 2629
1367 2644
1367 2772
1367 2841
1367 2861
1367 2937
1367 3039
1367 3065
1367 3165
1367 3170
1367 3313
1367 3393
1367 3526
1367 3658
1367 3719
1367 3838
1367 3885
1367 4048
1367 4163
1367 4219
1367 4237
1367 4532
1367 4604
1367 4666
1367 4716
1367 4895
1367 4896
1367 4913
1367 4994
1368 2056
1368 2893
1368 2945
1368 2987
1368 3395
1368 3562
1368 3844
1368 3927
1368 4307
1368 4504
1368 4750
1368 4755
1368 4851
1369 1506
1369 1799
1369 2717
1369 2885
1369 2911
1369 2922
1369 3214
1369 3283
1369 3476
1369 3954
1369 4076
1369 4338
1369 4616
1369 4962
1370 1402
1370 1607
1370 1781
1370 1969
1370 2170
1370 2177
1370 2251
1370 2283
1370 2669
1370 2888
1370 2928
1370 3386
1370 3907
1370 3962
1370 4477
1370 4553
1370 4676
1370 4716
1370 4916
1371 1478
1371 1692
1371 2067
1371 2119
1371 2372
1371 2633
1371 2876
1371 2996
1371 3029
1371 3039
1371 3242
1371 3331
1371 3476
1371 3490
1371 3929
1371 3939
1371 3984
1371 4189
1371 4240
1371 4314
1371 4661
1371 4896
1372 1549
1372 1911
1372 2018
1372 2035
1372 2048
1372 2138
1372 2208
1372 2427
1372 2597
1372 2737
1372 2922
1372 3124
1372 3181
1372 3380
1372 3413
1372 3843
1372 3882
1372 4152
1372 4196
1372 4496
1372 4598
1372 4781
1372 4793
1372 4870
1372 4953
1373 1388
1373 1486
1373 1599
1373 1660
1373 1714
1373 1960
1373 2533
1373 2550
1373 2619
1373 2660
1373 2692
1373 2718
1373 2740
1373 2886
1373 3037
1373 3126
1373 3898
1373 4286
1373 4309
1373 4348
1373 4357
1373 4639
1373 4915
1374 1592
1374 1599
1374 1640
1374 1927
1374 2331
1374 2491
1374 2500
1374 3033
1374 3107
1374 3314
1374 3336
1374 3423
1374 3487
1374 3532
1374 3734
1374 4067
1374 4119
1374 4445
1374 4882
1374 4984
1375 1535
1375 1571
1375 1890
1375 2235
1375 3051
1375 3394
1375 4140
1375 4621
1375 4723
1376 1494
1376 1527
1376 1804
1376 1862
1376 2454
1376 2524
1376 2632
1376 2876
1376 2880
1376 2883
1376 3752
1376 3841
1376 3949
1376 4405
1377 1491
1377 1699
1377 1874
1377 1910
1377 2112
1377 2187
1377 2238
1377 2241
1377 2252
1377 2340
1377 2382
1377 2533
1377 2864
1377 3160
1377 3262
1377 3315
1377 3367
1377 3376
1377 3568
1377 3710
1377 3729
1377 3740
1377 3976
1377 4209
1377 4237
1377 4344
1377 4461
1377 4573
1377 4694
1377 4713
1377 4724
1377 4830
1377 4895
1377 4896
1377 4925
1378 1479
1378 1485
1378 1744
1378 1981
1378 2116
1378 2198
1378 2469
1378 2626
1378 3916
1378 3974
1378 4407
1378 4599
1378 4975
1379 1712
1379 1714
1379 2150
1379 2412
1379 2543
1379 2804
1379 2927
1379 2984
1379 3048
1379 3063
1379 3072
1379 3077
1379 3086
1379 3282
1379 3358
1379 3585
1379 3661
1379 3823
1379 4035
1379 4105
1379 4241
1379 4339
1379 4393
1379 4416
1379 4612
1379 4674
1379 4709
1379 4837
1379 4929
1380 1816
1380 2071
1380 2175
1380 2456
1380 2757
1380 2886
1380 3279
1380 3335
1380 3395
1380 3461
1380 4140
1380 4559
1381 2120
1381 2168
1381 2685
1381 3033
1381 3618
1381 3817
1381 3943
1381 4334
1381 4595
1381 4908
1382 1824
1382 1896
1382 2021
1382 2024
1382 2478
1382 2486
1382 2885
1382 2945
1382 3274
1382 3318
1382 3329
1382 3356
1382 3485
1382 3571
1382 3968
1382 3982
1382 4172
1382 4312
1382 4326
1382 4332
1382 4471
1382 4523
1382 4901
1382 4902
1382 4925
1383 1666
1383 1706
1383 1773
1383 1922
1383 1970
1383 2300
1383 2429
1383 3056
1383 3730
1383 4037
1383 4088
1383 4223
1383 4357
1383 4401
1383 4717
1383 4958
1383 4962
1384 1442
1384 1734
1384 1949
1384 2108
1384 2351
1384 2659
1384 2734
1384 2791
1384 3330
1384 3845
1384 4057
1384 4887
1385 1644
1385 1666
1385 2014
1385 3127
1385 3410
1385 3716
1385 4178
1385 4264
1385 4700
1385 4928
1385 4935
1386 2258
1386 2431
1386 2700
1386 2722
1386 2940
1386 3075
1386 3535
1386 3551
1386 3836
1386 3975
1386 4272
1386 4323
1386 4515
1386 4573
1386 4576
1386 4621
1386 4785
1386 4821
1386 4973
1386 4999
1387 1458
1387 1460
1387 1923
1387 1930
1387 2482
1387 2724
1387 2754
1387 2845
1387 2869
1387 3402
1387 3494
1387 3580
1387 4136
1387 4156
1387 4266
1387 4720
1387 4859
1387 4911
1388 1694
1388 1850
1388 1894
1388 2127
1388 2167
1388 2272
1388 2310
1388 2331
1388 2982
1388 3173
1388 3485
1388 3819
1388 3946
1388 4002
1388 4013
1388 4145
1388 4234
1388 4450
1388 4684
1388 4735
1388 4953
1389 1461
1389 1496
1389 1500
1389 1870
1389 2388
1389 2473
1389 3021
1389 3195
1389 3532
1389 3586
1389 3736
1389 4128
1389 4602
1389 4779
1389 4872
1389 4932
1390 1394
1390 1594
1390 1746
1390 2057
1390 2635
1390 2704
1390 2964
1390 3395
1390 3788
1390 4068
1390 4119
1390 4193
1390 4501
1390 4511
1390 4663
1390 4870
1391 1453
1391 1514
1391 2359
1391 2937
1391 2970
1391 3809
1391 4189
1391 4364
1391 4654
1391 4761
1392 1959
1392 2048
1392 2312
1392 2441
1392 2558
1392 2849
1392 3322
1392 3336
1392 3439
1392 3595
1392 3609
1392 3729
1392 3837
1392 3963
1392 4687
1393 2057
1393 2272
1393 2312
1393 2349
1393 2616
1393 2763
1393 3553
1393 3571
1393 3853
1393 4042
1393 4437
1393 4706
1394 1747
1394 1750
1394 1944
1394 2530
1394 2561
1394 2604
1394 2778
1394 3178
1394 3313
1394 3380
1394 3498
1394 3748
1394 3793
1394 4046
1394 4052
1394 4129
1394 4737
1394 4817
1395 1458
1395 2159
1395 2246
1395 2312
1395 2739
1395 2870
1395 3144
1395 3542
1395 3827
1395 3953
1395 3989
1395 4121
1395 4523
1396 1464
1396 1626
1396 1821
1396 1884
1396 2364
1396 2713
1396 2718
1396 2806
1396 2843
1396 2993
1396 3478
1396 4046
1396 4064
1396 4514
1397 1403
1397 1486
1397 1528
1397 1811
1397 1858
1397 1914
1397 2028
1397 2069
1397 2277
1397 2287
1397 2323
1397 2449
1397 2620
1397 2667
1397 2700
1397 2728
1397 2866
1397 3405
1397 3610
1397 3614
1397 3908
1397 3989
1397 4122
1397 4130
1397 4142
1397 4178
1397 4234
1397 4237
1397 4256
1397 4315
1397 4318
1397 4543
1397 4691
1397 4716
1397 4868
1397 4992
1398 1656
1398 1879
1398 1933
1398 1947
1398 2019
1398 2343
1398 2468
1398 2499
1398 2620
1398 2671
1398 2696
1398 2802
1398 2840
1398 3057
1398 3107
1398 3169
1398 3222
1398 3248
1398 3327
1398 3431
1398 3605
1398 3759
1398 3871
1398 4098
1398 4247
1398 4288
1398 4303
1398 4497
1398 4675
1398 4733
1398 4837
1399 1444
1399 1762
1399 1774
1399 1984
1399 2203
1399 2650
1399 2952
1399 3155
1399 3264
1399 3361
1399 4417
1399 4651
1400 1507
1400 1509
1400 1729
1400 2238
1400 2248
1400 2311
1400 2722
1400 3588
1400 4039
1400 4122
1400 4396
1400 4789
1400 4846
1401 1512
1401 1663
1401 2091
1401 2599
1401 2664
1401 3956
1401 4298
1401 4424
1401 4594
1401 4685
1402 1497
1402 2057
1402 2164
1402 2551
1402 2610
1402 2655
1402 3024
1402 3244
1402 3246
1402 3421
1402 3706
1402 3744
1402 3867
1402 3951
1402 4004
1402 4213
1402 4573
1402 4835
1402 4882
1403 1484
1403 1517
1403 1535
1403 1608
1403 1644
1403 1682
1403 1947
1403 2018
1403 2020
1403 2062
1403 2108
1403 2115
1403 2200
1403 2272
1403 2350
1403 2445
1403 2494
1403 2576
1403 2664
1403 2674
1403 2713
1403 2837
1403 2874
1403 2918
1403 3014
1403 3112
1403 3147
1403 3243
1403 3256
1403 3257
1403 3273
1403 3328
1403 3349
1403 3363
1403 3377
1403 3380
1403 3429
1403 3482
1403 3531
1403 3534
1403 3874
1403 3889
1403 3952
1403 4141
1403 4190
1403 4391
1403 4657
1403 4708
1403 4842
1403 4909
1403 4971
1403 4985
1404 1847
1404 2018
1404 2152
1404 2250
1404 2314
1404 2499
1404 2654
1404 2719
1404 2821
1404 2915
1404 3071
1404 3353
1404 3461
1404 3582
1404 4528
1404 4584
1404 4830
1404 4874
1404 4906
1404 4974
1405 1744
1405 2307
1405 2424
1405 2842
1405 2856
1405 3066
1405 3435
1405 3960
1405 4084
1405 4143
1405 4226
1405 4514
1405 4573
1405 4612
1405 4830
1406 1568
1406 1978
1406 2044
1406 2095
1406 2753
1406 3000
1406 3317
1406 3621
1406 4034
1406 4149
1406 4206
1406 4870
1407 1908
1407 2062
1407 2086
1407 2219
1407 2644
1407 2690
1407 3183
1407 3377
1407 3459
1407 3644
1407 3907
1407 3979
1407 4639
1407 4649
1407 4936
1408 1429
1408 1606
1408 1609
1408 1679
1408 2223
1408 2539
1408 2932
1408 2940
1408 2980
1408 2988
1408 3805
1408 4068
1408 4114
1408 4408
1408 4459
1408 4601
1409 1439
1409 1714
1409 2344
1409 2876
1409 3128
1409 3369
1409 4008
1409 4058
1409 4103
1409 4270
1409 4306
1409 4555
1409 4660
1409 4733
1409 4769
1409 4792
1410 1818
1410 2063
1410 2183
1410 2477
1410 2518
1410 2566
1410 2693
1410 2757
1410 3034
1410 3449
1410 3450
1410 3490
1410 3744
1410 3969
1410 4106
1410 4224
1410 4357
1410 4377
1410 4700
1410 4740
1410 4911
1411 1421
1411 2346
1411 3540
1411 4563
1411 4931
1412 1624
1412 1896
1412 2140
1412 2418
1412 2551
1412 2632
1412 3245
1412 3607
1412 4031
1412 4080
1412 4296
1412 4346
1412 4410
1412 4670
1413 1827
1413 1944
1413 1958
1413 2031
1413 2272
1413 2343
1413 2533
1413 3587
1413 3593
1413 3750
1413 3941
1413 4213
1413 4539
1413 4687
1413 4849
1414 2018
1414 2149
1414 2157
1414 2256
1414 2670
1414 2842
1414 2881
1414 3059
1414 3225
1414 3513
1414 3683
1414 3822
1414 4402
1415 1559
1415 1624
1415 1702
1415 2044
1415 2604
1415 3326
1415 3464
1415 3736
1415 3830
1415 3832
1415 3848
1415 3911
1415 4634
1415 4658
1415 4894
1416 1751
1416 1846
1416 2023
1416 2112
1416 2588
1416 2731
1416 2859
1416 2902
1416 3351
1416 3491
1416 3697
1416 3769
1416 3973
1416 4021
1416 4126
1416 4281
1416 4583
1416 4592
1416 4670
1416 4730
1416 4826
1416 4979
1417 1444
1417 1797
1417 2139
1417 2449
1417 2488
1417 2872
1417 3034
1417 3073
1417 3238
1417 4185
1417 4526
1417 4533
1417 4565
1417 4849
1417 4911
1417 4959
1418 1476
1418 1662
1418 2273
1418 3095
1418 3727
1418 3917
1418 3965
1418 4530
1418 4585
1418 4670
1418 4765
1418 4777
1419 2015
1419 2314
1419 2724
1419 3457
1419 3510
1419 3996
1419 4271
1419 4458
1419 4651
1419 4682
1419 4830
1419 4916
1420 1553
1420 1719
1420 1852
1420 1945
1420 2174
1420 2399
1420 3253
1420 3396
1420 3723
1420 3827
1420 4062
1420 4723
1420 4816
1420 4962
1420 4985
1421 1549
1421 1809
1421 1850
1421 2164
1421 2184
1421 2365
1421 3076
1421 3203
1421 3700
1421 3781
1421 3954
1421 4213
1421 4400
1421 4435
1421 4629
1421 4723
1421 4891
1421 4937
1422 1432
1422 1460
1422 1507
1422 1587
1422 2148
1422 2232
1422 2336
1422 2609
1422 2802
1422 3385
1422 3697
1422 4353
1422 4636
1422 4760
1422 4819
1422 4996
1423 1905
1423 1931
1423 1954
1423 2161
1423 2495
1423 2871
1423 3007
1423 3039
1423 3293
1423 3405
1423 3498
1423 3598
1423 4959
1424 1690
1424 1746
1424 3373
1424 3703
1424 3994
1424 4020
1424 4322
1424 4347
1424 4806
1425 1618
1425 1761
1425 2287
1425 2301
1425 3057
1425 3059
1425 3796
1425 3816
1425 3853
1425 3945
1425 3952
1425 4032
1425 4038
1425 4350
1425 4431
1425 4735
1426 2177
1426 2404
1426 2433
1426 3116
1426 3244
1426 3306
1426 3449
1426 3556
1426 3725
1426 3981
1426 4347
1426 4634
1426 4734
1426 4760
1426 4763
1426 4913
1427 1990
1427 2036
1427 2424
1427 2773
1427 2986
1427 3162
1427 3167
1427 3771
1427 3791
1427 4718
1428 1557
1428 1612
1428 1627
1428 1753
1428 1930
1428 2063
1428 2177
1428 2759
1428 2935
1428 3041
1428 3314
1428 3368
1428 3479
1428 3702
1428 3787
1428 3917
1428 4077
1428 4120
1428 4854
1429 1494
1429 1696
1429 1712
1429 1769
1429 1990
1429 2250
1429 2357
1429 2492
1429 2530
1429 2564
1429 2926
1429 2998
1429 3456
1429 3475
1429 3559
1429 3786
1429 3915
1429 4076
1429 4108
1429 4135
1429 4253
1429 4529
1429 4725
1430 1657
1430 1726
1430 1871
1430 1973
1430 2035
1430 2088
1430 2436
1430 2469
1430 2599
1430 2861
1430 3645
1430 3682
1430 3765
1430 3841
1430 3970
1430 4044
1430 4228
1430 4451
1430 4545
1430 4588
1430 4597
1430 4889
1431 1642
1431 1812
1431 1874
1431 1935
1431 1951
1431 2038
1431 2056
1431 2404
1431 2517
1431 2547
1431 2813
1431 3072
1431 3170
1431 3230
1431 3284
1431 3322
1431 3338
1431 3418
1431 3579
1431 4125
1431 4203
1431 4282
1431 4653
1432 1499
1432 1895
1432 2022
1432 2031
1432 2208
1432 2312
1432 2605
1432 2936
1432 3058
1432 3080
1432 3144
1432 3488
1432 3700
1432 3763
1432 3868
1432 3873
1432 4306
1432 4308
1432 4691
1432 4760
1432 4857
1433 1504
1433 1550
1433 1870
1433 1970
1433 2148
1433 2455
1433 2565
1433 2844
1433 2859
1433 2876
1433 2947
1433 3545
1433 3964
1433 4126
1433 4129
1433 4256
1433 4768
1433 4967
1434 1527
1434 2100
1434 2361
1434 2364
1434 2377
1434 2676
1434 2678
1434 3016
1434 3670
1434 4127
1434 4510
1434 4779
1434 4846
1434 4911
1435 1800
1435 2094
1435 2327
1435 2390
1435 2541
1435 2942
1435 2994
1435 3115
1435 4146
1435 4312
1435 4816
1435 4865
1436 1541
1436 1738
1436 2029
1436 2558
1436 2757
1436 2875
1436 3251
1436 3356
1436 3483
1436 3555
1436 3566
1436 3738
1436 4074
1436 4369
1436 4925
1436 4998
1437 1474
1437 1739
1437 1864
1437 2065
1437 2142
1437 2275
1437 2762
1437 2974
1437 3191
1437 3574
1437 3793
1437 4090
1437 4263
1437 4446
1437 4456
1437 4814
1437 4958
1438 1632
1438 1809
1438 1820
1438 2257
1438 2419
1438 2738
1438 2923
1438 3246
1438 3312
1438 3354
1438 3647
1438 3807
1438 4915
1438 4938
1439 1618
1439 1685
1439 1821
1439 1842
1439 1861
1439 2024
1439 2081
1439 2185
1439 2248
1439 2249
1439 2289
1439 2479
1439 2663
1439 2762
1439 2847
1439 3167
1439 3521
1439 3617
1439 3702
1439 3948
1439 4032
1439 4231
1439 4235
1439 4319
1439 4390
1439 4464
1439 4475
1439 4476
1439 4549
1439 4567
1439 4589
1439 4623
1439 4670
1439 4672
1439 4780
1439 4841
1439 4849
1439 4935
1439 4968
1440 1592
1440 1821
1440 2059
1440 2066
1440 2133
1440 2312
1440 2343
1440 2440
1440 3439
1440 3884
1441 2259
1441 2793
1441 2888
1441 3240
1441 3320
1441 3332
1441 3578
1441 3909
1441 4471
1441 4479
1441 4541
1441 4729
1441 4734
1441 4785
1442 1749
1442 1925
1442 2079
1442 2115
1442 2203
1442 2234
1442 2242
1442 2652
1442 2876
1442 2880
1442 2900
1442 3110
1442 3126
1442 3355
1442 3536
1442 3615
1442 3709
1442 3857
1442 3872
1442 3874
1442 3959
1442 4192
1442 4273
1442 4560
1443 3066
1443 3305
1443 3684
1443 3775
1443 3839
1443 3930
1443 3999
1443 4018
1443 4225
1444 1533
1444 1658
1444 1876
1444 2636
1444 2999
1444 3098
1444 3581
1444 3595
1444 3787
1444 3882
1444 4426
1444 4621
1444 4687
1444 4771
1444 4963
1445 1617
1445 1877
1445 2120
1445 2283
1445 2335
1445 2433
1445 2462
1445 2633
1445 2641
1445 2908
1445 2947
1445 3029
1445 3621
1445 4137
1445 4191
1445 4299
1445 4404
1445 4457
1445 4687
1445 4742
1445 4764
1445 4889
1446 2028
1446 2331
1446 2384
1446 3193
1446 3419
1446 3810
1446 4113
1446 4631
1447 1727
1447 2049
1447 2308
1447 2347
1447 2596
1447 2757
1447 3328
1447 3749
1447 3886
1447 4147
1448 1580
1448 1638
1448 1752
1448 1913
1448 2430
1448 2479
1448 3147
1448 3231
1448 3255
1448 3529
1448 3620
1448 3846
1448 4009
1448 4210
1448 4367
1448 4499
1448 4652
1448 4839
1448 4843
1449 1573
1449 2028
1449 2805
1449 3853
1449 4122
1449 4380
1449 4567
1449 4577
1449 4799
1450 1500
1450 1549
1450 1620
1450 1763
1450 1797
1450 2190
1450 2250
1450 2407
1450 2579
1450 3133
1450 3285
1450 3373
1450 3757
1450 4015
1450 4270
1450 4332
1450 4555
1450 4663
1450 4859
1451 1512
1451 1513
1451 1596
1451 1644
1451 1701
1451 1824
1451 1926
1451 2004
1451 2132
1451 2153
1451 2614
1451 2745
1451 3471
1451 3581
1451 3597
1451 4058
1451 4395
1451 4496
1451 4617
1451 4655
1451 4811
1451 4821
1451 4925
1452 1483
1452 2215
1452 2394
1452 2420
1452 2525
1452 3482
1452 4691
1453 1456
1453 1658
1453 1727
1453 1773
1453 1778
1453 1786
1453 1897
1453 1918
1453 1937
1453 2100
1453 2118
1453 2180
1453 2244
1453 2256
1453 2257
1453 2283
1453 2473
1453 2590
1453 2935
1453 2987
1453 3003
1453 3146
1453 3265
1453 3717
1453 3726
1453 3729
1453 3789
1453 3807
1453 3853
1453 3870
1453 4163
1453 4221
1453 4343
1453 4363
1453 4544
1453 4576
1453 4638
1453 4651
1453 4678
1453 4825
1453 4832
1453 4862
1453 4869
1454 1490
1454 1533
1454 1796
1454 2517
1454 2724
1454 3167
1454 3386
1454 3581
1454 3671
1454 3705
1454 3761
1454 3809
1454 3871
1454 4810
1454 4934
1455 2013
1455 2104
1455 2137
1455 2528
1455 2650
1455 2931
1455 2941
1455 3070
1455 3325
1455 3427
1455 3551
1455 3929
1455 4040
1455 4302
1455 4388
1455 4416
1455 4437
1455 4448
1455 4758
1456 1608
1456 1855
1456 2209
1456 2302
1456 2888
1456 3170
1456 3227
1456 3345
1456 4069
1456 4834
1457 1615
1457 1980
1457 2342
1457 2484
1457 2610
1457 2813
1457 2865
1457 2968
1457 3735
1457 3944
1457 4231
1457 4321
1457 4594
1457 4621
1458 1778
1458 1796
1458 1810
1458 2059
1458 2297
1458 2534
1458 2537
1458 2616
1458 2654
1458 2926
1458 2977
1458 2986
1458 3092
1458 3103
1458 3182
1458 3248
1458 3298
1458 3391
1458 4006
1458 4039
1458 4060
1458 4073
1458 4119
1458 4176
1458 4313
1458 4665
1458 4763
1458 4816
1458 4970
1459 1589
1459 1711
1459 1767
1459 2058
1459 2258
1459 2543
1459 2548
1459 2567
1459 2687
1459 2720
1459 2729
1459 2786
1459 2944
1459 3357
1459 3429
1459 3595
1459 3655
1459 4037
1459 4099
1459 4133
1459 4144
1459 4240
1459 4496
1459 4593
1460 1541
1460 1585
1460 2087
1460 2655
1460 2856
1460 3687
1460 3743
1460 3769
1460 3846
1460 3927
1460 4118
1460 4452
1460 4848
1461 1816
1461 2335
1461 2723
1461 2725
1461 3028
1461 3283
1461 3380
1461 3437
1461 3491
1461 3581
1461 3855
1461 4058
1461 4305
1461 4801
1461 4823
1462 1685
1462 1949
1462 2384
1462 2385
1462 2486
1462 2550
1462 2763
1462 2950
1462 3887
1462 4240
1463 1507
1463 1698
1463 2061
1463 2556
1463 3014
1463 3267
1463 4515
1463 4639
1463 4786
1464 1750
1464 1901
1464 2099
1464 2295
1464 2655
1464 2882
1464 3169
1464 3273
1464 3701
1464 3703
1464 3773
1464 3789
1464 4185
1464 4578
1464 4762
1464 4790
1464 4904
1465 1593
1465 1624
1465 1639
1465 1642
1465 1662
1465 1780
1465 1966
1465 1990
1465 2084
1465 2199
1465 2305
1465 2369
1465 2468
1465 2658
1465 2668
1465 2730
1465 3292
1465 3294
1465 3298
1465 3325
1465 3375
1465 3400
1465 3625
1465 3661
1465 3761
1465 3810
1465 3869
1465 4049
1465 4062
1465 4073
1465 4253
1465 4267
1465 4394
1465 4488
1465 4762
1465 4806
1465 4895
1465 4994
1466 1476
1466 1533
1466 2201
1466 2240
1466 2305
1466 2947
1466 3075
1466 3130
1466 3744
1466 3887
1466 4196
1466 4678
1467 1687
1467 1706
1467 1733
1467 1899
1467 2156
1467 2277
1467 2283
1467 2840
1467 3668
1467 4102
1467 4295
1467 4724
1467 4785
1467 4891
1467 4916
1467 4962
1468 1591
1468 1604
1468 1935
1468 2047
1468 2266
1468 2484
1468 2544
1468 2695
1468 2887
1468 2901
1468 3178
1468 3397
1468 3766
1468 3916
1468 4387
1468 4612
1468 4630
1468 4758
1469 1599
1469 2188
1469 2219
1469 2277
1469 2653
1469 2700
1469 2861
1469 3323
1469 3671
1469 3713
1469 3745
1469 3781
1469 4228
1469 4262
1469 4552
1469 4741
1469 4856
1469 4908
1469 4919
1470 1542
1470 1543
1470 1716
1470 1731
1470 2635
1470 2712
1470 2846
1470 2886
1470 2912
1470 3149
1470 3839
1470 3915
1470 4024
1470 4034
1470 4475
1470 4547
1471 1495
1471 1604
1471 1632
1471 1784
1471 3725
1471 3753
1472 1637
1472 2035
1472 2448
1472 2584
1472 2620
1472 2732
1472 2783
1472 2839
1472 2975
1472 3289
1472 3436
1472 3440
1472 3486
1472 3517
1472 3705
1472 3944
1472 4173
1472 4249
1472 4748
1472 4948
1473 1514
1473 2252
1473 2694
1473 2764
1473 4510
1473 4714
1473 4896
1474 1951
1474 2019
1474 2498
1474 2763
1474 2856
1474 3505
1474 3810
1474 4440
1474 4708
1474 4889
1475 1699
1475 3916
1475 4228
1475 4672
1475 4758
1475 4780
1476 1735
1476 2107
1476 2207
1476 2447
1476 2813
1476 2839
1476 3010
1476 3193
1476 3562
1476 3758
1476 4769
1477 1522
1477 1532
1477 1571
1477 2599
1477 3132
1477 3391
1477 3749
1477 4477
1478 2019
1478 2116
1478 2576
1478 2712
1478 2862
1478 2871
1478 2925
1478 3098
1478 3382
1478 3449
1478 3667
1478 3783
1478 3824
1478 4013
1478 4242
1478 4895
1479 1689
1479 1802
1479 2083
1479 2207
1479 2482
1479 2675
1479 2713
1479 2909
1479 3156
1479 3232
1479 3474
1479 3674
1479 4093
1479 4182
1479 4384
1479 4626
1479 4633
1479 4657
1479 4907
1479 4908
1480 1512
1480 2554
1480 2967
1480 2970
1480 3034
1480 3039
1480 3327
1480 3369
1480 3711
1480 4424
1480 4762
1481 2335
1481 2454
1481 2816
1481 3080
1481 3302
1481 3509
1481 3661
1481 4400
1481 4563
1482 1584
1482 1781
1482 1929
1482 2065
1482 2650
1482 2710
1482 2829
1482 2847
1482 2956
1482 3658
1482 3985
1482 4096
1482 4721
1483 1601
1483 1636
1483 1729
1483 1773
1483 1818
1483 1826
1483 1858
1483 1959
1483 2234
1483 2452
1483 2587
1483 2656
1483 2940
1483 3656
1483 3936
1483 4023
1483 4168
1483 4335
1483 4520
1483 4595
1483 4726
1484 1550
1484 2155
1484 2228
1484 3376
1484 3390
1484 3467
1484 4769
1485 2028
1485 2175
1485 2467
1485 2562
1485 2584
1485 2630
1485 3135
1485 3432
1485 3497
1485 3615
1485 4034
1485 4135
1485 4241
1485 4243
1485 4391
1485 4659
1485 4871
1485 4872
1485 4880
1485 4982
1486 1568
1486 1621
1486 1857
1486 1949
1486 1990
1486 2213
1486 2607
1486 2968
1486 3151
1486 3230
1486 3253
1486 3471
1486 3995
1486 4047
1486 4310
1486 4400
1486 4557
1486 4660
1486 4726
1487 1704
1487 1724
1487 1883
1487 2094
1487 2355
1487 2578
1487 2783
1487 2795
1487 2818
1487 3118
1487 3154
1487 3372
1487 3533
1487 3630
1487 3717
1487 3990
1487 4080
1487 4485
1487 4589
1487 4869
1488 1500
1488 1899
1488 2312
1488 2526
1488 2920
1488 3233
1488 3334
1488 3369
1488 3517
1488 4184
1488 4217
1488 4629
1488 4717
1489 1502
1489 1620
1489 1712
1489 2306
1489 2394
1489 2455
1489 2592
1489 2610
1489 2644
1489 2743
1489 2835
1489 2846
1489 3239
1489 3551
1489 3607
1489 3608
1489 3920
1489 4341
1489 4746
1489 4926
1490 1503
1490 1554
1490 1743
1490 1776
1490 2010
1490 2055
1490 2064
1490 2103
1490 2330
1490 2452
1490 2648
1490 2759
1490 2903
1490 3024
1490 3156
1490 3193
1490 3553
1490 3693
1490 3789
1490 3843
1490 4155
1490 4169
1490 4196
1490 4217
1490 4271
1490 4317
1490 4397
1490 4511
1490 4525
1490 4752
1491 1555
1491 1556
1491 1918
1491 2153
1491 2719
1491 3568
1491 3570
1491 3631
1491 3832
1491 3984
1491 4454
1491 4742
1491 4762
1492 1495
1492 1511
1492 1669
1492 1792
1492 1794
1492 2029
1492 2246
1492 2666
1492 2954
1492 3305
1492 3442
1492 3475
1492 3476
1492 3887
1492 4085
1492 4434
1492 4737
1492 4841
1493 1516
1493 1705
1493 2188
1493 2256
1493 2280
1493 2474
1493 2751
1493 3088
1493 3216
1493 3221
1493 3582
1493 3599
1493 4057
1493 4264
1493 4321
1493 4941
1494 1536
1494 2178
1494 2439
1494 2612
1494 2977
1494 3429
1494 3736
1494 4055
1494 4128
1494 4420
1494 4914
1495 1565
1495 1604
1495 2006
1495 2040
1495 2081
1495 2307
1495 2317
1495 2560
1495 2681
1495 2816
1495 3161
1495 3664
1495 3715
1495 3887
1495 3953
1495 4071
1495 4302
1495 4455
1495 4510
1495 4827
1495 4931
1495 4940
1495 4997
1496 1662
1496 1754
1496 1920
1496 2118
1496 3333
1496 3748
1496 3765
1496 4258
1496 4490
1497 1744
1497 1929
1497 2252
1497 3048
1497 3158
1497 3262
1497 3335
1497 3655
1498 1833
1498 1960
1498 1981
1498 2438
1498 2504
1498 4294
1499 1534
1499 1893
1499 2039
1499 2261
1499 2320
1499 2675
1499 2707
1499 2729
1499 2901
1499 3180
1499 3448
1499 3785
1499 4068
1499 4487
1499 4913
1500 1607
1500 1672
1500 1701
1500 1710
1500 1806
1500 1902
1500 1974
1500 2063
1500 2164
1500 2320
1500 2565
1500 2655
1500 2715
1500 3366
1500 3385
1500 3494
1500 3654
1500 3739
1500 3925
1500 3971
1500 4103
1500 4158
1500 4292
1500 4390
1500 4448
1500 4452
1500 4571
1500 4616
1500 4641
1500 4645
1500 4774
1500 4797
1500 4959
1500 4999
1501 1727
1501 2217
1501 2361
1501 3104
1501 3131
1501 3614
1501 4324
1501 4541
1501 4607
1501 4645
1501 4851
1501 4951
1502 1590
1502 1810
1502 1822
1502 2205
1502 2255
1502 2364
1502 2430
1502 2726
1502 2791
1502 2792
1502 3078
1502 3098
1502 3180
1502 3250
1502 3327
1502 3694
1502 3866
1502 3970
1502 4228
1502 4524
1502 4528
1502 4600
1502 4704
1502 4721
1502 4957
1503 1712
1503 1727
1503 1910
1503 2269
1503 2830
1503 2885
1503 2928
1503 3641
1503 4130
1503 4401
1503 4523
1503 4577
1503 4963
1503 4992
1504 1906
1504 2294
1504 2316
1504 2976
1504 3132
1504 3859
1504 3920
1504 4122
1504 4489
1504 4653
1504 4670
1504 4901
1505 1709
1505 1780
1505 2132
1505 2496
1505 2747
1505 3303
1505 3398
1505 3609
1505 4077
1505 4183
1505 4201
1506 1581
1506 1685
1506 1824
1506 1880
1506 1884
1506 2037
1506 2079
1506 2102
1506 2107
1506 2130
1506 2597
1506 2926
1506 3355
1506 3372
1506 3526
1506 3530
1506 3615
1506 3643
1506 3674
1506 3765
1506 3791
1506 3939
1506 3961
1506 4004
1506 4106
1506 4465
1506 4490
1506 4559
1506 4677
1506 4788
1506 4815
1506 4926
1507 1557
1507 1586
1507 2358
1507 4037
1507 4196
1507 4878
1508 1587
1508 1632
1508 2044
1508 2068
1508 2384
1508 2452
1508 2574
1508 3335
1508 3731
1508 3900
1509 1916
1509 2168
1509 2225
1509 2549
1509 2766
1509 3393
1509 3444
1509 3631
1509 3769
1510 1641
1510 1851
1510 1990
1510 2018
1510 2367
1510 3314
1510 3590
1510 3661
1510 4595
1511 1519
1511 1543
1511 1554
1511 1710
1511 1720
1511 2153
1511 2261
1511 2326
1511 2679
1511 2897
1511 2924
1511 3167
1511 3198
1511 3207
1511 3351
1511 3457
1511 3508
1511 3576
1511 3677
1511 3775
1511 4015
1511 4017
1511 4061
1511 4068
1511 4180
1511 4253
1511 4372
1511 4390
1511 4636
1511 4699
1512 1552
1512 1746
1512 1747
1512 1774
1512 1874
1512 1882
1512 2143
1512 2209
1512 2328
1512 2485
1512 2786
1512 2970
1512 3006
1512 3065
1512 3068
1512 3083
1512 3243
1512 3347
1512 3362
1512 3420
1512 3562
1512 3876
1512 3879
1512 3932
1512 4080
1512 4308
1512 4426
1512 4637
1512 4832
1512 4849
1512 4911
1512 4983
1513 1648
1513 2026
1513 2144
1513 2894
1513 3100
1513 3587
1513 3591
1513 3660
1513 3662
1513 3994
1513 4070
1513 4693
1513 4781
1513 4848
1514 1898
1514 2057
1514 2372
1514 2403
1514 2453
1514 2533
1514 2663
1514 2715
1514 3168
1514 3270
1514 3391
1514 3423
1514 3699
1514 3809
1514 4101
1514 4152
1514 4828
1514 4852
1514 4898
1515 2140
1515 2267
1515 2724
1515 3106
1515 3467
1515 4164
1515 4228
1515 4464
1515 4909
1516 1538
1516 1590
1516 1665
1516 1698
1516 1711
1516 1798
1516 1832
1516 1853
1516 2391
1516 2395
1516 2533
1516 2536
1516 2553
1516 2829
1516 2886
1516 2899
1516 3158
1516 3287
1516 3424
1516 3511
1516 3559
1516 3590
1516 3701
1516 3788
1516 3793
1516 3815
1516 4321
1516 4496
1516 4682
1516 4720
1516 4780
1516 4784
1516 4835
1516 4883
1517 2469
1517 2868
1517 3001
1517 3552
1517 4004
1517 4168
1517 4182
1517 4651
1517 4973
1518 1818
1518 2150
1518 2300
1518 2432
1518 2733
1518 3007
1518 3101
1518 3164
1518 3786
1518 4188
1518 4323
1518 4469
1519 2009
1519 2312
1519 2664
1519 2786
1519 2793
1519 3092
1519 3314
1519 4206
1519 4212
1519 4225
1519 4928
1520 1609
1520 1827
1520 1877
1520 1957
1520 2279
1520 2464
1520 2479
1520 2613
1520 2695
1520 2740
1520 2791
1520 2896
1520 3042
1520 3070
1520 3348
1520 3599
1520 3649
1520 3742
1520 3856
1520 4262
1520 4863
1521 1983
1521 2381
1521 2396
1521 2675
1521 2712
1521 3066
1521 3266
1521 3589
1521 3627
1521 3798
1521 3831
1521 4111
1521 4160
1521 4332
1521 4471
1521 4639
1521 4760
1522 1542
1522 1615
1522 1906
1522 1935
1522 1972
1522 1989
1522 2028
1522 2557
1522 2943
1522 3030
1522 3315
1522 3432
1522 3482
1522 3766
1522 3841
1522 3973
1522 4084
1522 4399
1522 4405
1522 4740
1522 4771
1523 1731
1523 1746
1523 1895
1523 1940
1523 2079
1523 2280
1523 2435
1523 2452
1523 2488
1523 2527
1523 2652
1523 2687
1523 2773
1523 3346
1523 3407
1523 3425
1523 3513
1523 3626
1523 4097
1523 4131
1523 4345
1523 4398
1523 4474
1524 1916
1524 2297
1524 2408
1524 2541
1524 2543
1524 3079
1524 3480
1524 3755
1524 3874
1524 4416
1525 1676
1525 1854
1525 1894
1525 2678
1525 3284
1525 3355
1525 3482
1525 3524
1525 4015
1525 4359
1525 4484
1525 4609
1525 4852
1526 1547
1526 1715
1526 1878
1526 2388
1526 2793
1526 2945
1526 2949
1526 2971
1526 3011
1526 3157
1526 3240
1526 3538
1527 2010
1527 2192
1527 2663
1527 2947
1527 3038
1527 3125
1527 3384
1527 3455
1527 3692
1527 4755
1528 1582
1528 2081
1528 2219
1528 2272
1528 2551
1528 2874
1528 3121
1528 3400
1528 3498
1528 3590
1528 3637
1528 4196
1528 4901
1528 4903
1529 1600
1529 1628
1529 2077
1529 2292
1529 2477
1529 2492
1529 2973
1529 3187
1529 3191
1529 3515
1529 3531
1529 3710
1529 3728
1529 4583
1529 4789
1530 1552
1530 1673
1530 2132
1530 2134
1530 2319
1530 2610
1530 2646
1530 2838
1530 2883
1530 2944
1530 3141
1530 3207
1530 3342
1530 3367
1530 3412
1530 3413
1530 3460
1530 3584
1530 3612
1530 3759
1530 3849
1530 3904
1530 4142
1530 4196
1530 4399
1530 4523
1530 4799
1530 4920
1531 2432
1531 2468
1531 2717
1531 2793
1531 3828
1531 4552
1531 4644
1531 4655
1531 4661
1532 1613
1532 1624
1532 1691
1532 1870
1532 1988
1532 2089
1532 2190
1532 2264
1532 2433
1532 2749
1532 2850
1532 2852
1532 3317
1532 3366
1532 3380
1532 3386
1532 3395
1532 3429
1532 3437
1532 3554
1532 3774
1532 4035
1532 4104
1532 4108
1532 4305
1532 4350
1532 4507
1532 4670
1532 4715
1532 4772
1532 4856
1532 4954
1532 4964
1533 1622
1533 1669
1533 1764
1533 1773
1533 1819
1533 1916
1533 2140
1533 2292
1533 2305
1533 2389
1533 2407
1533 2440
1533 2476
1533 2532
1533 2534
1533 2580
1533 2890
1533 2926
1533 2942
1533 2970
1533 3063
1533 3087
1533 3163
1533 3207
1533 3214
1533 3282
1533 3305
1533 3307
1533 3338
1533 3410
1533 3479
1533 3486
1533 3540
1533 3589
1533 3616
1533 3629
1533 3653
1533 3665
1533 3764
1533 3778
1533 3883
1533 3922
1533 4000
1533 4165
1533 4287
1533 4393
1533 4461
1533 4520
1533 4529
1533 4632
1533 4865
1533 4874
1534 2257
1534 2304
1534 2421
1534 2423
1534 2819
1534 3233
1534 3347
1534 3549
1534 3740
1534 4004
1535 1979
1535 2382
1535 2521
1535 2638
1535 2838
1535 3505
1535 3700
1535 3761
1535 4626
1535 4916
1536 1595
1536 1699
1536 1735
1536 1758
1536 2062
1536 2201
1536 2335
1536 2397
1536 2830
1536 3034
1536 3155
1536 3439
1536 3456
1536 3645
1536 3874
1536 4040
1536 4173
1536 4284
1537 1681
1537 1719
1537 1889
1537 2170
1537 2255
1537 2301
1537 2345
1537 2364
1537 2768
1537 2859
1537 3031
1537 3037
1537 3216
1537 3246
1537 3329
1537 3716
1537 3785
1537 4523
1537 4537
1537 4609
1537 4611
1537 4615
1537 4870
1538 1649
1538 1657
1538 1823
1538 2117
1538 2332
1538 2337
1538 2441
1538 2542
1538 2962
1538 3322
1538 3493
1538 3685
1538 3765
1538 4128
1538 4459
1538 4653
1538 4856
1539 1649
1539 1694
1539 1845
1539 1995
1539 2499
1539 2713
1539 2816
1539 2864
1539 2958
1539 3027
1539 3643
1539 3688
1539 3741
1539 3982
1539 4639
1539 4649
1539 4722
1540 1824
1540 2060
1540 2347
1540 2929
1540 3145
1540 4499
1540 4754
1541 1812
1541 1830
1541 2168
1541 2407
1541 2632
1541 2872
1541 3518
1541 3714
1541 3758
1541 4311
1541 4332
1541 4689
1542 1572
1542 1665
1542 1746
1542 1754
1542 2012
1542 2032
1542 2078
1542 2099
1542 2195
1542 2233
1542 2457
1542 2574
1542 2692
1542 2894
1542 2975
1542 3024
1542 3028
1542 3036
1542 3155
1542 3268
1542 3289
1542 3449
1542 3652
1542 3774
1542 3782
1542 3817
1542 3988
1542 4055
1542 4112
1542 4326
1542 4474
1542 4496
1542 4560
1542 4647
1542 4678
1542 4838
1542 4995
1543 1591
1543 2010
1543 2398
1543 3255
1543 3281
1543 3415
1543 3449
1543 3485
1543 3519
1543 3658
1543 3800
1543 4068
1543 4303
1543 4507
1543 4900
1544 1629
1544 1752
1544 1836
1544 2182
1544 2184
1544 2312
1544 3247
1544 3437
1544 3729
1544 3745
1544 3893
1544 4121
1544 4153
1544 4621
1544 4726
1544 4735
1544 4772
1545 1587
1545 2150
1545 3030
1545 3289
1545 3348
1545 3513
1545 4133
1545 4772
1546 1574
1546 1810
1546 1848
1546 1897
1546 2044
1546 2101
1546 2164
1546 2287
1546 2351
1546 2563
1546 2726
1546 2853
1546 3167
1546 3345
1546 3775
1546 4150
1546 4273
1546 4349
1546 4850
1546 4964
1547 1682
1547 1990
1547 2225
1547 2563
1547 3048
1547 3476
1547 3598
1547 3792
1547 4261
1547 4339
1547 4464
1548 1596
1548 1874
1548 2209
1548 2414
1548 2459
1548 2514
1548 2783
1548 3422
1548 3672
1548 3948
1548 4013
1548 4154
1548 4595
1548 4965
1549 1707
1549 1861
1549 1938
1549 2286
1549 2344
1549 2379
1549 2687
1549 3078
1549 3110
1549 3356
1549 3423
1549 3704
1549 3711
1549 3712
1549 3754
1549 4018
1549 4237
1549 4330
1549 4382
1549 4475
1549 4595
1549 4745
1549 4805
1550 1656
1550 1704
1550 2126
1550 2285
1550 2796
1550 3101
1550 3536
1550 4609
1551 1711
1551 2184
1551 2544
1551 2765
1551 3158
1551 3308
1551 3475
1551 3747
1551 4169
1551 4191
1551 4585
1551 4906
1551 4968
1552 1627
1552 1828
1552 1829
1552 2017
1552 2477
1552 2592
1552 2700
1552 2979
1552 3211
1552 3333
1552 3490
1552 3590
1552 3651
1552 3670
1552 3932
1552 4788
1552 4886
1552 4976
1553 1591
1553 2859
1553 3227
1553 3479
1553 3545
1553 3651
1553 3893
1553 4068
1553 4080
1553 4162
1553 4632
1553 4744
1553 4848
1554 1729
1554 1960
1554 2020
1554 2438
1554 2886
1554 2892
1554 3027
1554 3209
1554 3378
1554 3398
1554 3414
1554 3661
1554 4177
1554 4532
1554 4616
1554 4911
1555 1580
1555 1625
1555 2250
1555 2343
1555 2513
1555 2587
1555 2651
1555 2690
1555 2910
1555 3139
1555 3204
1555 3263
1555 3293
1555 3314
1555 3376
1555 3381
1555 3562
1555 3585
1555 3661
1555 3776
1555 4098
1555 4187
1555 4229
1555 4239
1555 4365
1555 4377
1555 4570
1555 4856
1555 4880
1556 1624
1556 1631
1556 2155
1556 2305
1556 2432
1556 2661
1556 2741
1556 3191
1556 3335
1556 3403
1556 3615
1556 3623
1556 3732
1556 3875
1556 3941
1556 3960
1556 4877
1557 1955
1557 1984
1557 2229
1557 2598
1557 2841
1557 3238
1557 3365
1557 3537
1557 3608
1557 3642
1557 3684
1557 3722
1557 3730
1557 3783
1557 4069
1557 4118
1557 4143
1557 4560
1557 4610
1558 2049
1558 2088
1558 2171
1558 2348
1558 2485
1558 2530
1558 2855
1558 3405
1558 3419
1558 3459
1558 3701
1558 4031
1558 4077
1558 4888
1558 4953
1559 1797
1559 1873
1559 1985
1559 2723
1559 2795
1559 2801
1559 3198
1559 3559
1559 3593
1559 4023
1559 4082
1559 4669
1559 4708
1559 4729
1560 1735
1560 1750
1560 2393
1560 2847
1560 2885
1560 2997
1560 3158
1560 3517
1560 3558
1560 3682
1560 4070
1560 4083
1560 4154
1560 4264
1561 1844
1561 1852
1561 2005
1561 2627
1561 2723
1561 3618
1561 3769
1561 3851
1561 3911
1561 4388
1561 4493
1561 4494
1561 4507
1561 4532
1561 4537
1561 4727
1562 2162
1562 2252
1562 2887
1562 3276
1562 3756
1562 4263
1563 1570
1563 1749
1563 1948
1563 2086
1563 2233
1563 2312
1563 2449
1563 2811
1563 2813
1563 2900
1563 3036
1563 3284
1563 3372
1563 3384
1563 3410
1563 3443
1563 3863
1563 4372
1563 4660
1563 4680
1563 4683
1563 4820
1563 4905
1563 4994
1564 1660
1564 1777
1564 1820
1564 1874
1564 2587
1564 2694
1564 3040
1564 4409
1564 4670
1564 4679
1564 4870
1565 1847
1565 2496
1565 2688
1565 3059
1565 3246
1565 4206
1565 4250
1565 4816
1565 4865
1566 1885
1566 2337
1566 2440
1566 2444
1566 2842
1566 2845
1566 2859
1566 3263
1566 3459
1566 3482
1566 3878
1566 4490
1566 4536
1566 4599
1566 4911
1567 1659
1567 2068
1567 2187
1567 2397
1567 2841
1567 2892
1567 3191
1567 3273
1567 3442
1567 3533
1567 3701
1567 3873
1567 4708
1567 4729
1567 4872
1567 4911
1568 1850
1568 1885
1568 2467
1568 3998
1568 4043
1568 4067
1568 4507
1568 4611
1568 4738
1569 1627
1569 2150
1569 2160
1569 2483
1569 2611
1569 2763
1569 2825
1569 3052
1569 3261
1569 3586
1569 3628
1569 3815
1569 3835
1569 4127
1569 4675
1569 4889
1570 2133
1570 2395
1570 3177
1570 3510
1570 3521
1570 3688
1570 3987
1570 4250
1570 4490
1570 4610
1570 4647
1570 4771
1571 1609
1571 1644
1571 1652
1571 1813
1571 1879
1571 2022
1571 2177
1571 2329
1571 2339
1571 2496
1571 2501
1571 2714
1571 2911
1571 2918
1571 3196
1571 3280
1571 3341
1571 3370
1571 3386
1571 3458
1571 3537
1571 3552
1571 3749
1571 3835
1571 3889
1571 3900
1571 3930
1571 3938
1571 4091
1571 4169
1571 4368
1571 4496
1571 4583
1571 4708
1571 4968
1572 1910
1572 1927
1572 2233
1572 2305
1572 2359
1572 2475
1572 2705
1572 2844
1572 3701
1572 3713
1572 3963
1572 4385
1572 4444
1572 4785
1572 4829
1572 4852
1572 4914
1573 1578
1573 1902
1573 2453
1573 2576
1573 2741
1573 3046
1573 3160
1573 3404
1573 3590
1573 3681
1573 3947
1573 4190
1573 4404
1573 4479
1573 4523
1573 4631
1573 4959
1574 1624
1574 2363
1574 2398
1574 2401
1574 2769
1574 3008
1574 3272
1574 3793
1574 3973
1574 4323
1574 4633
1574 4805
1574 4820
1575 1659
1575 1782
1575 2142
1575 2345
1575 2511
1575 2726
1575 2730
1575 3403
1575 3824
1575 4106
1575 4117
1575 4132
1575 4493
1575 4510
1575 4594
1575 4689
1575 4803
1576 1764
1576 2029
1576 2069
1576 2297
1576 2613
1576 2680
1576 3166
1576 3242
1576 3451
1576 3520
1576 3534
1576 3730
1576 4213
1576 4559
1576 4636
1576 4661
1576 4914
1577 1916
1577 2484
1577 2680
1577 3395
1577 3530
1577 3844
1577 4072
1577 4126
1577 4602
1577 4690
1577 4777
1577 4923
1577 4950
1577 4954
1578 1638
1578 1731
1578 1740
1578 2060
1578 2168
1578 2191
1578 2215
1578 2303
1578 2538
1578 2921
1578 3040
1578 3152
1578 3439
1578 3741
1578 3792
1578 4164
1578 4260
1578 4266
1578 4456
1578 4562
1578 4598
1578 4974
1579 1816
1579 1866
1579 2047
1579 2128
1579 2394
1579 2933
1579 3087
1579 3227
1579 3468
1579 4162
1579 4189
1579 4198
1579 4432
1579 4539
1580 1638
1580 2272
1580 2348
1580 2363
1580 2418
1580 2537
1580 2595
1580 2615
1580 2752
1580 3003
1580 3367
1580 3414
1580 3828
1580 4145
1581 1983
1581 2174
1581 2661
1581 2792
1581 2849
1581 3516
1581 3517
1581 3649
1581 4811
1582 1585
1582 1762
1582 1893
1582 1977
1582 2355
1582 2855
1582 3299
1582 3361
1582 3915
1582 3942
1582 4061
1582 4131
1582 4389
1582 4798
1583 1876
1583 2001
1583 2122
1583 2226
1583 2780
1583 2962
1583 3021
1583 3104
1583 3150
1583 3157
1583 3166
1583 3411
1583 3481
1583 3525
1583 3795
1583 3855
1583 3893
1583 3996
1583 4171
1583 4273
1583 4278
1583 4352
1583 4635
1584 2343
1584 3106
1584 3322
1584 3323
1584 4176
1584 4254
1584 4400
1584 4746
1585 1762
1585 1776
1585 2356
1585 2471
1585 2612
1585 3168
1585 3266
1585 3368
1585 4221
1585 4375
1585 4748
1586 1983
1586 2685
1586 3322
1586 3441
1586 3510
1586 3630
1586 3646
1586 3923
1586 4140
1586 4335
1587 1637
1587 1641
1587 1836
1587 1865
1587 1910
1587 1921
1587 1985
1587 2008
1587 2021
1587 2067
1587 2225
1587 2237
1587 2270
1587 2450
1587 2521
1587 2523
1587 2680
1587 2730
1587 2783
1587 2800
1587 2860
1587 2915
1587 2948
1587 3005
1587 3083
1587 3105
1587 3143
1587 3250
1587 3263
1587 3281
1587 3300
1587 3332
1587 3374
1587 3399
1587 3424
1587 3636
1587 3680
1587 3706
1587 3731
1587 3901
1587 3975
1587 4140
1587 4250
1587 4264
1587 4276
1587 4303
1587 4317
1587 4463
1587 4501
1587 4563
1587 4645
1587 4953
1588 1660
1588 1738
1588 1752
1588 1859
1588 2301
1588 2505
1588 2659
1588 2797
1588 2919
1588 3074
1588 3151
1588 3167
1588 3193
1588 3421
1588 3729
1588 3730
1588 3783
1588 3809
1588 3835
1588 4215
1588 4246
1588 4271
1588 4443
1588 4480
1588 4841
1588 4859
1589 1898
1589 1970
1589 2160
1589 2711
1589 2958
1589 3195
1589 3459
1589 3571
1589 3596
1589 3773
1589 4276
1589 4324
1590 1744
1590 1796
1590 1807
1590 1823
1590 1909
1590 1975
1590 2244
1590 2261
1590 2328
1590 2478
1590 2606
1590 2621
1590 2843
1590 2919
1590 2964
1590 3007
1590 3082
1590 3127
1590 3192
1590 3208
1590 3243
1590 3313
1590 3523
1590 3572
1590 3611
1590 3631
1590 3632
1590 4145
1590 4192
1590 4291
1590 4303
1590 4393
1590 4457
1590 4492
1590 4543
1590 4900
1590 4903
1591 1602
1591 2710
1591 2909
1591 3120
1591 3314
1591 3480
1591 3654
1591 4395
1591 4873
1592 1934
1592 1947
1592 2009
1592 4125
1592 4140
1592 4518
1592 4855
1592 4970
1593 2343
1593 2723
1593 3153
1593 3328
1593 3423
1593 3562
1593 4262
1593 4325
1593 4711
1593 4730
1593 4933
1594 1712
1594 2173
1594 2742
1594 2962
1594 2976
1594 3165
1594 3265
1594 3397
1594 3806
1594 3892
1594 4170
1594 4813
1595 2809
1595 2896
1595 2902
1595 3129
1595 3293
1595 3351
1595 3385
1595 3700
1595 3748
1595 3859
1595 4205
1595 4484
1595 4494
1595 4678
1595 4742
1595 4756
1595 4838
1595 4962
1595 4973
1596 1737
1596 2202
1596 2257
1596 2685
1596 3039
1596 3049
1596 3126
1596 3431
1596 3562
1596 4002
1596 4676
1596 4687
1596 4801
1596 4973
1597 1659
1597 1844
1597 1981
1597 2221
1597 2438
1597 2750
1597 3221
1597 3766
1597 4002
1597 4161
1597 4394
1597 4694
1598 2021
1598 2829
1598 3083
1598 3329
1598 3535
1598 3613
1598 3709
1598 3737
1598 3851
1598 3910
1598 3945
1598 3996
1598 4014
1598 4034
1598 4035
1598 4135
1598 4505
1598 4731
1598 4938
1599 2846
1599 3267
1599 3515
1599 4310
1599 4507
1599 4653
1600 1643
1600 1720
1600 1972
1600 2003
1600 2017
1600 2162
1600 2207
1600 2256
1600 2268
1600 2289
1600 2319
1600 2321
1600 2337
1600 2670
1600 2966
1600 3048
1600 3079
1600 3095
1600 3145
1600 3302
1600 3323
1600 3556
1600 3578
1600 3584
1600 3613
1600 3715
1600 3884
1600 4039
1600 4209
1600 4237
1600 4319
1600 4463
1600 4468
1600 4606
1600 4699
1600 4823
1600 4909
1601 1735
1601 2738
1601 3074
1601 3352
1601 3472
1601 3841
1601 3967
1601 3971
1601 4077
1601 4212
1601 4309
1602 1762
1602 2177
1602 2252
1602 2381
1602 2689
1602 3284
1602 3787
1602 3797
1602 4140
1602 4169
1602 4192
1602 4229
1602 4374
1603 1970
1603 2049
1603 2307
1603 2440
1603 2511
1603 2582
1603 2754
1603 2786
1603 3017
1603 3550
1603 4746
1603 4887
1603 4988
1604 1889
1604 2186
1604 2514
1604 2644
1604 3155
1604 3488
1604 3591
1604 4192
1604 4363
1604 4907
1605 1874
1605 1901
1605 1967
1605 2027
1605 2158
1605 2337
1605 2458
1605 2572
1605 2793
1605 2861
1605 2920
1605 3066
1605 3207
1605 3208
1605 3266
1605 3333
1605 3350
1605 3915
1605 3950
1605 4046
1605 4483
1605 4559
1605 4605
1605 4729
1605 4870
1606 1654
1606 1916
1606 1925
1606 2215
1606 2247
1606 2357
1606 2374
1606 3498
1606 3624
1606 3630
1606 3805
1606 4466
1606 4752
1606 4818
1607 1895
1607 1910
1607 1935
1607 2031
1607 2222
1607 2295
1607 2541
1607 2626
1607 2692
1607 2964
1607 3126
1607 3245
1607 3271
1607 3298
1607 3697
1607 4150
1607 4499
1607 4582
1607 4619
1607 4705
1607 4899
1608 2461
1608 2564
1608 3163
1608 3247
1608 3256
1608 3358
1608 3367
1608 3734
1608 3938
1608 4066
1608 4364
1608 4620
1608 4680
1609 1612
1609 1713
1609 1772
1609 1797
1609 2121
1609 2274
1609 2275
1609 2276
1609 2396
1609 2466
1609 2527
1609 2540
1609 2549
1609 2595
1609 2652
1609 2675
1609 2731
1609 2826
1609 2872
1609 2971
1609 3090
1609 3448
1609 3467
1609 3704
1609 3778
1609 3950
1609 4015
1609 4191
1609 4304
1609 4362
1609 4465
1610 1908
1610 2108
1610 2112
1610 2578
1610 2685
1610 2872
1610 3031
1610 3332
1610 3520
1610 3769
1610 3862
1610 3981
1610 4013
1610 4080
1610 4374
1610 4607
1610 4679
1610 4836
1611 2060
1611 2168
1611 2418
1611 2535
1611 2627
1611 2650
1611 2723
1611 2770
1611 2830
1611 3635
1611 4397
1611 4665
1611 4675
1612 1777
1612 1853
1612 2353
1612 2463
1612 2545
1612 2676
1612 2775
1612 2943
1612 3034
1612 3770
1612 3785
1612 3787
1612 4416
1613 2474
1613 2892
1613 2934
1613 3030
1613 3051
1613 3413
1613 3983
1613 4001
1613 4141
1613 4178
1613 4345
1613 4359
1613 4641
1613 4867
1614 1684
1614 2352
1614 2358
1614 2533
1614 2541
1614 2752
1614 2824
1614 3218
1614 3311
1614 3366
1614 3474
1614 3805
1614 4591
1614 4714
1614 4865
1614 4953
1615 1949
1615 2052
1615 2138
1615 2438
1615 2440
1615 2787
1615 3545
1615 3745
1615 4004
1615 4388
1615 4409
1615 4412
1615 4450
1615 4686
1616 1630
1616 1669
1616 1754
1616 1808
1616 2103
1616 2355
1616 2398
1616 2419
1616 2490
1616 2521
1616 2773
1616 2859
1616 2984
1616 3220
1616 3257
1616 4102
1616 4200
1616 4385
1617 1657
1617 1802
1617 1954
1617 2065
1617 2120
1617 2201
1617 2210
1617 2374
1617 2524
1617 2545
1617 2563
1617 2853
1617 3237
1617 3587
1617 3597
1617 3617
1617 3625
1617 4228
1617 4540
1617 4681
1617 4842
1617 4864
1618 1858
1618 1869
1618 1947
1618 2026
1618 2043
1618 2209
1618 2305
1618 2469
1618 2539
1618 2604
1618 2696
1618 3006
1618 3361
1618 3773
1618 3785
1618 3954
1618 3969
1618 4125
1618 4264
1618 4375
1618 4464
1618 4505
1618 4863
1618 4870
1619 2635
1619 3971
1619 4329
1619 4496
1619 4616
1619 4785
1619 4790
1619 4908
1620 1905
1620 2276
1620 2390
1620 2540
1620 3107
1620 3154
1620 3280
1620 3587
1620 3746
1620 3747
1620 3816
1620 3898
1620 4191
1620 4237
1620 4355
1620 4703
1620 4746
1620 4764
1620 4807
1620 4866
1621 1704
1621 2276
1621 2348
1621 2852
1621 3067
1621 3398
1621 3590
1621 4161
1621 4198
1621 4446
1621 4828
1621 4835
1622 1638
1622 1763
1622 1790
1622 1904
1622 2195
1622 2322
1622 2360
1622 2396
1622 2456
1622 2541
1622 2648
1622 2654
1622 2770
1622 2911
1622 2971
1622 2990
1622 3187
1622 3312
1622 3397
1622 3546
1622 3686
1622 3861
1622 4292
1622 4476
1622 4563
1622 4639
1622 4691
1622 4959
1622 4962
1623 1689
1623 1865
1623 1872
1623 1947
1623 1960
1623 2196
1623 2205
1623 2272
1623 3090
1623 3148
1623 3162
1623 3439
1623 3535
1623 3547
1623 3703
1623 3742
1623 4034
1623 4054
1623 4110
1623 4130
1623 4146
1623 4322
1623 4495
1623 4506
1623 4998
1624 1687
1624 2111
1624 2326
1624 2360
1624 2364
1624 2365
1624 2699
1624 2708
1624 2719
1624 3205
1624 3219
1624 3256
1624 3315
1624 3362
1624 3504
1624 3828
1624 4427
1624 4475
1624 4679
1624 4721
1624 4790
1624 4877
1624 4900
1624 4943
1624 4952
1625 1657
1625 1920
1625 2397
1625 2550
1625 2810
1625 2947
1625 3058
1625 3217
1625 3943
1625 4014
1625 4068
1625 4549
1625 4578
1625 4645
1626 1982
1626 1984
1626 2114
1626 2508
1626 2661
1626 2696
1626 2956
1626 3100
1626 3248
1626 3249
1626 3266
1626 3621
1626 3855
1626 3923
1626 4034
1626 4086
1626 4108
1626 4669
1626 4686
1626 4705
1626 4955
1626 4983
1627 1628
1627 1668
1627 1675
1627 2029
1627 2054
1627 2113
1627 2114
1627 2230
1627 2397
1627 2563
1627 2625
1627 3102
1627 3109
1627 3136
1627 3149
1627 3486
1627 3698
1627 3759
1627 3827
1627 3887
1627 4084
1627 4162
1627 4778
1627 4880
1628 1693
1628 2306
1628 2644
1628 3082
1628 3131
1628 3371
1628 3639
1628 3846
1628 3975
1629 1736
1629 1905
1629 2267
1629 2306
1629 3206
1629 3448
1629 3742
1629 3769
1629 3875
1629 4067
1629 4169
1629 4882
1629 4953
1630 2085
1630 2371
1630 2478
1630 2917
1630 3037
1630 3100
1630 3587
1630 3769
1630 3974
1630 4068
1630 4142
1630 4595
1630 4600
1630 4734
1630 4772
1631 1652
1631 1702
1631 1804
1631 2035
1631 2100
1631 2542
1631 2640
1631 2964
1631 3031
1631 3039
1631 3168
1631 3223
1631 3356
1631 3395
1631 3693
1631 3915
1631 4049
1631 4121
1631 4337
1631 4974
1632 1705
1632 1814
1632 1871
1632 1873
1632 1918
1632 1998
1632 2029
1632 2293
1632 2301
1632 2542
1632 2826
1632 2999
1632 3499
1632 3636
1632 3875
1632 3893
1632 3931
1632 3995
1632 4346
1632 4687
1632 4740
1632 4839
1632 4893
1633 1706
1633 1936
1633 1957
1633 1982
1633 2000
1633 2023
1633 2162
1633 2375
1633 2411
1633 2604
1633 2632
1633 2747
1633 2937
1633 3086
1633 3098
1633 3376
1633 3389
1633 3565
1633 4126
1633 4137
1633 4213
1633 4377
1633 4442
1633 4503
1633 4604
1633 4776
1633 4900
1633 4996
1634 1805
1634 1854
1634 2794
1634 2935
1634 3338
1634 4349
1634 4441
1634 4962
1635 1897
1635 2014
1635 2210
1635 2355
1635 2708
1635 3097
1635 3193
1635 3794
1635 3942
1635 4197
1635 4865
1635 4870
1636 1650
1636 1697
1636 1771
1636 1893
1636 2044
1636 2149
1636 2192
1636 2240
1636 2384
1636 2443
1636 2478
1636 2509
1636 2740
1636 2955
1636 3754
1636 3796
1636 3823
1636 3871
1636 4072
1636 4214
1636 4237
1636 4364
1636 4403
1636 4543
1636 4617
1636 4670
1636 4709
1636 4785
1636 4889
1637 2237
1637 2446
1637 2676
1637 2731
1637 2861
1637 2890
1637 2996
1637 3065
1637 3335
1637 3377
1637 3530
1637 3575
1637 4072
1637 4077
1637 4130
1637 4161
1637 4287
1637 4495
1637 4511
1637 4697
1637 4805
1638 1675
1638 1914
1638 1916
1638 2238
1638 2441
1638 2505
1638 2599
1638 2665
1638 2841
1638 3497
1638 3593
1638 3750
1638 3913
1638 4498
1638 4625
1638 4683
1639 2205
1639 2280
1639 2701
1639 3052
1639 3091
1639 3303
1639 3419
1639 4129
1639 4249
1639 4329
1639 4569
1639 4573
1639 4873
1640 1701
1640 3055
1640 3256
1640 3271
1640 3581
1640 3853
1640 3881
1640 4594
1640 4823
1640 4910
1641 2049
1641 2065
1641 2196
1641 2350
1641 2375
1641 2537
1641 2603
1641 3523
1641 3528
1641 3748
1641 3832
1641 4036
1641 4113
1641 4387
1641 4468
1641 4899
1641 4932
1642 2016
1642 2070
1642 2442
1642 2703
1642 2974
1642 3236
1642 3280
1642 3348
1642 3361
1642 3434
1642 3482
1642 3579
1642 3626
1642 4363
1642 4571
1642 4604
1642 4629
1642 4862
1643 1677
1643 1969
1643 2145
1643 2258
1643 2335
1643 2519
1643 3235
1643 3317
1643 3385
1643 3571
1643 3671
1643 4524
1644 1694
1644 2114
1644 2791
1644 2795
1644 3553
1644 3912
1644 3977
1644 4270
1644 4994
1645 2454
1645 2639
1645 3540
1645 3790
1645 3832
1645 3923
1645 4021
1645 4611
1645 4757
1645 4907
1645 4992
1646 1833
1646 2475
1646 2654
1646 3080
1646 3160
1646 3459
1646 3741
1646 3887
1646 3941
1646 4077
1646 4203
1647 1741
1647 2201
1647 2655
1647 3039
1647 3075
1647 3361
1647 3464
1647 3739
1647 3802
1647 4229
1647 4368
1647 4729
1648 1673
1648 1771
1648 1814
1648 1884
1648 1900
1648 2192
1648 2231
1648 2523
1648 2621
1648 2655
1648 3008
1648 3092
1648 3398
1648 3944
1648 4141
1648 4161
1648 4355
1648 4461
1648 4634
1649 2029
1649 2140
1649 2638
1649 2836
1649 3117
1649 3334
1649 3559
1649 3820
1649 3840
1649 3925
1649 4498
1649 4769
1649 4964
1650 1657
1650 2114
1650 2694
1650 2962
1650 3744
1650 3993
1650 4394
1650 4493
1650 4715
1651 1698
1651 1771
1651 1920
1651 2049
1651 2051
1651 2420
1651 2473
1651 2647
1651 3112
1651 3113
1651 3193
1651 3332
1651 3718
1651 3817
1651 3912
1651 3921
1651 3939
1651 4056
1651 4303
1651 4729
1651 4936
1652 1764
1652 1823
1652 2368
1652 2402
1652 2794
1652 3034
1652 3355
1652 3376
1652 3568
1652 3588
1652 3880
1652 4227
1652 4253
1652 4888
1653 1657
1653 1777
1653 1901
1653 2111
1653 2484
1653 2555
1653 2876
1653 3009
1653 3169
1653 3216
1653 3533
1653 3670
1653 3844
1653 3901
1653 4047
1653 4270
1653 4424
1653 4427
1653 4462
1653 4523
1653 4588
1653 4658
1653 4697
1653 4890
1654 1865
1654 1872
1654 2087
1654 2200
1654 2494
1654 2635
1654 3467
1654 4152
1654 4582
1654 4755
1654 4780
1654 4978
1655 1671
1655 1723
1655 1751
1655 1812
1655 2235
1655 2487
1655 2589
1655 2623
1655 2753
1655 2960
1655 3311
1655 3535
1655 3582
1655 3856
1655 4093
1655 4238
1655 4501
1655 4527
1655 4973
1655 4976
1656 1708
1656 2019
1656 2128
1656 2130
1656 2436
1656 2520
1656 3213
1656 3612
1656 3810
1656 3899
1656 4127
1656 4538
1657 1985
1657 2002
1657 2085
1657 2210
1657 2458
1657 2555
1657 2778
1657 3075
1657 3097
1657 3237
1657 4429
1657 4522
1657 4598
1657 4687
1657 4906
1657 4980
1658 1739
1658 1851
1658 1927
1658 1984
1658 2035
1658 2135
1658 2431
1658 2573
1658 2604
1658 2935
1658 2990
1658 3744
1658 4572
1658 4578
1658 4951
1659 2298
1659 2461
1659 2821
1659 3471
1659 4129
1659 4234
1659 4562
1659 4755
1659 4947
1660 1717
1660 1951
1660 2062
1660 2365
1660 2543
1660 2748
1660 2913
1660 3132
1660 3152
1660 3169
1660 3277
1660 3301
1660 3312
1660 3378
1660 3384
1660 3580
1660 3637
1660 3981
1660 4097
1660 4237
1660 4291
1660 4393
1660 4567
1660 4705
1660 4843
1660 4999
1661 1896
1661 1954
1661 2283
1661 2550
1661 2989
1661 3439
1661 3664
1661 4237
1662 2033
1662 2735
1662 3066
1662 3071
1662 3229
1662 3477
1662 3487
1662 3530
1662 3542
1662 3572
1662 3728
1662 3799
1662 4266
1662 4512
1662 4671
1662 4784
1663 1796
1663 2039
1663 2532
1663 2841
1663 3120
1663 3314
1663 3326
1663 3548
1663 3549
1663 3619
1663 3985
1663 4734
1664 2313
1664 2375
1664 2619
1664 2766
1664 2900
1664 3365
1664 4137
1664 4475
1664 4681
1664 4718
1665 1840
1665 1913
1665 2038
1665 2043
1665 2201
1665 2564
1665 2610
1665 2629
1665 2784
1665 2793
1665 2813
1665 2947
1665 3130
1665 3231
1665 3235
1665 3375
1665 3525
1665 3815
1665 4148
1665 4198
1665 4324
1665 4434
1665 4524
1665 4638
1665 4947
1666 2145
1666 2312
1666 2398
1666 2408
1666 2783
1666 2872
1666 3359
1666 3984
1666 4124
1666 4280
1666 4331
1667 2054
1667 2240
1667 2254
1667 2468
1667 2785
1667 2989
1667 3057
1667 3484
1667 3996
1667 4309
1667 4357
1667 4502
1667 4505
1667 4666
1668 1795
1668 1839
1668 1918
1668 2200
1668 2754
1668 2979
1668 2990
1668 3486
1668 3729
1668 4034
1668 4153
1668 4496
1668 4639
1669 1795
1669 2413
1669 3378
1669 4119
1669 4146
1669 4296
1669 4762
1669 4936
1670 1751
1670 2244
1670 2306
1670 2333
1670 2470
1670 2699
1670 3302
1670 3464
1670 3485
1670 3906
1670 4508
1670 4723
1670 4742
1671 1930
1671 2027
1671 2098
1671 2555
1671 2619
1671 3051
1671 3116
1671 3843
1671 4109
1671 4110
1671 4157
1671 4228
1671 4240
1671 4650
1671 4714
1671 4772
1671 4888
1672 1678
1672 2195
1672 2976
1672 3396
1672 3446
1672 3700
1672 4163
1672 4275
1672 4419
1673 1678
1673 2336
1673 2384
1673 2440
1673 2930
1673 3000
1673 3398
1673 3536
1673 3887
1673 4523
1674 2036
1674 2526
1674 2663
1674 2671
1674 2894
1674 2918
1674 3179
1674 3258
1674 3758
1674 3761
1674 3798
1674 3983
1674 4155
1674 4243
1675 2949
1675 3041
1675 3288
1675 3736
1675 3879
1675 4233
1675 4307
1675 4432
1675 4772
1676 2814
1676 3111
1676 3475
1676 3486
1676 3677
1676 4541
1676 4805
1676 4976
1677 1988
1677 2001
1677 2029
1677 2095
1677 2129
1677 2210
1677 2409
1677 2533
1677 2812
1677 2933
1677 2989
1677 3168
1677 3209
1677 3765
1677 4000
1677 4107
1677 4145
1677 4159
1677 4173
1677 4196
1677 4392
1677 4556
1677 4571
1677 4699
1677 4863
1677 4941
1678 1850
1678 1923
1678 2265
1678 2267
1678 2340
1678 2597
1678 2625
1678 2675
1678 2770
1678 2873
1678 2950
1678 3077
1678 3382
1678 3440
1678 3603
1678 3962
1678 4522
1678 4631
1678 4672
1678 4769
1678 4784
1678 4838
1678 4959
1678 4991
1679 1690
1679 1745
1679 1801
1679 1960
1679 1982
1679 2516
1679 2565
1679 2885
1679 3135
1679 3361
1679 4048
1679 4146
1679 4203
1680 1916
1680 1993
1680 2109
1680 2295
1680 2698
1680 3417
1680 3489
1680 3700
1680 3940
1680 4645
1681 2348
1681 2349
1681 2498
1681 2590
1681 3296
1681 4045
1681 4186
1681 4412
1682 2002
1682 2020
1682 2060
1682 2092
1682 2179
1682 2191
1682 2497
1682 2882
1682 3025
1682 3058
1682 3314
1682 3333
1682 3344
1682 3348
1682 3415
1682 3459
1682 3536
1682 3564
1682 3655
1682 3724
1682 3949
1682 4049
1682 4050
1682 4084
1682 4157
1682 4172
1682 4369
1682 4478
1682 4485
1682 4498
1682 4514
1682 4636
1682 4805
1682 4928
1682 4979
1683 1961
1683 2099
1683 2307
1683 2372
1683 2741
1683 2857
1683 2914
1683 2978
1683 3192
1683 3461
1683 3729
1683 3967
1683 4396
1683 4613
1683 4670
1683 4730
1684 1954
1684 1969
1684 1973
1684 2145
1684 2215
1684 2615
1684 2958
1684 3271
1684 3506
1684 3597
1684 3636
1684 3700
1684 4054
1684 4355
1684 4428
1684 4728
1685 2013
1685 2021
1685 2068
1685 2502
1685 2644
1685 2890
1685 3284
1685 3601
1685 3828
1685 4228
1685 4273
1685 4661
1686 1748
1686 1912
1686 2093
1686 2099
1686 2502
1686 2861
1686 3256
1686 3322
1686 3419
1686 3587
1686 3688
1686 4068
1686 4095
1686 4233
1686 4242
1686 4505
1686 4984
1687 2108
1687 2280
1687 2384
1687 2497
1687 2675
1687 3253
1687 3333
1687 3524
1687 3561
1687 4364
1687 4407
1687 4705
1688 1694
1688 2051
1688 2516
1688 3045
1688 3269
1688 3960
1688 4018
1688 4134
1688 4227
1688 4260
1688 4946
1689 2019
1689 2036
1689 2242
1689 2375
1689 2725
1689 3116
1689 3674
1689 3787
1689 3872
1689 3915
1689 3973
1689 4995
1690 1753
1690 2588
1690 2701
1690 3051
1690 3131
1690 3666
1690 4284
1690 4357
1690 4785
1691 2435
1691 2906
1691 3487
1691 3670
1691 3676
1691 3964
1691 3981
1691 4262
1691 4389
1691 4397
1691 4411
1691 4654
1691 4684
1691 4869
1691 4950
1692 1926
1692 2058
1692 2734
1692 2867
1692 3150
1692 3475
1692 3530
1692 3775
1692 4127
1692 4237
1692 4493
1693 2203
1693 2958
1693 2996
1693 3105
1693 3154
1693 3256
1693 3413
1693 3520
1693 4641
1693 4886
1694 2028
1694 2466
1694 2655
1694 3211
1694 3252
1694 3330
1694 3351
1694 3409
1694 3661
1694 3703
1694 3727
1694 4404
1694 4603
1694 4904
1694 4997
1695 2323
1695 2412
1695 2688
1695 3034
1695 3075
1695 3176
1695 3322
1695 3484
1695 3643
1695 3700
1695 3807
1695 4164
1695 4256
1695 4619
1695 4760
1696 1751
1696 2035
1696 2604
1696 2748
1696 3597
1696 3725
1696 3906
1696 3922
1696 4050
1696 4140
1696 4154
1696 4562
1696 4841
1697 1972
1697 2048
1697 2291
1697 2307
1697 2377
1697 2576
1697 2927
1697 3147
1697 3175
1697 3236
1697 3476
1697 3584
1697 3588
1697 3653
1697 3909
1697 3942
1697 4485
1697 4547
1697 4900
1697 4902
1698 2391
1698 2722
1698 2831
1698 3256
1698 3478
1698 3777
1698 3833
1698 3932
1698 3977
1698 4056
1698 4095
1698 4100
1698 4573
1698 4592
1698 4616
1698 4626
1698 4845
1698 4867
1698 4880
1699 1752
1699 1758
1699 1786
1699 1822
1699 1936
1699 1959
1699 2078
1699 2331
1699 2389
1699 2400
1699 2491
1699 2873
1699 2984
1699 2998
1699 3248
1699 3270
1699 3552
1699 3562
1699 3705
1699 3769
1699 3794
1699 4146
1699 4228
1699 4424
1699 4672
1699 4910
1699 4926
1700 1787
1700 1851
1700 1953
1700 2201
1700 2254
1700 2264
1700 2699
1700 2718
1700 2724
1700 2838
1700 3598
1700 3696
1700 3757
1700 4739
1701 1749
1701 1935
1701 1962
1701 2469
1701 2726
1701 3126
1701 3157
1701 3551
1701 3693
1701 3697
1701 3728
1701 3806
1701 3859
1701 4222
1701 4523
1701 4762
1701 4911
1701 4918
1702 1887
1702 2252
1702 2404
1702 3039
1702 3401
1702 3422
1702 3547
1702 3553
1702 3651
1702 3670
1702 3872
1702 4528
1702 4558
1702 4574
1702 4728
1702 4882
1702 4888
1703 1760
1703 1802
1703 3944
1703 4023
1703 4055
1703 4650
1703 4895
1704 1786
1704 1894
1704 1916
1704 1929
1704 1967
1704 2411
1704 2507
1704 2628
1704 2675
1704 2771
1704 2790
1704 2870
1704 2930
1704 2966
1704 2970
1704 3025
1704 3118
1704 3154
1704 3490
1704 3509
1704 3629
1704 3721
1704 3792
1704 4011
1704 4095
1704 4163
1704 4172
1704 4178
1704 4249
1704 4257
1704 4367
1704 4400
1705 1892
1705 1935
1705 2444
1705 2508
1705 2558
1705 2742
1705 3025
1705 3566
1705 3608
1705 4136
1705 4175
1705 4509
1705 4541
1706 1933
1706 2422
1706 2887
1706 3267
1706 3679
1706 3780
1706 3977
1706 4204
1706 4340
1706 4578
1706 4614
1706 4758
1706 4865
1707 1741
1707 2181
1707 2283
1707 2346
1707 2632
1707 3011
1707 3335
1707 3697
1707 3936
1707 4102
1707 4310
1707 4346
1707 4351
1708 1888
1708 2487
1708 2781
1708 2828
1708 3357
1708 3406
1708 3617
1708 3664
1708 3666
1708 3785
1708 3806
1708 3907
1708 3972
1708 4099
1708 4198
1708 4384
1709 1760
1709 1814
1709 1868
1709 2526
1709 2795
1709 2906
1709 2943
1709 2944
1709 3024
1709 3040
1709 3275
1709 3570
1709 3609
1709 4146
1709 4299
1709 4377
1709 4414
1710 1737
1710 1969
1710 2292
1710 2615
1710 3433
1710 3465
1710 3758
1710 3793
1710 3892
1710 4553
1710 4905
1711 2004
1711 2109
1711 2381
1711 2480
1711 2536
1711 2771
1711 2790
1711 2862
1711 2904
1711 2985
1711 3167
1711 3259
1711 3311
1711 3666
1711 3700
1711 4002
1711 4374
1711 4473
1711 4624
1711 4863
1711 4870
1711 4938
1712 1984
1712 2278
1712 2467
1712 2843
1712 3408
1712 3671
1712 3961
1712 4320
1712 4532
1712 4636
1712 4830
1712 4870
1712 4935
1713 1752
1713 1920
1713 1953
1713 2246
1713 2287
1713 2398
1713 2891
1713 3041
1713 3267
1713 3578
1713 4090
1713 4137
1713 4301
1713 4886
1714 1814
1714 2410
1714 2491
1714 2653
1714 3351
1714 3976
1714 4363
1714 4457
1714 4468
1714 4540
1714 4770
1715 1802
1715 2453
1715 2518
1715 2703
1715 2854
1715 3318
1715 3485
1715 3647
1715 3682
1715 4440
1716 2008
1716 2014
1716 2022
1716 2515
1716 3276
1716 3376
1716 3653
1716 4226
1716 4403
1716 4500
1716 4549
1716 4696
1716 4863
1716 4898
1717 2674
1717 2703
1717 2735
1717 3546
1717 3562
1717 3929
1717 4331
1717 4532
1717 4738
1717 4915
1718 1784
1718 2108
1718 2143
1718 3117
1718 3184
1718 3348
1718 3391
1718 3677
1718 3714
1718 4896
1718 4910
1719 1952
1719 1983
1719 2125
1719 2392
1719 2513
1719 2890
1719 2955
1719 3133
1719 4506
1719 4602
1720 2010
1720 2721
1720 3068
1720 3872
1720 4888
1721 1970
1721 2190
1721 2484
1721 2719
1721 2966
1721 3039
1721 4055
1721 4466
1721 4753
1721 4877
1722 2117
1722 2456
1722 2519
1722 2607
1722 2694
1722 2718
1722 2881
1722 3156
1722 3315
1722 3344
1722 3378
1722 3788
1722 3913
1722 3928
1722 4052
1722 4513
1722 4521
1722 4666
1722 4786
1722 4974
1723 1738
1723 1812
1723 1855
1723 2078
1723 2112
1723 2163
1723 2195
1723 2358
1723 3500
1723 3769
1723 3812
1723 4086
1723 4096
1723 4521
1723 4632
1723 4696
1723 4792
1724 2217
1724 2430
1724 2924
1724 3024
1724 3048
1724 3269
1724 3335
1724 3518
1724 4093
1724 4326
1724 4557
1724 4835
1725 2549
1725 2694
1725 2885
1725 3064
1725 3174
1725 3301
1725 3419
1725 3614
1725 3966
1725 4078
1725 4383
1726 1872
1726 1930
1726 2013
1726 2191
1726 2312
1726 2504
1726 2633
1726 2802
1726 2902
1726 2996
1726 3049
1726 3419
1726 3688
1726 3705
1726 3773
1726 3798
1726 3813
1727 1883
1727 2089
1727 2206
1727 2600
1727 2740
1727 3080
1727 3395
1727 3438
1727 3600
1727 3707
1727 3948
1727 4163
1727 4762
1727 4808
1727 4883
1728 1747
1728 1756
1728 2944
1728 3094
1728 3182
1728 3253
1728 3482
1728 3674
1728 3841
1728 3967
1729 1754
1729 1981
1729 1984
1729 2074
1729 2325
1729 2361
1729 2569
1729 2760
1729 2768
1729 2804
1729 3092
1729 3398
1729 3444
1729 3981
1729 4079
1729 4152
1729 4387
1729 4502
1729 4526
1729 4541
1729 4563
1729 4609
1729 4652
1729 4661
1729 4668
1729 4723
1730 1883
1730 1983
1730 2267
1730 2385
1730 2546
1730 2557
1730 2830
1730 2838
1730 2905
1730 3191
1730 3361
1730 3597
1730 3814
1730 4410
1730 4529
1730 4577
1731 2006
1731 2538
1731 2639
1731 2873
1731 2994
1731 3083
1731 3401
1731 3640
1731 3884
1731 4042
1731 4275
1731 4457
1731 4594
1732 2123
1732 2267
1732 2710
1732 2797
1732 3197
1732 3224
1732 3458
1732 3852
1732 4098
1732 4394
1732 4642
1732 4751
1732 4815
1732 4934
1733 1865
1733 2115
1733 2402
1733 2467
1733 2632
1733 2954
1733 3476
1733 3700
1733 4022
1733 4114
1733 4121
1733 4360
1734 1916
1734 2017
1734 2418
1734 2884
1734 3572
1734 3737
1734 3846
1734 4393
1734 4598
1734 4897
1734 4946
1734 4961
1735 1753
1735 1913
1735 1928
1735 2224
1735 2471
1735 2584
1735 2594
1735 2801
1735 2856
1735 2957
1735 2960
1735 3029
1735 3086
1735 3169
1735 3380
1735 3416
1735 3658
1735 3687
1735 3778
1735 3999
1735 4056
1735 4079
1735 4330
1735 4640
1735 4730
1735 4747
1735 4755
1735 4757
1735 4880
1735 4968
1736 2056
1736 3135
1736 3284
1736 3348
1736 3395
1736 3909
1736 3994
1736 4206
1736 4253
1736 4686
1736 4710
1737 1960
1737 2073
1737 2409
1737 2418
1737 2821
1737 2982
1737 3154
1737 3168
1737 3656
1737 3677
1737 3721
1737 4163
1737 4257
1737 4716
1737 4835
1737 4992
1738 1750
1738 1946
1738 2039
1738 2170
1738 2401
1738 3497
1738 3523
1738 3591
1738 3869
1738 4095
1738 4102
1738 4153
1738 4209
1738 4555
1738 4594
1738 4854
1738 4962
1738 4994
1739 1797
1739 1952
1739 2389
1739 2860
1739 3244
1739 3276
1739 3404
1739 3850
1739 4037
1739 4117
1739 4131
1739 4824
1739 4953
1740 2328
1740 2587
1740 2812
1740 3800
1740 4153
1740 4628
1740 4691
1740 4719
1741 1882
1741 1984
1741 2538
1741 2571
1741 2685
1741 2723
1741 2754
1741 3303
1741 3335
1741 3423
1741 3773
1741 4034
1741 4049
1741 4342
1741 4376
1741 4424
1741 4537
1741 4644
1741 4654
1741 4717
1741 4836
1742 1813
1742 1846
1742 1998
1742 2610
1742 2876
1742 3338
1742 3489
1742 3597
1742 3710
1742 4159
1742 4206
1742 4264
1743 1857
1743 2261
1743 2319
1743 2522
1743 2590
1743 2687
1743 3475
1743 3577
1743 3663
1743 4116
1743 4962
1744 2019
1744 2343
1744 2443
1744 2614
1744 2676
1744 2764
1744 3675
1744 4007
1744 4183
1744 4409
1744 4531
1744 4618
1744 4828
1745 1789
1745 1870
1745 1929
1745 2223
1745 2277
1745 2961
1745 3412
1745 4010
1745 4489
1745 4831
1746 1854
1746 1926
1746 1962
1746 1981
1746 2021
1746 2048
1746 2100
1746 2118
1746 2632
1746 2746
1746 2815
1746 2848
1746 2894
1746 3004
1746 3075
1746 3139
1746 3369
1746 3379
1746 3528
1746 3540
1746 3541
1746 3545
1746 3742
1746 3805
1746 3809
1746 4160
1746 4657
1746 4797
1746 4870
1746 4929
1746 4933
1747 1766
1747 2008
1747 2301
1747 2438
1747 2489
1747 2557
1747 2944
1747 2979
1747 3029
1747 3122
1747 3280
1747 3602
1747 3683
1747 3923
1747 3934
1747 3960
1747 4072
1747 4354
1747 4721
1748 2234
1748 2239
1748 2617
1748 3075
1748 3551
1748 3722
1748 3944
1748 4493
1748 4989
1749 1767
1749 2109
1749 2686
1749 2742
1749 2795
1749 3536
1749 3643
1749 3718
1749 3962
1749 4004
1749 4066
1749 4077
1749 4308
1749 4489
1749 4573
1749 4799
1749 4851
1749 4888
1750 1937
1750 1946
1750 2037
1750 2147
1750 2234
1750 2267
1750 2272
1750 2286
1750 2316
1750 2669
1750 2815
1750 3029
1750 3147
1750 3301
1750 3331
1750 3464
1750 3685
1750 3697
1750 3799
1750 3801
1750 3837
1750 3907
1750 4194
1750 4389
1750 4555
1750 4630
1750 4719
1750 4789
1750 4805
1750 4857
1750 4929
1751 1836
1751 1860
1751 1946
1751 2169
1751 2245
1751 2400
1751 2404
1751 2491
1751 2513
1751 2664
1751 2688
1751 2737
1751 2764
1751 2820
1751 2915
1751 3076
1751 3127
1751 3162
1751 3180
1751 3254
1751 3303
1751 3325
1751 3362
1751 3544
1751 3626
1751 3627
1751 3657
1751 3714
1751 3764
1751 3773
1751 4114
1751 4216
1751 4318
1751 4430
1751 4490
1751 4498
1751 4533
1751 4585
1751 4632
1751 4668
1751 4928
1751 4971
1751 4997
1752 2379
1752 2558
1752 2588
1752 2767
1752 2962
1752 2997
1752 3023
1752 3521
1752 3562
1752 3606
1752 3901
1752 3930
1752 3947
1752 4362
1752 4394
1752 4620
1752 4795
1753 2632
1753 2935
1753 3080
1753 3786
1753 3868
1753 4346
1753 4456
1754 1920
1754 2397
1754 2433
1754 2451
1754 2812
1754 3366
1754 3411
1754 3684
1754 3702
1754 3864
1754 4110
1754 4378
1754 4674
1755 2007
1755 2333
1755 3036
1755 4322
1755 4331
1755 4372
1755 4461
1755 4468
1755 4558
1755 4653
1756 1772
1756 1859
1756 1889
1756 2087
1756 2330
1756 2849
1756 2944
1756 3001
1756 3018
1756 3307
1756 3335
1756 3497
1756 3635
1756 3690
1756 3744
1756 3761
1756 3874
1756 3940
1756 4159
1756 4717
1756 4771
1757 1918
1757 2038
1757 3190
1757 3631
1757 3688
1757 3828
1757 4100
1757 4233
1757 4367
1757 4460
1757 4639
1757 4728
1758 1995
1758 2134
1758 2406
1758 2435
1758 2757
1758 3361
1758 3385
1758 3413
1758 3441
1758 4187
1758 4242
1758 4314
1758 4404
1758 4406
1758 4573
1758 4782
1759 1942
1759 2015
1759 2348
1759 2411
1759 2610
1759 2759
1759 3306
1759 3430
1759 3514
1759 3614
1759 3707
1759 3771
1759 4030
1759 4094
1759 4189
1759 4268
1759 4416
1759 4459
1759 4512
1759 4549
1759 4576
1759 4656
1760 1927
1760 1982
1760 2555
1760 2621
1760 2806
1760 2989
1760 3039
1760 3234
1760 3245
1760 3327
1760 4476
1760 4515
1760 4712
1760 4718
1760 4894
1760 4980
1761 1930
1761 2513
1761 2541
1761 2694
1761 2718
1761 3161
1761 3184
1761 3302
1761 3698
1761 3752
1761 4070
1761 4805
1762 1806
1762 2143
1762 2452
1762 2504
1762 2531
1762 2538
1762 2658
1762 3632
1762 4274
1762 4415
1762 4467
1762 4479
1762 4682
1762 4818
1762 4861
1763 1777
1763 1809
1763 1846
1763 1974
1763 2348
1763 2888
1763 3698
1763 3900
1763 4660
1763 4674
1764 1874
1764 2148
1764 2313
1764 2315
1764 2438
1764 2537
1764 2676
1764 2951
1764 3019
1764 3067
1764 3204
1764 3498
1765 1769
1765 1782
1765 3229
1765 3238
1765 3315
1765 3789
1765 4314
1765 4376
1765 4969
1766 2305
1766 2331
1766 3168
1766 3318
1766 3326
1766 4055
1766 4078
1766 4097
1766 4241
1766 4391
1766 4857
1767 2090
1767 2305
1767 3235
1767 3299
1767 3455
1767 3845
1767 3853
1767 4155
1767 4527
1767 4530
1767 4853
1768 2082
1768 2257
1768 2607
1768 2972
1768 3032
1768 3057
1768 3549
1768 3584
1768 3590
1768 3840
1768 3877
1768 3971
1768 4186
1768 4264
1769 1881
1769 1957
1769 1963
1769 2356
1769 3276
1769 3840
1769 4573
1770 2174
1770 2565
1770 2859
1770 2881
1770 2926
1770 3500
1770 3915
1770 4306
1770 4506
1770 4922
1771 1988
1771 2068
1771 2129
1771 2259
1771 2524
1771 3476
1771 4138
1772 2271
1772 2386
1772 3087
1772 3326
1772 3404
1772 3421
1772 3436
1772 3549
1772 4520
1772 4659
1772 4795
1773 2485
1773 3137
1773 3144
1773 3188
1773 3206
1773 3363
1773 3454
1773 3586
1773 3616
1773 4068
1773 4323
1773 4471
1773 4956
1774 1981
1774 2242
1774 2444
1774 2663
1774 3480
1774 4956
1775 1811
1775 2216
1775 2855
1775 2967
1775 3205
1775 3496
1775 3589
1775 3616
1775 3786
1775 3976
1775 4133
1775 4577
1775 4765
1776 2179
1776 2246
1776 2901
1776 3185
1776 3202
1776 3391
1776 3694
1776 4078
1776 4228
1776 4729
1777 1859
1777 2753
1777 2859
1777 3086
1777 3135
1777 3533
1777 3548
1777 3808
1777 4207
1777 4478
1777 4510
1777 4520
1777 4632
1777 4929
1777 4998
1778 1869
1778 2274
1778 2663
1778 2961
1778 3108
1778 3214
1778 3442
1778 3887
1778 3908
1778 4904
1779 1828
1779 1851
1779 2014
1779 2016
1779 2464
1779 2559
1779 3230
1779 3504
1779 3821
1779 3934
1779 4025
1779 4166
1779 4843
1779 4874
1780 1784
1780 2569
1780 3106
1780 3481
1780 3494
1780 3586
1780 3679
1780 3932
1780 4009
1780 4283
1780 4464
1780 4705
1781 1786
1781 1952
1781 2244
1781 2518
1781 2669
1781 2671
1781 2679
1781 2701
1781 3003
1781 3009
1781 3010
1781 3112
1781 3146
1781 3209
1781 3263
1781 3332
1781 3366
1781 3623
1781 3648
1781 3695
1781 3723
1781 3747
1781 3785
1781 3850
1781 4247
1781 4336
1781 4366
1781 4439
1781 4540
1781 4723
1781 4756
1781 4787
1781 4802
1781 4835
1782 2162
1782 2177
1782 2719
1782 2790
1782 2908
1782 3375
1782 3640
1782 3826
1782 3957
1782 4469
1782 4560
1782 4805
1783 1863
1783 2315
1783 2869
1783 2917
1783 2983
1783 3905
1783 4026
1783 4035
1783 4484
1783 4607
1783 4639
1783 4680
1784 1805
1784 1831
1784 1935
1784 2079
1784 2497
1784 2604
1784 2679
1784 2681
1784 2906
1784 3609
1784 3648
1784 3726
1784 3744
1784 3872
1784 3930
1784 3971
1784 4011
1784 4424
1784 4440
1784 4594
1784 4596
1785 1850
1785 2276
1785 2364
1785 3580
1785 4024
1785 4153
1785 4400
1785 4546
1785 4562
1786 2086
1786 2397
1786 2489
1786 2537
1786 2702
1786 2830
1786 3079
1786 3318
1786 3692
1786 3958
1786 3961
1786 4274
1787 1936
1787 2116
1787 2151
1787 2261
1787 2280
1787 2328
1787 2400
1787 2526
1787 2879
1787 3064
1787 3066
1787 3126
1787 3401
1787 3454
1787 3652
1787 3729
1787 3765
1787 4059
1787 4193
1787 4261
1787 4532
1787 4749
1787 4933
1788 2479
1788 2701
1788 2768
1788 3130
1788 3230
1788 3759
1788 3853
1788 4109
1788 4163
1788 4749
1788 4939
1789 2072
1789 2131
1789 2481
1789 2590
1789 2661
1789 2929
1789 3047
1789 3105
1789 3548
1789 3815
1789 4169
1789 4522
1789 4564
1789 4614
1790 1980
1790 2046
1790 2723
1790 2999
1790 3058
1790 3098
1790 3171
1790 3562
1790 3659
1790 4011
1790 4225
1790 4269
1790 4507
1790 4516
1790 4588
1790 4612
1790 4613
1790 4920
1791 2663
1791 2801
1791 2847
1791 3097
1791 3118
1791 3547
1791 3598
1791 3637
1791 4420
1791 4496
1791 4835
1791 4999
1792 1870
1792 2875
1792 2964
1792 3490
1792 4513
1792 4523
1792 4640
1792 4947
1793 2448
1793 2469
1793 2899
1793 3181
1793 3659
1793 4049
1793 4144
1793 4602
1793 4707
1794 1935
1794 1989
1794 2402
1794 2521
1794 2872
1794 2990
1794 3118
1794 3219
1794 3411
1794 3517
1794 3646
1794 4055
1794 4461
1794 4940
1794 4992
1795 1830
1795 2075
1795 2852
1795 3729
1795 3786
1795 4086
1795 4166
1795 4213
1795 4329
1795 4583
1795 4642
1795 4742
1795 4887
1795 4921
1796 1992
1796 2088
1796 2138
1796 2329
1796 2348
1796 2722
1796 2927
1796 3167
1796 3482
1796 4121
1796 4180
1796 4213
1796 4386
1796 4432
1796 4525
1796 4540
1796 4624
1796 4840
1797 1892
1797 1910
1797 2081
1797 2210
1797 2255
1797 2413
1797 2540
1797 2592
1797 3094
1797 3132
1797 3497
1797 3762
1797 3787
1797 3851
1797 4053
1797 4229
1797 4404
1797 4588
1797 4614
1797 4677
1797 4986
1798 1846
1798 1962
1798 2271
1798 2288
1798 2320
1798 2342
1798 2678
1798 2947
1798 3549
1798 3887
1798 4105
1798 4127
1798 4601
1798 4829
1799 2261
1799 2695
1799 2953
1799 3014
1799 3169
1799 3303
1799 3685
1799 3700
1799 3805
1799 3829
1799 4030
1799 4263
1799 4362
1799 4476
1799 4504
1799 4619
1799 4746
1799 4853
1800 2364
1800 2666
1800 2796
1800 3037
1800 3129
1800 3409
1800 3635
1800 4161
1800 4534
1800 4877
1801 2007
1801 2029
1801 2153
1801 2197
1801 2512
1801 2564
1801 2856
1801 2859
1801 3130
1801 3324
1801 3345
1801 4204
1802 1988
1802 2885
1802 3144
1802 3251
1802 3320
1802 3491
1802 3973
1802 4005
1802 4204
1802 4464
1802 4510
1802 4665
1802 4823
1802 4824
1803 1850
1803 1932
1803 2129
1803 2343
1803 2990
1803 3761
1803 4168
1803 4817
1804 1805
1804 2232
1804 2752
1804 3057
1804 3556
1804 3589
1804 3621
1804 3755
1804 4076
1804 4130
1804 4563
1804 4630
1805 2068
1805 2349
1805 3101
1805 3130
1805 3952
1805 4146
1806 1954
1806 2440
1806 2614
1806 3044
1806 3358
1806 3522
1806 3602
1806 4567
1807 1899
1807 2274
1807 2440
1807 2644
1807 2754
1807 2936
1807 3077
1807 3194
1807 3423
1807 4512
1807 4642
1807 4758
1807 4978
1808 1957
1808 2644
1808 2661
1808 3267
1808 3596
1808 3927
1808 4456
1808 4719
1809 3170
1809 3425
1809 3447
1809 3572
1809 3778
1809 4042
1809 4770
1810 2020
1810 2104
1810 2558
1810 2712
1810 2908
1810 2921
1810 2975
1810 3129
1810 3185
1810 3562
1810 3727
1810 4627
1811 2279
1811 2822
1811 3252
1811 3459
1811 3507
1811 3533
1811 3736
1811 4068
1812 1821
1812 1893
1812 2217
1812 2367
1812 2869
1812 2897
1812 3346
1812 3472
1812 3517
1812 3519
1812 3543
1812 3644
1812 3691
1812 3995
1812 4158
1812 4393
1812 4563
1812 4874
1812 4879
1812 4888
1813 1891
1813 1963
1813 2271
1813 2276
1813 2354
1813 2397
1813 2424
1813 2599
1813 2622
1813 2848
1813 3081
1813 3128
1813 3148
1813 3234
1813 3250
1813 3386
1813 3397
1813 3478
1813 3744
1813 3762
1813 3767
1813 3946
1813 4086
1813 4165
1813 4257
1813 4277
1813 4279
1813 4289
1813 4350
1813 4433
1813 4505
1813 4574
1813 4714
1813 4829
1813 4835
1813 4959
1813 4969
1814 1895
1814 2313
1814 2421
1814 2435
1814 2499
1814 2821
1814 3015
1814 3027
1814 3354
1814 3521
1814 3804
1814 3846
1814 3975
1814 3991
1814 4178
1814 4468
1814 4791
1814 4795
1815 2213
1815 2293
1815 2752
1815 2872
1815 3080
1815 3475
1815 3671
1815 3729
1815 3849
1815 3897
1815 4103
1815 4522
1816 1936
1816 2153
1816 2429
1816 2524
1816 3016
1816 3020
1816 3522
1816 4113
1816 4351
1816 4394
1816 4577
1816 4704
1816 4854
1817 2164
1817 2444
1817 3281
1817 3529
1817 3769
1817 3891
1817 4214
1818 2261
1818 2390
1818 3060
1818 3142
1818 3251
1818 3464
1818 3729
1818 3774
1818 3862
1818 3950
1818 3953
1818 4070
1818 4196
1819 2096
1819 2993
1819 3014
1819 3049
1819 3080
1819 3308
1819 4287
1819 4370
1819 4563
1819 4909
1820 2056
1820 2449
1820 2908
1820 3304
1820 3667
1820 3692
1820 4169
1820 4835
1821 2035
1821 2184
1821 2502
1821 2592
1821 3036
1821 3044
1821 3208
1821 3515
1821 3533
1821 3735
1821 3834
1821 3932
1821 4136
1821 4464
1821 4677
1822 2090
1822 2220
1822 2558
1822 2765
1822 2862
1822 3170
1822 3417
1822 3597
1822 3686
1822 3727
1822 3817
1822 4353
1822 4524
1822 4922
1823 1883
1823 2240
1823 2782
1823 3025
1823 3084
1823 3194
1823 3222
1823 3512
1823 4468
1823 4570
1824 1929
1824 2348
1824 2586
1824 2919
1824 3025
1824 3207
1824 3378
1824 3639
1824 3855
1824 4309
1824 4514
1825 1885
1825 2831
1825 3034
1825 3331
1825 3597
1825 3854
1825 4215
1825 4454
1825 4748
1825 4947
1826 2519
1826 2723
1826 3355
1826 3582
1826 3600
1826 4147
1826 4178
1826 4680
1826 4938
1827 1900
1827 1923
1827 2081
1827 2132
1827 2204
1827 2275
1827 2289
1827 2295
1827 2373
1827 2771
1827 2964
1827 3113
1827 3147
1827 3184
1827 3575
1827 4162
1827 4355
1827 4783
1828 2093
1828 2305
1828 2326
1828 2537
1828 2619
1828 3497
1828 4162
1829 1951
1829 1988
1829 2132
1829 2847
1829 3487
1829 3637
1830 1916
1830 1995
1830 2045
1830 2108
1830 2209
1830 2296
1830 2610
1830 2841
1830 3240
1830 3365
1830 3544
1830 4075
1830 4082
1830 4200
1830 4343
1830 4399
1830 4563
1830 4591
1830 4713
1831 2399
1831 2696
1831 3318
1831 4206
1831 4278
1831 4510
1831 4657
1831 4674
1832 1935
1832 2273
1832 2866
1832 2896
1832 2994
1832 3704
1832 4122
1832 4213
1832 4237
1832 4272
1832 4310
1832 4321
1832 4609
1832 4740
1832 4834
1833 1918
1833 2078
1833 2366
1833 2375
1833 2728
1833 3228
1833 3269
1833 3305
1833 3766
1833 4115
1833 4222
1834 2363
1834 2749
1834 3087
1834 3464
1834 3632
1834 3724
1834 3744
1834 4005
1834 4235
1834 4237
1834 4293
1834 4537
1835 1902
1835 1907
1835 2280
1835 2694
1835 2735
1835 2783
1835 2846
1835 2908
1835 2966
1835 3197
1835 3450
1835 3461
1835 3473
1835 3867
1835 3933
1835 3966
1835 4012
1835 4018
1835 4333
1835 4508
1835 4539
1835 4688
1835 4801
1836 3516
1836 3597
1836 3897
1836 3913
1836 4044
1836 4409
1836 4862
1836 4951
1837 2411
1837 2466
1837 2764
1837 3558
1837 3889
1837 4783
1837 4891
1838 1851
1838 1887
1838 2666
1838 2965
1838 3287
1838 3706
1838 3766
1838 4163
1838 4206
1838 4213
1838 4588
1838 4630
1838 4774
1838 4922
1839 2063
1839 2290
1839 3499
1839 3556
1839 4023
1839 4037
1839 4157
1839 4355
1839 4394
1840 2473
1840 3065
1840 3116
1840 3482
1840 3643
1840 3676
1840 3881
1840 4143
1840 4196
1840 4232
1840 4235
1840 4238
1840 4361
1840 4367
1840 4772
1840 4806
1841 1901
1841 1902
1841 3041
1841 3420
1841 3598
1841 3830
1841 3973
1841 4604
1842 2187
1842 2305
1842 2424
1842 2474
1842 2523
1842 2768
1842 3342
1842 3890
1842 4158
1842 4238
1842 4272
1843 1912
1843 2133
1843 2343
1843 2868
1843 2940
1843 3027
1843 3129
1843 3299
1843 3335
1843 3428
1843 4613
1843 4765
1843 4862
1844 2302
1844 2348
1844 3213
1844 4577
1844 4922
1845 2015
1845 2337
1845 2454
1845 2527
1845 2603
1845 2625
1845 4112
1845 4119
1845 4327
1845 4355
1846 1944
1846 2216
1846 2457
1846 2473
1846 2659
1846 2760
1846 3511
1846 3714
1846 3766
1846 3914
1846 3937
1846 4645
1846 4678
1846 4697
1846 4897
1847 2013
1847 2035
1847 2059
1847 2545
1847 2706
1847 2876
1847 4375
1847 4455
1848 2054
1848 2067
1848 2339
1848 2763
1848 3300
1848 3476
1848 3565
1848 3620
1848 3924
1848 4305
1848 4403
1848 4628
1848 4799
1848 4850
1848 4945
1849 2183
1849 2202
1849 2210
1849 2695
1849 2886
1849 3039
1849 3538
1849 4055
1849 4127
1849 4672
1849 4780
1850 1867
1850 1900
1850 1912
1850 1915
1850 1923
1850 1949
1850 1954
1850 2359
1850 2365
1850 2424
1850 2497
1850 2513
1850 2556
1850 2736
1850 2869
1850 2903
1850 2916
1850 2920
1850 3068
1850 3107
1850 3109
1850 3265
1850 3355
1850 3470
1850 3681
1850 3734
1850 3784
1850 3809
1850 3875
1850 3905
1850 3988
1850 4005
1850 4027
1850 4041
1850 4126
1850 4181
1850 4322
1850 4375
1850 4382
1850 4563
1850 4610
1850 4719
1850 4891
1851 2049
1851 2184
1851 2723
1851 3001
1851 3097
1851 3167
1851 3330
1851 3476
1851 3478
1851 3770
1851 3836
1851 3915
1851 4294
1851 4417
1851 4438
1851 4831
1852 1953
1852 3198
1852 3213
1852 3322
1852 3998
1852 4268
1852 4587
1852 4627
1852 4649
1852 4796
1852 4942
1853 1884
1853 2247
1853 2419
1853 2459
1853 2479
1853 2531
1853 2610
1853 2705
1853 3099
1853 3150
1853 3219
1853 3534
1853 3667
1853 3861
1853 3876
1853 3945
1853 3988
1853 4066
1853 4250
1853 4448
1853 4541
1853 4623
1853 4676
1853 4685
1853 4745
1853 4748
1853 4777
1854 1863
1854 1898
1854 2229
1854 2316
1854 2419
1854 2529
1854 2632
1854 2741
1854 2844
1854 2875
1854 2877
1854 3086
1854 3303
1854 3448
1854 3503
1854 3708
1854 3761
1854 3886
1854 4070
1854 4258
1854 4378
1854 4561
1854 4652
1854 4786
1854 4924
1854 4976
1855 1859
1855 1881
1855 1924
1855 2019
1855 2141
1855 2276
1855 2392
1855 2985
1855 3037
1855 3414
1855 3645
1855 4354
1855 4487
1855 4489
1855 4563
1855 4680
1855 4833
1856 1865
1856 2264
1856 2360
1856 2537
1856 2585
1856 2633
1856 2802
1856 3007
1856 3039
1856 3464
1856 3514
1856 4014
1857 1938
1857 2384
1857 2503
1857 2844
1857 2870
1857 2937
1857 3049
1857 3491
1857 3743
1857 3815
1857 3908
1857 3988
1857 4005
1857 4057
1857 4071
1857 4215
1857 4313
1857 4499
1857 4513
1857 4662
1857 4849
1857 4858
1858 2135
1858 2377
1858 2518
1858 2570
1858 3621
1858 3853
1858 3874
1858 4409
1858 4424
1858 4632
1859 2328
1859 2715
1859 3127
1859 3219
1859 3417
1859 3470
1859 3810
1859 4595
1859 4760
1860 2056
1860 2209
1860 2272
1860 2460
1860 2830
1860 3011
1860 3238
1860 3345
1860 3709
1860 3915
1860 4545
1860 4832
1860 4899
1861 1983
1861 2209
1861 2312
1861 2530
1861 2559
1861 4437
1861 4771
1861 4870
1862 3562
1862 3823
1862 4240
1862 4934
1863 2191
1863 2202
1863 2872
1863 2909
1863 3418
1863 3439
1863 4178
1863 4195
1863 4240
1863 4718
1863 4768
1863 4798
1863 4962
1864 2062
1864 2558
1864 2613
1864 2803
1864 3085
1864 3112
1864 3597
1864 3813
1864 4139
1864 4888
1865 1954
1865 1970
1865 1974
1865 2044
1865 2106
1865 2452
1865 3285
1865 3641
1865 4113
1865 4343
1865 4930
1866 1954
1866 2398
1866 2494
1866 2766
1866 3044
1866 3070
1866 3334
1866 3476
1866 3800
1866 4015
1866 4050
1866 4746
1867 2037
1867 2165
1867 2199
1867 2257
1867 2331
1867 2432
1867 2488
1867 3075
1867 3220
1867 3715
1867 3868
1867 4205
1867 4211
1867 4222
1867 4625
1867 4678
1867 4978
1868 2225
1868 2343
1868 2545
1868 2618
1868 2706
1868 3012
1868 3076
1868 3196
1868 3322
1868 3375
1868 3851
1868 4430
1868 4461
1868 4713
1868 4758
1869 2348
1869 2823
1869 3075
1869 3169
1869 3251
1869 3878
1869 4178
1869 4235
1869 4267
1869 4512
1869 4578
1870 1937
1870 1990
1870 2027
1870 2047
1870 2197
1870 2435
1870 2824
1870 2846
1870 2854
1870 3034
1870 3060
1870 3133
1870 3159
1870 3163
1870 3323
1870 3515
1870 3668
1870 4071
1870 4099
1870 4257
1870 4537
1870 4714
1870 4819
1871 2217
1871 2240
1871 2943
1871 3120
1871 3307
1871 4035
1871 4145
1871 4243
1871 4478
1872 1981
1872 2102
1872 2438
1872 3167
1872 3611
1872 3771
1872 3807
1872 4043
1872 4084
1872 4192
1872 4716
1873 2242
1873 2563
1873 2846
1873 3835
1873 4340
1873 4378
1873 4496
1873 4863
1873 4874
1874 1920
1874 1930
1874 1979
1874 2237
1874 2859
1874 3053
1874 3107
1874 3109
1874 3218
1874 3254
1874 3271
1874 3463
1874 3482
1874 3725
1874 3927
1874 4096
1874 4115
1874 4140
1874 4149
1874 4396
1874 4456
1874 4474
1874 4539
1874 4618
1874 4717
1875 1936
1875 1963
1875 2212
1875 2419
1875 2499
1875 2731
1875 2906
1875 2967
1875 3020
1875 3290
1875 3303
1875 3339
1875 3464
1875 3470
1875 3779
1875 3980
1875 4192
1875 4277
1875 4916
1876 1899
1876 3288
1876 3435
1876 3548
1876 3633
1876 3670
1876 3733
1876 3816
1876 4057
1876 4068
1876 4523
1876 4524
1876 4620
1876 4767
1876 4963
1877 2216
1877 2223
1877 2524
1877 2717
1877 2726
1877 3755
1877 3910
1877 4115
1877 4127
1877 4705
1877 4974
1878 2148
1878 2156
1878 2206
1878 2776
1878 3024
1878 3091
1878 3103
1878 3137
1878 3139
1878 3289
1878 3316
1878 3543
1878 3551
1878 3700
1878 4250
1878 4555
1878 4618
1878 4632
1879 2056
1879 2088
1879 2174
1879 2364
1879 2370
1879 2450
1879 2572
1879 2585
1879 2718
1879 2737
1879 2839
1879 2857
1879 2901
1879 2913
1879 2938
1879 2950
1879 3348
1879 3375
1879 3420
1879 3454
1879 3489
1879 3566
1879 3633
1879 3795
1879 3851
1879 3871
1879 4037
1879 4115
1879 4391
1879 4431
1879 4533
1879 4871
1880 2120
1880 2210
1880 2817
1880 3165
1880 3295
1880 3521
1880 3631
1880 3788
1880 3831
1880 4175
1880 4204
1880 4207
1881 2134
1881 2360
1881 2421
1881 2598
1881 3597
1881 4195
1881 4828
1882 2469
1882 2488
1882 2631
1882 2632
1882 2706
1882 2731
1882 2926
1882 3079
1882 3143
1882 3256
1882 3467
1882 3708
1882 3716
1882 3761
1882 3954
1882 3972
1882 4007
1882 4400
1882 4513
1882 4639
1882 4712
1883 1901
1883 2260
1883 2283
1883 2506
1883 2597
1883 2776
1883 2970
1883 3048
1883 3096
1883 3253
1883 3495
1883 3602
1883 4000
1883 4077
1883 4374
1883 4519
1883 4524
1883 4630
1883 4806
1884 2073
1884 2078
1884 2127
1884 2185
1884 2408
1884 2423
1884 2502
1884 2600
1884 2665
1884 2667
1884 2712
1884 2875
1884 2909
1884 2956
1884 3069
1884 3333
1884 3755
1884 3761
1884 3950
1884 4145
1884 4527
1884 4704
1884 4779
1885 2306
1885 2846
1885 3098
1885 3375
1885 3438
1885 3461
1885 3716
1885 3813
1885 4349
1885 4496
1885 4526
1885 4639
1885 4686
1885 4933
1886 2029
1886 2091
1886 2590
1886 2623
1886 2847
1886 3608
1886 4005
1886 4541
1886 4645
1887 1891
1887 1903
1887 1954
1887 2022
1887 2296
1887 2307
1887 2343
1887 2347
1887 2597
1887 2606
1887 2650
1887 2659
1887 2708
1887 2754
1887 2768
1887 2885
1887 2902
1887 3286
1887 3296
1887 3338
1887 3357
1887 3460
1887 3534
1887 3605
1887 3690
1887 3758
1887 3777
1887 3823
1887 3883
1887 4115
1887 4138
1887 4186
1887 4613
1887 4711
1887 4812
1887 4969
1888 2466
1888 2751
1888 2942
1888 3125
1888 3197
1888 3728
1888 3755
1888 4189
1888 4275
1888 4285
1888 4414
1888 4589
1888 4632
1888 4683
1889 2131
1889 2299
1889 2315
1889 2348
1889 2452
1889 2661
1889 2864
1889 2925
1889 2974
1889 2986
1889 3199
1889 3213
1889 3217
1889 3272
1889 3408
1889 3418
1889 3687
1889 3856
1889 3947
1889 4043
1889 4185
1889 4461
1889 4518
1889 4900
1889 4909
1890 1940
1890 1949
1890 2036
1890 2251
1890 2300
1890 2442
1890 2557
1890 2590
1890 2606
1890 2684
1890 3155
1890 3318
1890 3423
1890 3812
1890 3839
1890 3905
1890 3935
1890 4192
1890 4328
1891 1937
1891 1953
1891 2171
1891 2426
1891 2489
1891 2638
1891 2787
1891 2970
1891 3034
1891 3237
1891 3273
1891 3355
1891 3476
1891 3575
1891 3769
1891 3844
1891 3868
1891 3991
1891 4068
1891 4187
1891 4386
1891 4404
1891 4498
1891 4601
1891 4940
1892 2180
1892 2220
1892 2292
1892 2461
1892 2616
1892 2886
1892 2984
1892 3135
1892 3151
1892 3314
1892 3387
1892 3983
1892 3992
1892 4394
1892 4498
1892 4539
1892 4561
1892 4699
1892 4722
1892 4737
1892 4790
1892 4880
1893 1954
1893 2063
1893 2122
1893 2360
1893 2409
1893 2418
1893 2519
1893 2629
1893 2642
1893 2880
1893 3182
1893 3206
1893 3419
1893 3424
1893 3495
1893 3866
1893 3877
1893 4119
1893 4414
1893 4459
1893 4484
1893 4608
1893 4630
1893 4636
1893 4950
1893 4967
1894 1916
1894 1945
1894 1980
1894 2280
1894 2312
1894 2418
1894 2442
1894 2690
1894 2752
1894 3761
1894 4159
1894 4337
1894 4871
1895 1900
1895 1908
1895 2028
1895 2074
1895 2402
1895 2852
1895 3469
1895 3646
1895 3652
1895 3843
1895 3903
1895 4112
1895 4126
1895 4477
1895 4487
1895 4678
1895 4914
1896 1983
1896 1987
1896 1990
1896 2088
1896 2098
1896 2786
1896 2895
1896 2945
1896 3063
1896 3270
1896 3351
1896 3555
1896 3896
1896 4035
1896 4041
1896 4121
1896 4326
1896 4673
1896 4830
1897 1947
1897 1951
1897 2019
1897 2121
1897 2144
1897 2195
1897 3447
1897 4020
1897 4407
1897 4466
1897 4475
1897 4603
1897 4683
1897 4694
1897 4729
1897 4852
1897 4919
1898 1915
1898 2963
1898 3213
1898 3551
1898 3938
1898 4131
1898 4403
1898 4564
1898 4745
1898 4790
1898 4901
1899 1939
1899 1998
1899 2058
1899 2115
1899 2140
1899 2192
1899 2272
1899 2328
1899 2383
1899 2402
1899 2441
1899 2709
1899 2741
1899 2789
1899 2892
1899 2908
1899 3113
1899 3178
1899 3271
1899 3327
1899 3492
1899 3496
1899 3632
1899 3695
1899 3725
1899 3811
1899 3971
1899 4168
1899 4255
1899 4625
1899 4693
1899 4695
1899 4743
1900 2033
1900 2148
1900 2162
1900 2183
1900 3708
1900 3853
1900 3952
1900 4005
1900 4177
1900 4333
1900 4405
1900 4442
1900 4523
1900 4857
1900 4978
1901 2100
1901 2686
1901 3574
1901 4121
1901 4135
1901 4458
1902 1956
1902 1989
1902 2615
1902 2638
1902 2750
1902 4582
1902 4649
1903 2119
1903 2295
1903 2345
1903 3039
1903 3101
1903 3105
1903 3160
1903 3370
1903 3630
1903 3657
1903 3751
1903 3914
1903 4575
1903 4758
1903 4870
1904 2248
1904 2257
1904 2772
1904 2839
1904 3348
1904 3780
1904 3914
1904 4187
1904 4198
1904 4405
1905 2099
1905 2164
1905 2464
1905 2799
1905 2882
1905 2967
1905 3122
1905 3469
1905 3504
1905 3628
1905 3686
1905 4060
1905 4163
1905 4262
1905 4399
1905 4423
1905 4442
1905 4530
1906 1916
1906 2026
1906 2256
1906 2397
1906 2542
1906 3003
1906 3441
1906 4169
1906 4178
1906 4218
1906 4238
1906 4291
1906 4347
1906 4383
1906 4483
1906 4651
1906 4917
1907 1983
1907 2162
1907 2297
1907 2304
1907 2307
1907 2436
1907 3053
1907 3082
1907 3128
1907 3682
1907 3700
1907 3736
1907 3743
1907 3922
1907 3962
1907 4333
1907 4384
1907 4719
1907 4906
1908 2262
1908 2592
1908 3872
1908 4699
1909 2150
1909 2173
1909 2625
1909 3386
1909 3387
1909 3459
1909 4303
1909 4537
1909 4785
1910 2342
1910 2489
1910 3162
1910 3264
1910 3398
1910 3435
1910 3781
1910 3790
1910 3853
1910 4511
1910 4576
1910 4652
1911 1960
1911 2564
1911 2660
1911 2849
1911 3055
1911 3244
1911 3272
1911 3378
1911 3548
1911 3868
1911 3920
1911 4184
1911 4196
1911 4231
1911 4432
1911 4442
1911 4652
1912 2042
1912 2312
1912 2350
1912 2692
1912 2699
1912 2702
1912 2874
1912 2982
1912 3701
1912 3832
1912 4356
1912 4472
1912 4780
1913 2110
1913 2208
1913 2344
1913 2489
1913 2556
1913 2709
1913 2927
1913 2964
1913 2983
1913 2992
1913 3011
1913 3046
1913 3050
1913 3157
1913 3168
1913 3192
1913 3364
1913 3443
1913 3691
1913 4020
1913 4250
1913 4432
1913 4632
1913 4745
1913 4973
1914 2131
1914 2377
1914 2537
1914 2644
1914 2669
1914 2747
1914 3056
1914 3081
1914 3162
1914 3560
1914 3863
1914 3975
1914 4059
1914 4077
1914 4373
1914 4717
1914 4743
1914 4824
1914 4870
1915 1983
1915 2673
1915 2711
1915 3415
1915 4586
1916 1937
1916 1949
1916 2010
1916 2044
1916 2117
1916 2214
1916 2237
1916 2241
1916 2304
1916 2424
1916 2615
1916 2667
1916 2711
1916 2740
1916 2752
1916 2913
1916 3104
1916 3153
1916 3193
1916 3232
1916 3265
1916 3343
1916 3345
1916 3439
1916 3563
1916 3614
1916 3714
1916 3720
1916 3735
1916 3818
1916 3989
1916 4057
1916 4071
1916 4185
1916 4268
1916 4280
1916 4283
1916 4312
1916 4354
1916 4457
1916 4519
1916 4522
1916 4548
1916 4584
1916 4626
1916 4637
1916 4702
1916 4751
1916 4762
1916 4790
1916 4969
1917 1983
1917 2066
1917 2785
1917 2956
1917 3156
1917 3718
1917 3785
1917 3932
1917 3954
1917 4197
1917 4628
1918 2108
1918 2320
1918 2625
1918 2744
1918 2780
1918 2971
1918 3055
1918 3194
1918 3212
1918 3420
1918 3533
1918 3670
1918 3899
1918 4130
1918 4146
1918 4204
1918 4263
1918 4306
1918 4468
1918 4514
1918 4524
1918 4632
1918 4652
1918 4664
1918 4806
1919 2445
1919 2480
1919 2498
1919 2903
1919 2996
1919 3313
1919 3376
1919 3406
1919 3463
1919 3795
1919 4119
1919 4276
1919 4560
1920 1980
1920 1993
1920 2129
1920 2212
1920 2406
1920 2450
1920 2658
1920 2890
1920 3604
1920 3650
1920 3684
1920 3964
1920 4155
1920 4181
1920 4245
1920 4290
1920 4619
1920 4647
1920 4788
1920 4838
1920 4855
1920 4898
1921 2288
1921 2599
1921 2661
1921 2950
1921 2990
1921 3237
1921 3780
1921 4594
1921 4623
1921 4835
1921 4836
1922 1990
1922 2029
1922 2426
1922 2538
1922 3080
1922 3351
1922 3668
1922 4464
1923 2087
1923 2222
1923 2331
1923 2807
1923 2818
1923 2970
1923 3129
1923 3272
1923 3339
1923 3374
1923 3704
1923 3793
1923 3800
1923 4250
1923 4296
1923 4437
1923 4524
1923 4556
1923 4628
1923 4806
1923 4987
1924 2423
1924 2805
1924 3133
1924 3167
1924 3393
1924 3551
1924 4499
1925 2006
1925 2894
1925 3047
1925 3461
1925 3952
1925 4898
1926 2020
1926 2348
1926 2647
1926 3135
1926 3261
1926 3310
1926 3349
1927 1931
1927 2019
1927 2028
1927 2291
1927 2438
1927 3245
1927 4306
1928 2135
1928 2339
1928 2343
1928 3584
1928 4456
1928 4645
1928 4885
1928 4888
1929 1931
1929 1959
1929 2013
1929 2125
1929 2250
1929 2440
1929 2480
1929 2489
1929 2635
1929 2636
1929 2677
1929 2784
1929 2976
1929 3021
1929 3045
1929 3157
1929 3181
1929 3476
1929 3688
1929 3735
1929 3768
1929 3922
1929 3965
1929 4296
1929 4454
1929 4506
1929 4843
1929 4860
1929 4904
1930 2293
1930 2647
1930 3340
1930 3761
1930 3770
1930 3990
1930 4192
1930 4254
1930 4287
1930 4641
1930 4694
1931 2022
1931 2212
1931 2618
1931 2669
1931 3167
1931 3262
1931 3840
1931 3930
1931 4139
1931 4309
1931 4650
1931 4699
1931 4819
1932 1949
1932 2056
1932 2164
1932 2220
1932 2655
1932 2708
1932 3304
1932 3590
1932 4456
1932 4517
1932 4609
1932 4670
1932 4749
1932 4846
1933 2153
1933 2243
1933 2528
1933 3023
1933 3202
1933 3217
1933 3218
1933 3443
1933 3700
1933 3752
1933 3827
1933 4095
1933 4133
1933 4173
1933 4181
1933 4349
1933 4367
1933 4391
1933 4590
1933 4784
1933 4906
1934 2136
1934 2212
1934 2289
1934 2352
1934 2794
1934 2825
1934 3038
1934 3191
1934 3462
1934 3792
1934 3927
1934 4307
1934 4658
1935 2008
1935 2031
1935 2035
1935 2076
1935 2187
1935 2221
1935 2223
1935 2386
1935 2395
1935 2431
1935 2469
1935 2499
1935 2563
1935 2570
1935 2613
1935 2692
1935 2722
1935 3066
1935 3212
1935 3220
1935 3224
1935 3251
1935 3372
1935 3438
1935 3559
1935 3609
1935 3697
1935 3785
1935 3829
1935 3840
1935 3924
1935 3934
1935 3957
1935 3969
1935 4006
1935 4071
1935 4110
1935 4233
1935 4276
1935 4484
1935 4591
1935 4607
1935 4626
1935 4644
1935 4707
1935 4751
1935 4780
1935 4862
1935 4882
1935 4920
1935 4948
1935 4973
1936 2369
1936 2447
1936 2844
1936 3096
1936 3144
1936 3303
1936 3429
1936 3643
1936 3686
1936 4044
1936 4181
1936 4228
1936 4289
1936 4367
1936 4464
1936 4780
1937 1973
1937 2397
1937 2440
1937 2824
1937 2946
1937 2990
1937 3090
1937 3197
1937 3236
1937 3260
1937 3452
1937 3479
1937 3985
1937 4072
1937 4150
1937 4266
1937 4302
1937 4304
1937 4312
1937 4579
1937 4719
1938 1945
1938 2006
1938 2376
1938 2477
1938 2799
1938 3075
1938 3128
1938 3152
1938 3180
1938 3419
1938 3514
1938 3721
1938 3833
1938 3979
1938 4050
1938 4730
1939 2663
1939 3039
1939 4229
1940 2215
1940 2227
1940 3118
1940 3322
1940 3342
1940 3404
1940 3491
1940 3499
1940 3798
1940 3921
1940 3981
1940 4306
1940 4353
1940 4386
1941 1977
1941 2219
1941 2402
1941 2513
1941 2766
1941 2823
1941 2890
1941 3141
1941 3179
1941 3288
1941 3523
1941 3880
1941 4001
1941 4199
1941 4249
1941 4601
1941 4716
1942 1958
1942 2240
1942 2335
1942 2397
1942 2479
1942 2519
1942 3322
1942 3579
1942 3966
1942 3986
1942 4440
1942 4612
1942 4863
1943 1945
1943 2094
1943 2139
1943 2272
1943 2279
1943 2355
1943 2754
1943 3106
1943 3700
1943 4307
1943 4359
1944 2060
1944 2452
1944 2863
1944 3194
1944 3458
1944 4046
1944 4332
1944 4554
1944 4775
1945 1999
1945 2037
1945 2049
1945 2441
1945 2492
1945 2751
1945 2796
1945 2886
1945 2981
1945 3115
1945 3213
1945 3374
1945 3403
1945 3564
1945 3755
1945 3822
1945 4573
1945 4744
1946 2000
1946 2105
1946 2123
1946 2517
1946 2664
1946 3804
1946 3817
1946 4064
1946 4167
1946 4269
1946 4377
1946 4403
1946 4510
1946 4885
1947 2272
1947 2676
1947 2994
1947 3003
1947 3295
1947 3303
1947 3504
1947 3974
1947 3979
1947 4146
1947 4162
1947 4340
1947 4676
1948 2048
1948 2052
1948 2555
1948 2675
1948 2687
1948 3055
1948 3376
1948 3796
1948 3851
1948 4051
1948 4592
1949 2095
1949 2180
1949 2218
1949 2294
1949 2296
1949 2419
1949 2447
1949 2568
1949 2685
1949 2686
1949 2850
1949 2869
1949 2939
1949 2944
1949 2949
1949 2972
1949 3086
1949 3146
1949 3249
1949 3274
1949 3385
1949 3424
1949 3429
1949 3450
1949 3588
1949 3631
1949 3797
1949 3889
1949 3961
1949 4018
1949 4088
1949 4145
1949 4199
1949 4507
1949 4603
1949 4716
1949 4726
1949 4769
1949 4858
1949 4967
1950 2169
1950 2178
1950 2319
1950 2432
1950 2909
1950 3222
1950 3616
1950 3738
1950 4018
1950 4410
1950 4472
1951 2187
1951 2472
1951 2514
1951 2588
1951 2688
1951 3526
1951 3841
1951 4065
1951 4179
1951 4497
1951 4704
1951 4764
1951 4870
1951 4966
1952 2255
1952 3162
1952 3361
1952 3372
1952 4541
1952 4634
1953 2155
1953 2295
1953 2521
1953 2607
1953 2656
1953 2751
1953 3039
1953 3378
1953 3450
1953 3514
1953 3580
1953 3630
1953 3631
1953 3900
1953 4183
1953 4228
1953 4660
1954 2122
1954 2415
1954 2667
1954 2693
1954 2733
1954 2859
1954 2990
1954 3028
1954 3036
1954 3061
1954 3220
1954 3468
1954 3658
1954 3860
1954 3925
1954 3976
1954 4172
1954 4351
1954 4449
1954 4495
1954 4645
1955 2581
1955 2684
1955 2723
1955 2762
1955 3210
1955 3593
1955 3915
1955 4056
1955 4104
1955 4196
1955 4409
1956 2021
1956 2172
1956 2432
1956 2593
1956 2869
1956 3256
1956 3692
1956 3766
1956 4084
1956 4799
1957 2017
1957 2021
1957 2242
1957 2355
1957 2367
1957 2418
1957 2438
1957 2446
1957 2462
1957 2900
1957 2929
1957 2954
1957 3168
1957 3217
1957 3316
1957 3338
1957 3572
1957 4065
1957 4202
1957 4397
1957 4482
1957 4788
1958 1979
1958 2056
1958 2811
1958 3117
1958 3347
1958 3700
1958 4118
1958 4244
1959 2099
1959 2271
1959 2283
1959 2678
1959 2752
1959 2924
1959 3118
1959 3288
1959 3330
1959 3372
1959 3526
1959 3746
1959 3831
1959 3842
1959 4085
1959 4372
1959 4387
1959 4469
1959 4536
1959 4996
1960 2174
1960 2376
1960 2459
1960 2537
1960 2584
1960 2651
1960 2767
1960 2821
1960 2837
1960 3148
1960 3193
1960 3355
1960 3535
1960 3748
1960 3975
1960 4387
1960 4391
1960 4421
1960 4448
1960 4506
1960 4901
1961 2047
1961 2093
1961 2604
1961 3494
1961 3517
1961 3530
1961 3597
1961 3666
1961 3753
1961 3921
1961 4263
1961 4422
1961 4607
1961 4816
1961 4863
1962 2269
1962 2625
1962 2751
1962 2998
1962 3024
1962 3228
1962 3357
1962 3491
1962 3769
1962 4162
1962 4454
1962 4490
1962 4632
1962 4690
1963 2171
1963 2394
1963 2654
1963 2977
1963 3025
1963 3079
1963 3395
1963 3464
1963 3777
1963 3786
1963 3866
1963 4386
1963 4520
1963 4646
1964 2159
1964 2257
1964 3248
1964 3407
1964 3440
1964 3486
1964 3533
1964 3590
1964 4162
1964 4266
1964 4354
1964 4456
1964 4553
1964 4825
1964 4896
1965 1969
1965 2033
1965 2496
1965 2817
1965 2925
1965 3049
1965 3129
1965 3645
1965 4073
1965 4496
1965 4506
1965 4977
1965 4999
1966 1982
1966 1994
1966 2021
1966 2344
1966 2628
1966 2861
1966 2962
1966 3209
1966 4179
1966 4672
1967 2143
1967 2470
1967 2922
1967 2990
1967 3100
1967 3184
1967 3196
1967 3199
1967 3499
1967 3714
1967 3981
1967 4088
1967 4486
1967 4555
1967 4904
1968 2372
1968 2520
1968 2844
1968 3510
1968 4119
1968 4177
1968 4590
1968 4656
1968 4786
1969 2319
1969 2398
1969 2592
1969 2846
1969 2984
1969 3056
1969 3163
1969 4213
1969 4240
1969 4377
1969 4618
1969 4993
1970 2149
1970 2371
1970 2609
1970 2878
1970 3130
1970 3297
1970 3569
1970 3850
1970 4266
1970 4803
1970 4841
1971 2033
1971 2137
1971 2307
1971 3145
1971 3736
1971 4153
1971 4213
1971 4244
1971 4432
1971 4711
1972 2019
1972 2223
1972 3024
1972 3059
1972 3165
1972 3289
1972 3729
1972 3999
1972 4155
1972 4864
1973 2004
1973 2103
1973 2239
1973 2272
1973 2441
1973 2519
1973 2576
1973 2606
1973 2966
1973 3479
1973 3500
1973 3619
1973 3631
1973 3632
1973 3705
1973 3780
1973 4168
1973 4174
1973 4345
1973 4355
1973 4868
1974 2192
1974 2242
1974 3043
1974 3067
1974 3085
1974 3289
1974 3302
1974 3548
1974 3571
1974 3619
1974 3814
1974 3933
1974 3967
1974 4152
1974 4425
1974 4444
1974 4908
1974 4992
1975 2038
1975 2133
1975 2206
1975 2214
1975 2796
1975 2797
1975 2845
1975 3385
1975 3692
1975 4201
1975 4423
1975 4571
1976 2095
1976 2418
1976 2420
1976 2451
1976 2711
1976 3544
1976 3637
1976 4140
1976 4627
1976 4753
1976 4835
1976 4895
1976 4925
1976 4978
1977 2553
1977 2575
1977 2631
1977 2823
1977 2835
1977 3139
1977 3438
1977 4179
1977 4301
1977 4748
1977 4914
1978 2019
1978 2078
1978 2267
1978 2312
1978 2521
1978 2973
1978 3518
1978 3556
1978 4731
1979 2100
1979 2122
1979 2271
1979 2287
1979 2329
1979 2367
1979 2489
1979 2849
1979 3148
1979 3168
1979 3249
1979 3268
1979 3290
1979 3412
1979 3483
1979 3491
1979 3694
1979 4182
1979 4384
1979 4388
1979 4550
1979 4661
1979 4673
1979 4850
1979 4866
1979 4869
1979 4922
1979 4950
1980 2105
1980 2221
1980 2258
1980 2378
1980 2397
1980 2411
1980 2537
1980 2643
1980 2696
1980 2824
1980 2890
1980 2902
1980 3035
1980 3169
1980 3187
1980 3253
1980 3325
1980 3398
1980 3452
1980 3637
1980 3748
1980 3879
1980 3907
1980 4082
1980 4107
1980 4232
1980 4379
1980 4407
1980 4645
1980 4726
1980 4944
1980 4968
1981 2045
1981 2192
1981 2469
1981 2495
1981 3040
1981 3116
1981 3358
1981 3434
1981 3439
1981 3535
1981 3668
1981 3757
1981 3884
1981 3913
1981 4064
1981 4068
1981 4155
1981 4271
1981 4394
1981 4416
1981 4538
1981 4720
1981 4812
1982 2002
1982 2019
1982 2233
1982 2683
1982 2904
1982 3034
1982 3930
1982 4135
1982 4647
1982 4729
1982 4745
1983 2073
1983 2102
1983 2148
1983 2257
1983 2271
1983 2278
1983 2667
1983 2724
1983 2939
1983 3086
1983 3174
1983 3250
1983 3311
1983 3653
1983 3655
1983 3724
1983 3906
1983 4043
1983 4272
1983 4275
1983 4450
1983 4536
1983 4577
1983 4736
1983 4800
1983 4896
1984 2150
1984 2180
1984 2196
1984 2759
1984 2890
1984 2989
1984 3069
1984 3074
1984 3115
1984 3218
1984 3249
1984 3265
1984 3269
1984 3343
1984 3385
1984 3496
1984 3584
1984 3586
1984 3877
1984 4087
1984 4108
1984 4408
1984 4459
1984 4595
1984 4931
1985 2081
1985 2258
1985 2259
1985 2451
1985 2635
1985 2856
1985 2971
1985 3170
1985 3264
1985 3593
1985 3988
1985 4076
1985 4093
1985 4731
1985 4788
1986 2263
1986 2454
1986 2565
1986 2603
1986 2629
1986 2752
1986 4032
1986 4160
1986 4420
1986 4609
1986 4880
1987 2153
1987 2191
1987 2332
1987 3040
1987 3205
1987 3698
1987 3986
1987 4179
1987 4513
1987 4541
1987 4589
1987 4610
1988 2182
1988 2185
1988 2249
1988 2605
1988 2782
1988 3075
1988 3141
1988 3190
1988 3369
1988 3688
1988 4023
1988 4393
1988 4532
1988 4825
1989 2053
1989 2067
1989 2143
1989 2177
1989 2546
1989 2983
1989 3094
1989 3373
1989 3410
1989 3412
1989 3492
1989 3495
1989 3670
1989 3973
1989 3994
1989 4131
1989 4140
1989 4281
1989 4344
1989 4360
1990 2059
1990 2110
1990 2334
1990 2354
1990 2776
1990 3040
1990 3049
1990 3094
1990 3176
1990 3284
1990 3544
1990 3808
1990 3954
1990 3984
1990 4063
1990 4465
1990 4600
1990 4728
1990 4785
1991 2876
1991 3123
1991 3643
1991 3802
1991 4279
1991 4732
1991 4999
1992 2640
1992 2940
1992 2980
1992 3147
1992 3181
1992 4090
1992 4147
1992 4185
1993 2153
1993 2195
1993 3010
1993 4493
1993 4868
1994 3213
1994 3496
1994 3740
1994 4486
1994 4783
1995 2139
1995 2287
1995 2422
1995 2598
1995 2711
1995 2793
1995 2886
1995 2922
1995 3420
1995 4051
1995 4509
1995 4760
1995 4855
1996 2004
1996 2096
1996 2250
1996 2514
1996 2738
1996 2748
1996 2799
1996 2982
1996 3001
1996 3036
1996 3440
1996 3472
1996 4740
1996 4870
1997 2584
1997 2781
1997 2917
1997 2921
1997 3037
1997 3076
1997 3120
1997 3760
1997 4127
1998 2059
1998 2127
1998 2240
1998 3145
1998 3299
1998 3610
1998 3837
1998 3951
1998 4119
1998 4416
1998 4627
1998 4842
1999 2311
1999 3085
1999 3568
1999 3817
1999 4038
1999 4108
1999 4207
1999 4290
1999 4413
1999 4732
2000 2935
2000 2971
2000 2977
2000 3023
2000 3121
2000 3135
2000 3459
2000 3629
2000 4378
2000 4703
2001 2546
2001 2579
2001 2700
2001 2734
2001 4040
2001 4138
2001 4152
2001 4256
2001 4529
2001 4850
2002 2320
2002 2834
2002 3326
2002 3608
2002 4403
2002 4682
2002 4797
2003 2046
2003 2082
2003 2271
2003 2286
2003 2440
2003 2566
2003 2816
2003 3082
2003 3176
2003 3501
2003 3567
2003 3616
2003 3790
2003 3863
2003 4131
2003 4198
2003 4274
2003 4756
2003 4892
2003 4956
2004 2008
2004 2057
2004 2239
2004 2288
2004 2308
2004 2376
2004 2714
2004 3042
2004 3072
2004 3148
2004 3227
2004 3292
2004 3448
2004 4032
2004 4284
2004 4370
2004 4372
2004 4408
2004 4781
2004 4797
2004 4819
2004 4857
2005 2051
2005 2203
2005 2314
2005 2632
2005 2741
2005 2786
2005 2840
2005 2955
2005 3102
2005 3116
2005 4020
2005 4402
2005 4584
2005 4595
2005 4888
2006 2467
2006 2664
2006 3335
2006 3355
2006 3634
2006 3875
2006 4307
2006 4618
2006 4780
2006 4950
2007 2090
2007 2235
2007 2583
2007 2737
2007 2810
2007 2859
2007 3000
2007 3033
2007 3440
2007 3563
2007 3733
2007 4747
2008 2098
2008 3777
2008 4370
2008 4615
2009 2115
2009 2407
2009 2561
2009 2592
2009 3176
2009 3529
2009 3562
2009 3616
2009 4164
2009 4493
2009 4532
2009 4917
2010 2387
2010 2417
2010 2424
2010 3323
2010 3340
2010 3399
2010 3549
2010 3701
2010 4134
2010 4194
2010 4243
2010 4402
2010 4645
2010 4961
2011 2384
2011 3502
2011 3653
2011 3683
2011 3771
2011 3819
2011 3952
2011 4079
2011 4281
2011 4382
2011 4400
2011 4656
2011 4771
2012 2047
2012 2130
2012 2181
2012 2294
2012 3248
2012 3358
2012 3363
2012 3768
2012 4558
2012 4585
2012 4722
2012 4825
2013 2056
2013 2260
2013 2301
2013 2631
2013 2694
2013 3214
2013 3752
2013 4096
2013 4137
2013 4152
2013 4322
2014 2057
2014 2183
2014 2305
2014 2347
2014 2371
2014 2662
2014 3317
2014 3872
2014 4227
2014 4537
2014 4548
2014 4659
2014 4887
2014 4892
2015 2290
2015 2332
2015 2420
2015 2470
2015 2580
2015 2797
2015 3110
2015 3160
2015 3176
2015 3567
2015 3745
2015 3981
2015 4051
2015 4239
2015 4266
2015 4346
2015 4518
2015 4856
2016 2064
2016 2186
2016 2424
2016 2791
2016 3115
2016 3976
2016 4095
2016 4335
2016 4407
2016 4569
2017 2046
2017 2259
2017 2293
2017 2816
2017 3490
2017 3713
2017 4202
2017 4510
2017 4562
2017 4730
2018 3083
2018 3303
2018 3327
2018 3420
2018 3569
2018 3714
2018 3806
2018 3915
2018 4442
2019 2201
2019 2315
2019 2530
2019 2537
2019 2542
2019 2580
2019 2585
2019 2587
2019 2851
2019 2953
2019 3039
2019 3047
2019 3051
2019 3069
2019 3200
2019 3204
2019 3503
2019 3571
2019 3603
2019 3988
2019 4013
2019 4033
2019 4050
2019 4056
2019 4126
2019 4351
2019 4354
2019 4363
2019 4449
2019 4507
2019 4527
2019 4827
2019 4879
2019 4907
2019 4933
2020 2310
2020 2613
2020 2688
2020 2713
2020 3217
2020 3406
2020 3444
2020 3696
2020 3815
2020 3901
2020 4262
2020 4507
2020 4511
2021 2157
2021 2203
2021 2476
2021 2556
2021 2748
2021 2941
2021 3294
2021 3315
2021 3703
2021 3851
2021 4088
2021 4170
2021 4180
2021 4369
2021 4698
2021 4925
2022 2469
2022 2644
2022 2846
2022 2860
2022 3139
2022 3218
2022 3991
2022 4145
2022 4265
2022 4274
2022 4574
2022 4740
2023 2168
2023 2438
2023 2470
2023 2546
2023 2615
2023 2635
2023 2933
2023 3529
2023 3668
2023 3787
2023 3820
2023 4035
2023 4331
2023 4714
2023 4847
2023 4990
2024 2078
2024 2183
2024 2192
2024 2325
2024 2397
2024 2484
2024 2675
2024 2752
2024 2822
2024 2909
2024 3066
2024 3526
2024 3565
2024 3736
2024 4213
2024 4616
2024 4714
2024 4783
2025 2029
2025 2238
2025 2263
2025 2365
2025 2475
2025 2592
2025 3039
2025 3057
2025 3134
2025 3250
2025 3406
2025 3739
2025 3878
2025 3977
2025 4329
2025 4400
2025 4496
2025 4694
2025 4807
2026 2222
2026 2418
2026 2499
2026 2549
2026 2784
2026 3109
2026 3225
2026 3395
2026 4021
2026 4149
2026 4888
2027 2142
2027 2515
2027 2657
2027 3083
2027 3275
2027 4206
2027 4595
2028 2190
2028 2222
2028 2670
2028 2807
2028 2869
2028 2894
2028 3044
2028 3168
2028 3178
2028 3407
2028 3450
2028 3463
2028 3528
2028 3568
2028 3876
2028 4004
2028 4404
2028 4452
2028 4583
2028 4762
2028 4895
2028 4965
2028 4987
2029 2036
2029 2103
2029 2136
2029 2277
2029 2285
2029 2455
2029 2480
2029 2620
2029 2746
2029 2760
2029 2779
2029 2791
2029 2803
2029 2807
2029 2848
2029 2969
2029 3181
2029 3253
2029 3278
2029 3333
2029 3334
2029 3391
2029 3418
2029 3495
2029 3570
2029 3652
2029 3752
2029 3867
2029 3909
2029 3928
2029 3983
2029 3999
2029 4042
2029 4193
2029 4250
2029 4401
2029 4412
2029 4845
2030 2304
2030 2341
2030 2644
2030 2681
2030 2881
2030 2967
2030 3138
2030 3377
2030 3513
2030 3664
2030 4126
2030 4181
2030 4384
2030 4545
2030 4705
2030 4986
2031 2064
2031 2316
2031 2348
2031 2546
2031 2596
2031 2800
2031 2876
2031 2878
2031 3287
2031 3700
2031 3857
2031 4053
2031 4630
2031 4686
2031 4792
2031 4884
2032 2117
2032 2383
2032 2416
2032 2450
2032 3116
2032 3559
2032 3661
2032 4127
2032 4284
2032 4642
2032 4688
2033 2075
2033 2188
2033 2382
2033 2436
2033 2558
2033 3064
2033 3681
2033 3789
2034 2108
2034 2170
2034 2432
2034 2642
2034 2849
2034 4727
2034 4841
2034 4849
2034 4885
2034 4924
2035 2356
2035 2592
2035 2735
2035 3276
2035 3293
2035 3513
2035 3582
2035 3809
2035 4432
2035 4788
2035 4969
2036 2054
2036 2422
2036 2426
2036 2434
2036 2439
2036 2593
2036 2669
2036 2718
2036 2722
2036 2757
2036 2813
2036 2817
2036 2848
2036 2864
2036 2895
2036 2951
2036 3042
2036 3051
2036 3112
2036 3133
2036 3164
2036 3203
2036 3240
2036 3330
2036 3565
2036 3769
2036 3843
2036 3847
2036 4055
2036 4167
2036 4251
2036 4427
2036 4492
2036 4512
2036 4573
2036 4581
2036 4795
2036 4972
2037 2201
2037 2257
2037 2335
2037 2343
2037 2484
2037 3167
2037 3171
2037 3212
2037 3262
2037 3332
2037 3405
2037 3545
2037 4086
2037 4135
2037 4681
2037 4687
2038 2307
2038 2478
2038 2627
2038 3165
2038 3831
2038 4004
2038 4460
2038 4562
2038 4698
2038 4829
2039 2432
2039 2591
2039 2728
2039 2735
2039 2816
2039 3165
2039 3188
2039 3640
2039 3730
2039 4414
2039 4888
2040 2060
2040 2158
2040 2379
2040 2497
2040 2499
2040 2625
2040 2930
2040 3294
2040 4280
2040 4710
2040 4726
2040 4876
2040 4946
2041 2336
2041 2418
2041 2606
2041 2735
2041 2748
2041 2754
2041 2773
2041 2777
2041 2862
2041 2919
2041 3003
2041 3034
2041 3290
2041 3977
2041 4165
2041 4468
2041 4565
2041 4855
2042 2539
2042 3255
2042 3619
2042 3744
2042 3871
2042 3907
2042 4320
2042 4393
2042 4482
2042 4490
2042 4562
2042 4581
2042 4653
2043 2235
2043 2654
2043 2793
2043 3039
2043 3229
2043 3246
2043 3593
2043 3758
2043 4149
2043 4246
2043 4572
2043 4649
2043 4748
2043 4785
2044 2065
2044 2180
2044 2448
2044 2690
2044 2834
2044 2956
2044 3072
2044 3243
2044 3503
2044 3512
2044 3531
2044 3578
2044 3828
2044 3917
2044 3994
2044 4043
2044 4145
2044 4219
2044 4305
2045 2057
2045 2162
2045 2519
2045 2564
2045 2641
2045 2754
2045 2924
2045 3814
2045 4264
2045 4629
2045 4762
2046 2095
2046 2244
2046 2657
2046 3307
2046 3792
2046 4435
2046 4607
2046 4629
2046 4905
2047 2148
2047 2545
2047 2648
2047 2711
2047 4207
2047 4584
2047 4633
2047 4881
2048 2113
2048 2116
2048 2285
2048 2305
2048 2604
2048 2658
2048 2803
2048 3155
2048 3205
2048 3300
2048 3662
2048 3674
2048 3932
2048 4033
2048 4046
2048 4548
2048 4741
2049 2100
2049 2268
2049 2353
2049 2463
2049 2573
2049 2604
2049 2624
2049 2747
2049 2813
2049 2862
2049 2940
2049 3073
2049 3165
2049 3171
2049 3630
2049 3657
2049 3907
2049 3915
2049 3920
2049 3986
2049 4093
2049 4434
2049 4689
2049 4729
2049 4789
2049 4988
2050 2297
2050 2300
2050 2471
2050 2485
2050 2871
2050 3104
2050 3456
2050 3593
2050 3936
2050 3973
2050 4028
2050 4146
2050 4226
2050 4573
2050 4644
2050 4650
2050 4787
2050 4889
2051 2148
2051 2201
2051 2350
2051 2461
2051 2481
2051 2566
2051 2577
2051 2596
2051 3079
2051 3440
2051 3833
2051 4006
2051 4049
2051 4060
2051 4637
2051 4764
2052 2103
2052 2185
2052 2222
2052 2413
2052 2596
2052 2827
2052 2957
2052 2972
2052 3169
2052 3181
2052 3552
2052 3740
2052 3923
2052 3962
2052 4239
2052 4299
2052 4683
2052 4728
2052 4870
2052 4874
2053 2080
2053 2148
2053 2619
2053 2860
2053 3107
2053 3302
2053 3789
2053 3912
2053 4803
2053 4872
2054 2173
2054 3118
2054 3353
2054 3610
2054 3729
2054 4341
2054 4506
2054 4862
2055 2894
2055 3000
2055 3058
2055 3179
2055 3314
2055 4530
2055 4805
2055 4901
2056 2072
2056 2078
2056 2106
2056 2246
2056 2278
2056 2300
2056 2347
2056 2384
2056 2478
2056 2488
2056 2601
2056 2617
2056 2922
2056 3016
2056 3041
2056 3124
2056 3157
2056 3337
2056 3345
2056 3494
2056 3523
2056 3582
2056 3986
2056 3989
2056 4028
2056 4043
2056 4097
2056 4099
2056 4256
2056 4268
2056 4480
2056 4707
2056 4857
2056 4968
2057 2062
2057 2108
2057 2331
2057 2563
2057 2748
2057 2866
2057 3561
2057 3569
2057 3587
2057 4292
2057 4330
2057 4376
2057 4414
2058 2180
2058 2386
2058 2614
2058 2881
2058 3228
2058 3241
2058 3593
2058 3744
2058 3887
2058 4375
2058 4405
2058 4414
2058 4496
2058 4874
2059 2213
2059 2385
2059 2524
2059 2818
2059 2873
2059 3050
2059 3055
2059 3150
2059 3156
2059 3197
2059 3279
2059 3569
2059 3780
2059 3908
2059 4132
2059 4141
2059 4198
2059 4413
2060 2173
2060 3208
2060 3442
2060 3636
2060 3983
2060 4256
2060 4924
2061 2455
2061 2906
2061 3135
2061 3273
2061 4121
2061 4459
2061 4570
2061 4994
2062 2118
2062 2253
2062 2274
2062 2288
2062 2709
2062 2718
2062 2919
2062 3143
2062 3293
2062 3398
2062 3506
2062 3683
2062 3799
2062 3912
2062 3921
2062 4270
2062 4328
2062 4507
2062 4664
2062 4951
2062 4969
2062 4997
2063 2272
2063 2409
2063 2710
2063 2793
2063 3083
2063 3320
2063 3527
2063 3650
2063 3878
2063 3880
2063 3920
2063 3924
2063 4496
2063 4538
2063 4888
2063 4915
2064 2162
2064 2257
2064 3417
2064 3510
2064 3811
2064 4204
2064 4559
2064 4661
2065 2288
2065 2305
2065 2394
2065 2645
2065 2703
2065 2736
2065 2759
2065 2976
2065 3021
2065 3064
2065 3065
2065 3476
2065 3495
2065 3497
2065 3871
2065 4289
2065 4491
2065 4604
2065 4756
2066 2171
2066 2179
2066 2189
2066 2360
2066 2371
2066 2511
2066 2744
2066 2843
2066 3222
2066 3228
2066 3995
2066 4911
2066 4973
2067 2164
2067 2201
2067 2249
2067 2296
2067 2556
2067 2674
2067 3022
2067 3142
2067 3172
2067 3535
2067 4057
2067 4296
2067 4309
2067 4334
2067 4604
2067 4726
2067 4781
2067 4831
2068 2206
2068 2872
2068 2934
2068 3075
2068 3548
2068 3818
2068 4078
2068 4260
2068 4577
2068 4591
2068 4976
2069 2199
2069 2240
2069 2517
2069 2704
2069 3131
2069 3200
2069 3256
2069 3259
2069 3567
2069 3791
2069 3800
2069 3817
2069 4052
2069 4631
2069 4863
2070 2644
2070 2770
2070 2839
2070 2842
2070 2987
2070 3174
2070 3389
2070 3805
2070 4049
2070 4300
2070 4744
2071 2312
2071 3533
2071 3705
2071 3757
2071 3936
2071 4041
2071 4391
2071 4573
2071 4594
2071 4711
2071 4758
2072 2254
2072 2433
2072 2689
2072 2872
2072 3165
2072 3443
2072 3825
2072 4100
2073 2270
2073 2499
2073 2755
2073 2976
2073 3097
2073 3534
2073 3693
2073 3830
2073 4541
2073 4819
2073 4841
2074 2145
2074 2249
2074 2644
2074 2709
2074 2719
2074 2929
2074 2990
2074 3032
2074 3056
2074 3183
2074 3196
2074 3455
2074 3492
2074 3677
2074 4006
2074 4061
2074 4136
2074 4213
2074 4318
2074 4345
2074 4360
2074 4412
2074 4436
2074 4517
2074 4822
2075 2690
2075 2760
2075 3063
2075 3549
2075 3744
2075 3836
2075 4081
2075 4172
2075 4264
2075 4415
2075 4522
2075 4743
2076 2207
2076 2424
2076 2596
2076 2901
2076 3098
2076 3666
2076 4852
2076 4973
2077 2123
2077 2587
2077 2841
2077 3220
2077 4264
2077 4489
2077 4605
2077 4889
2077 4911
2078 2088
2078 2098
2078 2147
2078 2265
2078 2520
2078 2562
2078 2595
2078 2640
2078 2728
2078 2754
2078 2861
2078 3026
2078 3064
2078 3246
2078 3268
2078 3325
2078 3328
2078 3353
2078 3382
2078 3578
2078 3818
2078 3835
2078 3889
2078 4008
2078 4079
2078 4246
2078 4330
2078 4727
2078 4730
2078 4794
2078 4834
2078 4969
2078 4970
2079 2319
2079 2574
2079 2585
2079 4127
2079 4414
2079 4691
2079 4870
2080 2509
2080 2670
2080 3431
2080 3782
2080 3818
2080 4121
2080 4844
2081 2267
2081 2275
2081 2610
2081 2648
2081 2735
2081 2754
2081 2973
2081 3113
2081 3146
2081 3264
2081 3347
2081 3572
2081 3586
2081 3627
2081 3636
2081 3678
2081 3916
2081 4378
2081 4425
2081 4434
2081 4552
2081 4774
2081 4796
2081 4823
2081 4908
2081 4955
2082 2338
2082 2488
2082 2510
2082 2561
2082 2629
2082 3069
2082 3710
2082 4049
2082 4302
2082 4439
2082 4547
2083 2312
2083 2313
2083 2357
2083 2454
2083 2991
2083 3336
2083 3418
2083 3475
2083 3994
2083 4124
2083 4469
2083 4658
2083 4670
2083 4794
2083 4927
2084 2195
2084 2287
2084 2440
2084 2500
2084 2582
2084 2859
2084 3620
2084 4298
2084 4323
2084 4951
2084 4974
2085 2187
2085 2336
2085 2738
2085 3038
2085 3449
2085 3450
2085 3814
2085 3901
2085 3936
2085 4066
2085 4071
2085 4337
2085 4696
2086 2151
2086 2240
2086 2281
2086 2635
2086 3045
2086 3098
2086 3102
2086 3260
2086 3355
2086 3402
2086 3536
2086 4371
2086 4388
2086 4461
2086 4645
2086 4709
2086 4768
2086 4928
2086 4944
2087 2272
2087 3062
2087 3135
2087 3139
2087 3293
2087 3596
2087 3725
2087 3828
2087 3947
2087 3998
2087 4691
2087 4886
2087 4950
2088 2272
2088 2914
2088 3387
2088 3625
2088 4064
2088 4198
2088 4323
2088 4553
2088 4886
2088 4973
2089 2358
2089 2599
2089 3091
2089 3303
2089 3737
2089 4088
2089 4372
2089 4719
2090 2271
2090 2470
2090 2574
2090 3045
2090 3187
2090 3428
2090 3630
2090 3766
2090 4072
2090 4496
2090 4596
2090 4900
2091 2336
2091 2385
2091 2467
2091 2599
2091 2602
2091 2711
2091 2723
2091 2861
2091 2914
2091 3729
2091 3736
2091 3850
2091 3853
2091 3945
2091 4082
2091 4618
2091 4828
2091 4959
2092 2195
2092 2784
2092 2885
2092 2983
2092 3090
2092 3409
2092 3446
2092 3468
2092 3543
2092 4127
2092 4137
2092 4415
2092 4639
2092 4642
2093 2209
2093 2271
2093 2374
2093 2825
2093 2907
2093 2981
2093 3005
2093 3011
2093 3124
2093 3207
2093 3254
2093 3373
2093 3385
2093 3694
2093 3814
2093 3871
2093 3940
2093 3978
2093 4024
2093 4197
2093 4283
2093 4363
2093 4603
2093 4744
2094 2173
2094 2252
2094 2840
2094 3039
2094 3564
2094 3888
2094 3932
2094 3983
2094 4006
2094 4150
2094 4312
2094 4808
2095 2558
2095 2575
2095 2913
2095 2925
2095 3058
2095 3276
2095 3428
2095 3549
2095 3631
2095 3769
2095 3770
2095 4327
2095 4721
2096 2401
2096 2457
2096 2464
2096 2534
2096 2695
2096 3075
2096 3135
2096 3203
2096 3261
2096 3546
2096 3648
2096 3960
2096 4121
2096 4434
2096 4638
2096 4702
2096 4938
2096 4954
2096 4995
2097 2373
2097 2992
2097 3545
2097 3588
2097 3598
2097 3769
2097 4183
2097 4698
2097 4722
2098 2487
2098 2584
2098 3428
2098 3634
2098 3729
2098 3959
2098 4196
2098 4392
2098 4695
2098 4718
2098 4839
2098 4855
2099 2420
2099 2691
2099 2786
2099 3170
2099 3277
2099 3334
2099 3534
2099 3729
2099 3867
2099 4038
2099 4143
2099 4259
2099 4462
2099 4856
2100 2246
2100 2685
2100 2847
2100 2952
2100 3116
2100 3283
2100 3378
2100 3574
2100 3675
2100 3702
2100 3822
2100 3916
2100 4146
2100 4169
2100 4833
2100 4940
2101 2108
2101 2144
2101 2361
2101 2642
2101 2864
2101 3204
2101 3585
2101 3703
2101 4070
2101 4420
2101 4692
2101 4722
2101 4854
2102 2210
2102 2470
2102 3128
2102 3476
2102 4103
2102 4380
2102 4560
2103 3089
2103 3204
2103 3276
2103 3352
2103 3595
2103 3872
2103 4006
2103 4571
2104 3327
2104 3523
2104 3626
2104 3670
2104 3685
2104 4207
2104 4635
2104 4779
2104 4797
2104 4847
2105 2519
2105 2661
2105 3016
2105 3202
2105 3551
2105 3956
2105 4033
2105 4807
2106 2315
2106 2558
2106 2698
2106 3142
2106 3209
2106 3249
2106 3283
2106 3421
2106 3593
2107 2457
2107 3038
2107 3398
2107 3596
2107 3742
2107 3787
2107 4065
2108 2210
2108 2340
2108 2427
2108 2870
2108 3035
2108 3168
2108 3240
2108 3502
2108 3565
2108 3731
2108 3880
2108 4062
2108 4158
2108 4184
2108 4195
2108 4301
2108 4550
2108 4650
2108 4792
2108 4992
2109 2512
2109 3625
2109 3846
2109 3898
2109 4475
2109 4589
2109 4603
2109 4728
2109 4742
2109 4975
2110 2145
2110 2743
2110 2869
2110 3288
2110 3796
2110 3867
2110 3918
2110 4053
2110 4073
2110 4238
2110 4518
2110 4738
2110 4938
2111 2143
2111 2260
2111 2313
2111 2619
2111 2786
2111 2962
2111 2971
2111 3068
2111 3176
2111 3674
2111 3913
2111 4131
2111 4462
2111 4468
2111 4515
2111 4846
2112 2718
2112 3089
2112 3581
2112 3622
2112 4264
2112 4499
2112 4594
2112 4863
2113 2156
2113 2185
2113 2345
2113 2389
2113 2876
2113 2992
2113 3064
2113 3324
2113 3577
2113 3661
2113 3742
2113 3751
2113 3982
2113 4016
2113 4126
2113 4214
2113 4626
2113 4841
2114 2117
2114 2269
2114 2528
2114 2794
2114 2827
2114 3077
2114 3440
2114 3914
2114 4012
2114 4375
2114 4450
2114 4459
2114 4464
2114 4649
2114 4781
2114 4886
2114 4889
2114 4911
2114 4978
2115 2175
2115 2233
2115 2268
2115 2298
2115 2366
2115 3009
2115 3126
2115 3348
2115 3355
2115 3485
2115 4069
2115 4155
2115 4292
2115 4523
2115 4550
2115 4607
2115 4623
2115 4678
2115 4696
2115 4709
2115 4780
2115 4829
2115 4846
2115 4875
2115 4916
2115 4973
2116 2396
2116 2592
2116 2666
2116 2894
2116 4761
2116 4905
2117 2346
2117 2364
2117 2471
2117 3568
2117 3595
2117 3625
2117 4037
2117 4432
2117 4645
2117 4823
2117 4869
2117 4934
2117 4987
2118 2143
2118 2216
2118 2510
2118 2862
2118 2874
2118 3148
2118 3853
2118 4068
2118 4173
2119 2392
2119 3016
2119 3253
2119 3296
2119 3490
2119 3712
2119 4171
2119 4326
2119 4382
2119 4566
2120 2216
2120 2492
2120 2571
2120 2858
2120 3028
2120 3140
2120 3185
2120 3207
2120 3497
2120 3998
2120 4281
2120 4459
2120 4497
2121 2345
2121 2397
2121 2616
2121 2996
2121 3201
2121 3767
2121 3798
2121 3805
2121 3858
2121 4170
2121 4645
2121 4652
2121 4711
2121 4870
2121 4996
2122 2213
2122 2320
2122 2553
2122 2712
2122 2909
2122 3007
2122 3055
2122 3148
2122 3203
2122 3358
2122 3595
2122 4119
2122 4351
2122 4570
2122 4780
2123 2266
2123 2307
2123 2472
2123 2517
2123 2611
2123 3192
2123 3272
2123 3446
2123 3549
2123 3600
2123 3940
2123 4126
2123 4183
2123 4474
2123 4482
2123 4597
2123 4944
2123 4947
2124 2173
2124 2299
2124 2308
2124 2798
2124 2812
2124 2915
2124 3017
2124 3448
2124 3939
2124 4560
2124 4594
2124 4686
2124 4884
2125 2367
2125 3264
2125 3378
2125 3464
2125 3530
2125 3792
2125 4769
2126 2419
2126 2558
2126 2866
2126 2959
2126 3056
2126 3343
2126 3615
2126 3796
2126 4028
2126 4085
2126 4198
2126 4220
2126 4375
2126 4638
2127 2504
2127 2521
2127 3497
2127 4623
2127 4983
2128 2334
2128 2390
2128 2471
2128 2550
2128 2958
2128 3825
2128 4416
2128 4905
2129 2431
2129 2488
2129 2604
2129 2655
2129 3013
2129 3222
2129 3302
2129 3373
2129 4375
2129 4533
2130 2205
2130 2500
2130 2592
2130 2944
2130 2960
2130 3003
2130 3288
2130 3477
2130 3970
2130 3998
2130 4567
2130 4571
2130 4856
2131 2244
2131 2305
2131 2340
2131 2522
2131 2759
2131 2900
2131 3102
2131 3973
2131 4490
2132 2443
2132 2768
2132 2776
2132 3077
2132 3177
2132 3241
2132 3285
2132 3331
2132 3570
2132 3727
2132 3750
2132 3859
2132 4049
2132 4096
2132 4155
2132 4233
2132 4480
2132 4720
2133 2156
2133 2265
2133 2313
2133 2415
2133 2531
2133 2842
2133 3503
2133 3644
2133 3786
2133 3883
2133 4079
2133 4160
2133 4351
2133 4473
2133 4613
2133 4677
2133 4684
2133 4722
2133 4823
2134 2145
2134 2509
2134 2644
2134 2715
2134 3201
2134 3251
2134 3344
2134 3585
2134 3921
2134 4070
2134 4133
2134 4501
2134 4643
2135 2617
2135 3851
2135 4185
2135 4200
2135 4211
2135 4414
2135 4721
2135 4862
2136 2147
2136 2315
2136 2385
2136 2553
2136 2643
2136 4061
2136 4289
2137 2305
2137 2579
2137 2735
2137 3008
2137 3492
2137 3922
2137 4375
2137 4459
2137 4742
2138 2386
2138 2439
2138 2468
2138 2604
2138 3166
2138 3451
2138 3557
2138 3915
2138 4496
2138 4701
2138 4936
2138 4952
2139 2737
2139 2881
2139 3268
2139 3470
2139 3527
2139 3533
2139 3668
2139 3735
2139 3769
2139 3792
2139 3866
2139 4455
2139 4690
2139 4931
2140 2173
2140 2182
2140 2538
2140 2569
2140 2623
2140 2794
2140 2967
2140 3017
2140 3078
2140 3311
2140 3525
2140 3553
2140 3711
2140 3723
2140 3787
2140 3994
2140 4048
2140 4091
2140 4209
2140 4220
2140 4431
2140 4541
2141 2437
2141 3831
2141 4772
2141 4817
2141 4964
2142 2276
2142 2791
2142 3168
2142 3479
2142 3529
2142 3687
2142 3921
2142 4019
2142 4204
2142 4580
2142 4966
2143 2147
2143 2154
2143 2226
2143 2353
2143 2414
2143 2673
2143 2724
2143 2776
2143 2827
2143 2935
2143 2964
2143 3075
2143 3131
2143 3206
2143 3212
2143 3314
2143 3326
2143 3476
2143 3560
2143 3836
2143 4104
2143 4182
2143 4281
2143 4355
2143 4382
2143 4389
2143 4406
2143 4493
2143 4520
2143 4582
2143 4619
2143 4671
2144 2489
2144 3314
2144 3572
2144 3672
2144 4333
2144 4388
2144 4592
2144 4661
2144 4666
2145 2186
2145 2413
2145 2414
2145 2427
2145 2435
2145 2436
2145 2490
2145 2566
2145 2569
2145 2578
2145 2594
2145 2704
2145 2711
2145 2725
2145 2804
2145 2872
2145 2918
2145 3113
2145 3265
2145 3266
2145 3282
2145 3290
2145 3434
2145 3515
2145 3566
2145 3737
2145 3758
2145 3759
2145 3771
2145 3870
2145 3965
2145 4003
2145 4062
2145 4302
2145 4402
2145 4454
2145 4495
2145 4496
2145 4618
2145 4847
2145 4867
2145 4941
2145 4975
2145 4992
2146 2163
2146 2499
2146 2513
2146 2607
2146 2641
2146 2697
2146 3536
2146 3569
2146 3854
2146 4237
2146 4388
2146 4450
2146 4712
2146 4732
2146 4890
2147 2158
2147 2291
2147 2723
2147 2985
2147 3500
2147 3525
2147 3656
2147 3674
2147 3733
2147 4206
2147 4543
2147 4675
2147 4957
2148 2209
2148 2300
2148 2306
2148 2332
2148 2518
2148 2540
2148 2871
2148 2888
2148 3240
2148 3265
2148 3347
2148 3399
2148 3460
2148 3506
2148 3552
2148 3787
2148 3789
2148 3797
2148 3851
2148 4117
2148 4716
2148 4774
2148 4918
2148 4981
2149 2241
2149 2259
2149 2348
2149 2453
2149 2476
2149 2574
2149 3595
2149 3847
2149 4493
2149 4508
2150 2456
2150 3076
2150 3114
2150 3131
2150 3135
2150 3692
2150 4073
2150 4135
2150 4140
2150 4204
2150 4453
2150 4535
2150 4602
2150 4654
2151 2173
2151 2385
2151 2488
2151 2685
2151 2717
2151 2837
2151 3079
2151 3578
2151 4538
2151 4737
2152 2300
2152 2371
2152 2675
2152 2788
2152 3455
2152 3545
2152 3551
2152 3643
2152 3669
2152 3921
2152 3999
2152 4405
2152 4436
2152 4927
2153 2385
2153 2551
2153 2759
2153 3000
2153 3183
2153 3318
2153 3501
2153 3998
2153 4103
2153 4193
2153 4372
2153 4686
2154 2971
2154 3297
2154 3382
2154 3690
2154 3758
2154 3789
2154 3953
2154 3957
2154 4850
2154 4995
2155 2224
2155 2526
2155 2632
2155 2677
2155 3038
2155 3113
2155 3140
2155 3212
2155 3536
2155 4672
2155 4730
2156 2400
2156 2433
2156 2523
2156 2544
2156 2792
2156 2795
2156 2927
2156 3039
2156 3208
2156 3548
2156 3855
2156 4071
2156 4080
2156 4730
2156 4803
2156 4877
2156 4936
2157 2214
2157 2363
2157 2512
2157 2515
2157 2598
2157 2644
2157 2967
2157 3076
2157 3232
2157 3253
2157 3373
2157 3464
2157 3492
2157 4204
2157 4309
2157 4606
2157 4771
2157 4920
2158 2201
2158 2362
2158 2368
2158 2414
2158 2484
2158 2566
2158 2995
2158 3080
2158 3180
2158 3182
2158 3305
2158 3308
2158 3461
2158 3603
2158 4099
2158 4119
2158 4496
2158 4729
2158 4976
2159 2235
2159 2711
2159 3068
2159 3218
2159 3238
2159 3456
2159 3633
2159 4338
2159 4374
2159 4401
2159 4718
2160 2359
2160 2655
2160 2767
2160 3543
2160 3759
2160 3846
2160 3864
2160 4121
2160 4236
2160 4503
2160 4637
2160 4661
2161 2333
2161 2688
2161 2774
2161 3114
2161 3116
2161 3502
2161 3907
2161 4121
2161 4177
2161 4604
2161 4794
2161 4973
2162 2174
2162 2194
2162 2224
2162 2279
2162 2343
2162 2346
2162 2467
2162 2787
2162 2914
2162 3157
2162 3159
2162 3189
2162 3281
2162 3730
2162 3842
2162 3860
2162 4018
2162 4037
2162 4084
2162 4218
2162 4490
2162 4663
2162 4719
2162 4735
2162 4741
2162 4801
2162 4809
2162 4816
2162 4975
2163 2224
2163 2313
2163 2354
2163 2518
2163 2849
2163 2984
2163 3045
2163 3097
2163 3100
2163 3571
2163 3709
2163 3817
2163 3902
2163 3986
2163 3994
2163 4030
2163 4040
2163 4191
2163 4206
2163 4425
2163 4556
2163 4562
2163 4564
2163 4575
2163 4591
2163 4888
2163 4947
2164 2219
2164 2363
2164 2854
2164 3082
2164 3191
2164 3270
2164 3360
2164 3476
2164 3479
2164 3585
2164 3810
2164 3872
2164 4085
2164 4128
2164 4142
2164 4291
2164 4411
2164 4772
2165 2187
2165 2466
2165 2722
2165 3168
2165 3194
2165 3505
2165 3600
2165 3849
2165 4464
2165 4533
2166 2675
2166 2748
2166 3076
2166 3290
2166 3412
2166 3824
2166 4234
2166 4273
2166 4519
2166 4891
2167 2213
2167 2650
2167 2758
2167 2917
2167 2950
2167 3135
2167 3303
2167 3358
2167 3374
2167 3439
2167 3600
2167 3700
2167 3771
2167 3907
2167 3974
2167 4153
2167 4366
2167 4765
2167 4971
2168 2431
2168 2437
2168 2460
2168 2542
2168 2610
2168 2958
2168 3007
2168 3063
2168 3272
2168 3281
2168 3313
2168 3410
2168 3426
2168 3497
2168 3513
2168 3670
2168 4088
2168 4307
2168 4412
2168 4435
2168 4870
2168 4940
2169 2397
2169 2487
2169 2620
2169 3139
2169 3760
2169 4176
2169 4305
2169 4679
2169 4697
2170 2196
2170 2287
2170 2586
2170 2673
2170 2888
2170 2999
2170 3028
2170 3230
2170 3380
2170 3481
2170 3548
2170 3654
2170 3845
2170 4380
2170 4423
2170 4507
2171 2330
2171 2577
2171 2662
2171 3194
2171 3689
2171 3804
2171 3840
2171 3863
2171 4284
2171 4343
2171 4603
2171 4630
2171 4667
2171 4854
2172 2406
2172 3047
2172 3355
2172 3461
2172 3464
2172 4069
2172 4116
2172 4240
2173 2582
2173 2829
2173 3127
2173 3772
2173 3871
2174 2178
2174 2360
2174 2441
2174 2611
2174 2730
2174 2852
2174 3314
2174 3463
2174 3585
2174 4414
2174 4459
2174 4555
2174 4595
2174 4742
2174 4772
2175 3395
2175 3464
2175 3862
2175 3998
2175 4284
2175 4695
2176 2604
2176 2837
2176 2960
2176 3424
2176 4085
2176 4143
2176 4250
2177 2178
2177 2306
2177 2402
2177 2451
2177 2486
2177 2872
2177 2959
2177 3045
2177 3170
2177 3244
2177 3356
2177 3441
2177 3553
2177 3625
2177 4008
2177 4083
2177 4140
2177 4880
2177 4938
2177 4953
2178 2357
2178 2358
2178 2466
2178 2886
2178 3820
2178 3840
2178 3863
2178 3890
2178 4070
2178 4467
2178 4746
2178 4789
2178 4971
2179 2320
2179 2641
2179 3075
2179 3475
2179 3663
2179 4256
2179 4268
2179 4639
2179 4729
2180 2319
2180 2348
2180 2364
2180 2772
2180 2970
2180 3311
2180 3771
2180 3880
2180 4189
2180 4550
2180 4670
2180 4781
2180 4785
2180 4978
2181 2203
2181 2266
2181 2350
2181 2435
2181 2888
2181 3130
2181 3162
2181 3456
2181 3494
2181 3563
2181 3733
2181 3945
2181 3994
2181 4238
2181 4263
2181 4276
2181 4315
2181 4318
2181 4398
2181 4765
2181 4829
2182 2350
2182 2377
2182 2438
2182 2859
2182 3088
2182 3116
2182 3168
2182 3288
2182 3407
2182 3468
2182 3567
2182 3704
2182 3769
2182 3992
2182 4223
2182 4375
2182 4378
2182 4577
2182 4790
2183 2663
2183 2930
2183 3661
2183 4237
2183 4612
2183 4961
2184 2440
2184 2655
2184 2876
2184 3113
2184 3588
2184 3690
2184 3973
2184 4172
2184 4382
2184 4858
2185 2343
2185 2600
2185 2667
2185 2722
2185 2872
2185 2896
2185 3592
2185 3639
2185 4706
2185 4734
2185 4973
2186 2434
2186 2550
2186 2768
2186 2861
2186 3467
2186 3590
2186 3814
2186 4113
2186 4310
2186 4532
2186 4711
2187 2258
2187 2469
2187 2726
2187 3281
2187 4024
2187 4098
2187 4102
2187 4145
2187 4336
2187 4645
2187 4973
2188 2207
2188 3193
2188 3217
2188 3338
2188 3700
2188 3872
2188 3917
2188 3972
2188 4060
2188 4693
2188 4785
2189 2320
2189 2339
2189 2888
2189 2960
2189 3075
2189 3295
2189 3630
2189 3750
2189 4802
2189 4847
2189 4894
2190 2273
2190 2440
2190 2675
2190 2942
2190 3057
2190 3153
2190 3192
2190 4052
2190 4117
2190 4466
2190 4605
2190 4654
2190 4832
2191 2266
2191 2364
2191 2469
2191 2538
2191 2666
2191 3050
2191 3202
2191 3240
2191 3429
2191 3528
2191 3952
2191 4163
2191 4368
2191 4481
2191 4834
2192 2219
2192 2653
2192 2954
2192 3002
2192 3003
2192 3149
2192 3464
2192 3495
2192 3509
2192 3587
2192 3637
2192 3760
2192 4567
2193 2661
2193 3028
2193 3082
2193 3182
2193 3207
2193 3957
2193 4008
2193 4048
2193 4221
2193 4498
2193 4734
2193 4783
2193 4903
2194 2199
2194 2471
2194 2935
2194 2991
2194 2998
2194 3008
2194 3140
2194 3569
2194 4147
2194 4284
2194 4523
2194 4667
2195 2311
2195 2482
2195 2876
2195 2998
2195 3096
2195 3460
2195 3498
2195 3715
2195 3896
2195 4042
2195 4517
2195 4518
2195 4836
2195 4976
2195 4984
2196 2331
2196 2912
2196 3048
2196 3439
2196 3573
2196 3583
2196 3595
2196 3782
2196 3826
2196 4026
2196 4071
2196 4077
2196 4199
2196 4234
2196 4240
2196 4312
2196 4390
2196 4428
2196 4467
2196 4514
2196 4524
2196 4590
2196 4595
2197 2257
2197 2267
2197 2376
2197 2397
2197 2764
2197 3116
2197 3122
2197 3167
2197 3277
2197 3862
2197 3953
2197 3979
2197 4196
2197 4697
2197 4842
2198 2469
2198 2587
2198 2919
2198 3135
2198 3626
2198 3798
2198 3827
2198 4077
2198 4240
2198 4345
2198 4618
2199 2383
2199 2385
2199 2467
2199 2703
2199 3065
2199 3702
2199 3709
2199 3880
2199 4213
2199 4618
2200 2685
2200 2804
2200 2989
2200 3076
2200 3384
2200 3906
2200 4391
2200 4421
2200 4456
2200 4484
2200 4621
2200 4757
2200 4760
2200 4790
2201 2210
2201 2252
2201 2264
2201 2375
2201 2462
2201 2670
2201 2786
2201 2855
2201 2875
2201 3140
2201 3339
2201 3388
2201 3467
2201 3482
2201 3669
2201 3729
2201 3907
2201 3918
2201 4137
2201 4252
2201 4455
2201 4521
2201 4813
2201 4937
2201 4982
2202 2252
2202 2303
2202 2753
2202 2797
2202 3243
2202 3392
2202 3963
2202 4035
2202 4045
2202 4060
2202 4107
2202 4223
2202 4546
2202 4619
2202 4641
2203 2532
2203 2921
2203 2941
2203 3646
2203 4100
2203 4327
2203 4658
2203 4847
2204 3006
2204 3135
2204 3265
2204 3374
2204 3458
2204 3749
2204 3761
2204 4342
2205 2388
2205 2970
2205 3028
2205 3183
2205 3341
2205 3857
2205 4309
2205 4366
2206 2289
2206 2352
2206 2558
2206 2574
2206 2746
2206 2998
2206 3101
2206 3568
2206 4296
2206 4468
2206 4531
2206 4536
2206 4888
2207 2470
2207 2577
2207 2744
2207 3235
2207 3249
2207 3331
2207 3409
2207 3602
2207 3651
2207 3715
2207 3903
2207 4007
2207 4089
2207 4164
2207 4243
2207 4496
2207 4526
2207 4644
2207 4757
2207 4823
2207 4860
2207 4952
2208 2607
2208 2986
2208 3082
2208 3124
2208 3185
2208 3211
2208 3487
2208 3548
2208 3591
2208 3672
2208 3878
2208 3904
2208 4003
2208 4069
2208 4362
2208 4376
2208 4403
2208 4579
2208 4746
2208 4957
2209 2391
2209 2417
2209 2510
2209 2522
2209 2821
2209 2915
2209 2996
2209 3058
2209 3079
2209 3128
2209 3167
2209 3230
2209 3364
2209 3505
2209 3688
2209 3822
2209 3972
2209 4197
2209 4306
2209 4646
2209 4720
2209 4925
2209 4945
2210 2335
2210 2382
2210 2462
2210 2603
2210 2697
2210 2981
2210 3388
2210 3940
2210 4008
2210 4017
2210 4105
2210 4337
2210 4632
2210 4681
2210 4707
2210 4742
2211 2287
2211 2365
2211 2402
2211 2452
2211 2692
2211 3017
2211 3146
2211 3180
2211 3198
2211 3271
2211 4028
2211 4300
2211 4663
2211 4671
2211 4713
2212 2566
2212 2762
2212 3086
2212 3593
2212 3921
2212 3981
2212 4068
2212 4591
2212 4661
2212 4895
2212 4917
2213 2254
2213 2305
2213 2322
2213 2397
2213 2579
2213 2640
2213 2768
2213 2775
2213 2888
2213 3234
2213 3996
2213 4042
2213 4612
2213 4727
2213 4854
2214 2368
2214 2711
2214 2829
2214 2916
2214 2949
2214 2992
2214 3042
2214 3444
2214 3891
2214 4296
2214 4459
2214 4533
2214 4826
2215 2288
2215 2381
2215 2754
2215 3083
2215 3102
2215 3116
2215 3169
2215 3223
2215 3240
2215 3256
2215 3277
2215 4293
2215 4308
2215 4537
2215 4760
2215 4981
2216 2286
2216 2387
2216 2569
2216 3070
2216 3080
2216 3229
2216 3444
2216 3643
2216 3718
2216 3798
2216 4347
2216 4486
2216 4572
2216 4729
2216 4758
2216 4890
2217 2411
2217 2424
2217 2550
2217 2817
2217 3101
2217 3351
2217 3372
2217 3703
2217 3781
2217 3834
2217 3923
2217 4090
2217 4520
2217 4532
2217 4555
2217 4634
2217 4639
2217 4813
2217 4948
2218 2636
2218 2647
2218 2826
2218 3114
2218 3168
2218 4091
2218 4105
2218 4527
2218 4771
2218 4897
2218 4972
2219 2927
2219 2971
2219 3141
2219 3440
2219 3618
2219 4273
2219 4686
2219 4987
2220 2334
2220 2464
2220 2676
2220 2690
2220 2776
2220 2837
2220 2990
2220 3065
2220 3085
2220 3176
2220 3362
2220 3447
2220 3499
2220 3553
2220 3569
2220 3673
2220 3852
2220 3945
2220 3961
2220 4060
2220 4566
2220 4951
2221 2227
2221 2257
2221 2262
2221 2309
2221 2348
2221 2510
2221 2531
2221 2549
2221 2657
2221 2745
2221 2752
2221 2874
2221 3033
2221 3048
2221 3049
2221 3190
2221 3216
2221 3373
2221 3439
2221 3580
2221 3633
2221 3967
2221 4293
2221 4736
2221 4761
2221 4985
2222 2348
2222 2460
2222 2481
2222 2685
2222 2754
2222 2780
2222 2783
2222 2888
2222 2917
2222 3439
2222 3990
2222 4041
2222 4057
2222 4078
2222 4258
2222 4425
2223 2292
2223 2418
2223 2451
2223 2524
2223 2556
2223 2614
2223 3012
2223 3724
2223 3892
2223 4202
2223 4260
2223 4462
2223 4541
2223 4570
2223 4808
2224 2424
2224 2471
2224 2473
2224 2495
2224 2690
2224 3398
2224 3770
2224 3831
2224 4140
2224 4179
2224 4208
2224 4856
2225 2330
2225 3019
2225 3090
2225 3116
2225 3561
2225 3643
2225 3742
2225 4037
2225 4244
2225 4497
2225 4721
2226 2305
2226 2467
2226 2504
2226 3074
2226 3176
2226 3622
2226 4090
2226 4398
2226 4437
2227 2374
2227 2459
2227 2505
2227 2621
2227 2654
2227 2708
2227 2869
2227 3069
2227 3104
2227 3335
2227 3409
2227 3757
2227 3778
2227 3779
2227 4009
2227 4097
2227 4206
2227 4429
2227 4747
2227 4826
2227 4926
2228 2259
2228 2861
2228 3362
2228 4048
2228 4071
2228 4152
2228 4729
2228 4829
2228 4992
2229 2440
2229 3075
2229 4049
2229 4983
2230 2896
2230 3059
2230 3198
2230 3245
2230 3265
2230 3497
2230 3704
2230 3902
2230 3979
2230 4684
2230 4762
2231 2348
2231 2358
2231 2636
2231 2872
2231 3135
2231 3205
2231 3429
2231 3798
2231 3832
2231 4146
2231 4189
2231 4279
2231 4528
2231 4636
2231 4911
2232 2685
2232 2971
2232 3097
2232 3120
2232 3193
2232 3667
2232 3692
2232 4838
2233 2334
2233 2489
2233 2772
2233 2853
2233 3107
2233 3166
2233 3204
2233 3417
2233 3964
2233 4225
2233 4260
2233 4664
2233 4772
2234 2246
2234 2347
2234 3757
2234 3974
2234 4070
2234 4369
2234 4588
2234 4765
2234 4995
2235 2359
2235 2809
2235 2828
2235 2853
2235 2861
2235 3421
2235 3641
2235 3819
2235 4199
2235 4342
2235 4400
2235 4524
2235 4672
2235 4762
2235 4769
2235 4955
2236 2624
2236 2918
2236 2932
2236 3002
2236 3193
2236 4256
2236 4510
2236 4538
2236 4888
2237 2585
2237 3059
2237 3113
2237 3154
2237 3208
2237 4127
2237 4190
2237 4193
2237 4237
2237 4917
2237 4974
2238 2282
2238 2831
2238 3300
2238 3467
2238 3678
2238 3941
2238 4245
2238 4369
2238 4515
2238 4700
2239 2257
2239 2499
2239 3034
2239 3809
2239 3911
2239 4262
2239 4461
2239 4494
2239 4724
2239 4823
2239 4889
2240 2373
2240 2382
2240 2520
2240 2704
2240 2733
2240 3032
2240 3182
2240 3329
2240 3371
2240 3419
2240 3451
2240 3657
2240 3665
2240 4013
2240 4131
2240 4163
2240 4164
2240 4194
2240 4208
2240 4211
2240 4273
2240 4389
2240 4488
2241 2417
2241 2418
2241 2786
2241 2881
2241 2926
2241 3204
2241 3272
2241 3535
2241 3886
2241 4259
2241 4459
2241 4520
2241 4921
2242 2243
2242 2516
2242 2668
2242 2702
2242 3184
2242 3597
2242 3800
2242 3873
2242 3933
2242 4450
2242 4640
2242 4772
2243 2291
2243 2366
2243 2667
2243 2763
2243 2778
2243 3155
2243 3351
2243 3353
2243 3472
2243 3482
2243 3583
2243 3744
2243 3968
2243 4512
2243 4522
2243 4809
2243 4994
2244 2780
2244 3100
2244 3262
2244 3661
2244 3864
2244 3932
2244 4004
2244 4249
2244 4638
2244 4690
2244 4957
2245 2787
2245 2858
2245 2923
2245 3246
2245 3514
2245 3799
2245 4176
2245 4178
2245 4983
2246 2276
2246 2348
2246 2608
2246 2827
2246 3284
2246 3406
2246 3597
2246 3678
2246 3717
2246 4025
2246 4108
2246 4213
2246 4237
2246 4400
2246 4507
2246 4760
2246 4812
2246 4940
2246 4957
2247 2751
2247 3155
2247 3839
2247 4076
2247 4093
2247 4219
2247 4348
2247 4506
2247 4595
2247 4641
2247 4733
2247 4806
2248 2379
2248 2587
2248 2734
2248 2876
2248 2985
2248 3738
2248 3794
2248 4434
2248 4482
2248 4754
2248 4833
2249 2721
2249 2783
2249 2900
2249 3094
2249 3320
2249 3762
2249 3954
2249 3994
2249 4354
2249 4599
2249 4765
2249 4809
2250 2929
2250 2942
2250 2968
2250 3388
2250 3761
2250 3954
2250 4512
2250 4571
2250 4628
2250 4851
2251 2364
2251 3072
2251 3441
2251 3631
2251 3751
2251 3932
2251 4166
2251 4300
2251 4881
2251 4923
2252 2380
2252 2508
2252 2690
2252 2802
2252 2838
2252 3029
2252 3080
2252 3177
2252 3441
2252 3565
2252 3600
2252 3662
2252 3813
2252 3821
2252 3970
2252 4033
2252 4151
2252 4163
2252 4200
2252 4290
2252 4380
2252 4481
2252 4760
2252 4775
2252 4889
2252 4932
2253 2383
2253 3039
2253 3281
2253 4133
2254 2351
2254 2471
2254 2591
2254 2629
2254 2707
2254 2763
2254 2898
2254 2913
2254 2958
2254 2960
2254 3033
2254 3141
2254 3194
2254 3300
2254 3340
2254 3464
2254 3818
2254 3821
2254 3889
2254 4260
2254 4268
2254 4399
2254 4531
2254 4693
2254 4742
2254 4763
2255 2373
2255 2586
2255 2602
2255 2686
2255 3190
2255 3309
2255 3640
2255 3824
2255 3952
2255 4202
2255 4444
2255 4597
2255 4978
2255 4980
2255 4992
2256 2488
2256 2718
2256 2798
2256 3168
2256 3330
2256 3491
2256 3533
2256 3706
2256 4654
2256 4896
2256 4995
2257 2294
2257 2348
2257 2403
2257 2411
2257 2445
2257 2480
2257 2532
2257 2720
2257 2781
2257 2793
2257 2806
2257 2909
2257 2932
2257 2976
2257 3058
2257 3100
2257 3110
2257 3213
2257 3236
2257 3281
2257 3390
2257 3696
2257 3715
2257 3854
2257 3932
2257 3958
2257 4008
2257 4021
2257 4078
2257 4117
2257 4214
2257 4224
2257 4334
2257 4352
2257 4362
2257 4386
2257 4416
2257 4599
2257 4604
2257 4622
2257 4723
2257 4781
2257 4792
2257 4953
2258 2464
2258 2563
2258 2731
2258 2781
2258 2984
2258 3656
2258 3746
2258 4342
2258 4353
2259 2476
2259 2521
2259 2644
2259 2759
2259 2938
2259 2963
2259 3065
2259 3094
2259 3295
2259 3404
2259 3417
2259 3461
2259 3562
2259 3881
2259 4068
2259 4181
2259 4209
2259 4228
2259 4551
2259 4797
2259 4820
2259 4835
2260 2283
2260 2499
2260 2768
2260 3075
2260 3514
2260 3520
2260 3686
2261 2345
2261 2432
2261 2471
2261 2595
2261 2680
2261 2861
2261 3904
2261 4889
2262 2348
2262 2369
2262 2376
2262 2453
2262 3122
2262 3326
2262 3335
2262 3459
2262 3478
2262 3626
2262 3761
2262 3817
2262 3976
2262 4114
2262 4731
2262 4742
2262 4876
2262 4919
2263 2344
2263 2507
2263 3592
2263 3695
2263 3738
2263 3851
2263 3959
2263 3982
2263 4068
2263 4278
2263 4388
2263 4580
2263 4819
2264 2271
2264 3535
2264 3672
2264 3736
2264 3882
2264 4138
2264 4329
2264 4647
2264 4795
2265 2632
2265 2950
2265 2955
2265 3038
2265 3597
2265 3805
2265 3937
2265 4394
2265 4453
2265 4612
2266 2564
2266 2583
2266 2632
2266 2653
2266 2859
2266 3418
2266 3597
2266 3609
2266 4120
2266 4280
2266 4283
2266 4312
2266 4530
2267 2272
2267 2843
2267 3624
2267 3842
2267 3851
2267 4023
2267 4327
2267 4359
2267 4532
2267 4587
2267 4639
2267 4642
2267 4766
2268 2274
2268 2364
2268 2675
2268 2805
2268 2978
2268 3470
2268 4578
2268 4587
2268 4721
2269 2758
2269 2822
2269 2823
2269 2945
2269 3264
2269 3315
2269 3356
2269 3733
2269 3875
2269 3902
2269 4071
2269 4305
2269 4852
2270 2661
2270 2809
2270 2869
2270 2954
2270 3012
2270 4150
2270 4153
2270 4645
2270 4647
2270 4890
2271 2940
2271 2999
2271 3423
2271 3505
2271 4345
2271 4405
2271 4805
2272 2286
2272 2355
2272 2546
2272 2560
2272 2591
2272 2624
2272 2633
2272 2673
2272 2726
2272 2872
2272 2907
2272 2925
2272 3013
2272 3225
2272 3241
2272 3273
2272 3282
2272 3327
2272 3517
2272 3586
2272 3661
2272 3692
2272 3732
2272 3795
2272 3809
2272 3812
2272 3941
2272 4033
2272 4127
2272 4166
2272 4181
2272 4244
2272 4247
2272 4421
2272 4423
2272 4465
2272 4562
2272 4590
2272 4599
2272 4760
2272 4773
2272 4985
2273 2627
2273 2718
2273 2770
2273 2853
2273 2976
2273 3008
2273 3104
2273 4013
2273 4264
2273 4380
2273 4496
2273 4763
2274 2788
2274 4275
2274 4441
2274 4805
2274 4978
2275 2519
2275 3229
2275 3338
2275 3380
2275 3520
2275 3576
2275 3667
2275 3810
2275 3819
2275 3849
2275 3859
2276 2365
2276 2487
2276 2526
2276 2548
2276 2607
2276 2634
2276 2747
2276 2852
2276 2859
2276 2973
2276 3162
2276 3200
2276 3221
2276 3228
2276 3289
2276 3362
2276 3377
2276 3439
2276 3663
2276 3691
2276 3722
2276 3768
2276 3798
2276 3893
2276 3989
2276 4053
2276 4054
2276 4065
2276 4153
2276 4169
2276 4242
2276 4477
2276 4482
2276 4531
2276 4588
2276 4695
2276 4873
2276 4899
2276 4900
2276 4933
2276 4980
2277 2551
2277 2577
2277 2681
2277 3235
2277 3388
2277 3532
2277 4446
2277 4487
2277 4537
2277 4616
2278 2785
2278 2791
2278 3293
2278 3478
2278 3688
2278 3814
2278 3915
2278 4131
2278 4277
2278 4400
2278 4461
2278 4739
2278 4752
2279 2336
2279 2685
2279 2714
2279 2812
2279 2866
2279 2927
2279 3052
2279 3085
2279 3150
2279 3327
2279 3546
2279 3970
2279 4094
2279 4297
2279 4398
2279 4522
2279 4594
2279 4765
2280 2303
2280 2312
2280 2347
2280 2377
2280 2391
2280 2421
2280 2668
2280 2778
2280 2782
2280 2922
2280 2961
2280 3043
2280 3341
2280 3510
2280 3679
2280 3704
2280 4071
2280 4104
2280 4209
2280 4214
2280 4296
2280 4414
2280 4447
2280 4459
2280 4531
2280 4602
2280 4846
2280 4895
2280 4985
2281 2487
2281 2577
2281 3010
2281 3143
2281 3253
2281 3569
2281 3644
2281 4000
2281 4183
2281 4307
2281 4583
2281 4737
2281 4749
2282 2726
2282 3605
2282 3657
2282 3851
2282 3853
2282 3864
2282 4071
2282 4266
2283 2354
2283 2377
2283 2408
2283 2435
2283 2619
2283 2747
2283 2953
2283 3165
2283 3246
2283 3444
2283 3574
2283 4202
2283 4323
2283 4563
2283 4622
2283 4670
2283 4672
2283 4854
2283 4855
2283 4979
2284 2528
2284 3271
2284 3419
2284 3584
2284 3601
2284 3709
2284 3774
2284 3878
2284 4005
2284 4997
2285 2348
2285 2569
2285 2596
2285 3039
2285 3175
2285 3366
2285 4090
2285 4213
2285 4290
2285 4374
2285 4533
2285 4797
2286 3748
2286 3782
2286 3860
2286 4336
2287 2348
2287 3086
2287 3443
2287 3575
2287 3677
2287 4221
2287 4328
2287 4341
2287 4382
2287 4490
2287 4513
2287 4792
2287 4944
2287 4953
2287 4967
2287 4973
2288 2411
2288 2509
2288 3024
2288 3527
2288 3655
2288 3687
2288 3749
2288 4037
2288 4316
2288 4342
2288 4722
2288 4758
2289 2470
2289 2641
2289 3037
2289 3258
2289 3440
2289 3563
2289 3802
2289 3860
2289 3950
2289 3977
2289 4595
2289 4613
2289 4654
2289 4657
2289 4742
2290 2681
2290 2730
2290 3304
2290 3359
2290 3631
2290 3666
2290 3718
2290 3798
2290 4207
2290 4391
2290 4421
2290 4722
2290 4723
2290 4742
2290 4872
2291 2331
2291 2558
2291 2604
2291 2939
2291 3174
2291 3364
2291 3915
2291 4039
2291 4646
2291 4777
2291 4794
2291 4989
2292 2600
2292 2623
2292 2632
2292 2838
2292 2900
2292 2947
2292 3076
2292 3475
2292 3626
2292 4150
2292 4685
2293 2577
2293 2635
2293 2678
2293 2805
2293 3240
2293 3298
2293 3937
2293 4152
2293 4164
2293 4355
2293 4547
2293 4677
2293 4877
2294 2501
2294 2762
2294 3327
2294 3440
2294 3498
2294 4104
2294 4403
2294 4780
2295 2641
2295 3003
2295 3026
2295 3169
2295 3270
2295 4056
2295 4228
2295 4342
2295 4868
2295 4906
2296 2387
2296 2402
2296 2419
2296 2614
2296 2698
2296 3015
2296 3039
2296 3045
2296 3058
2296 3098
2296 3269
2296 3594
2296 3673
2296 3683
2296 3692
2296 3938
2296 4072
2296 4266
2296 4527
2296 4537
2297 2488
2297 2816
2297 3222
2297 3258
2297 3616
2297 4112
2297 4922
2298 2723
2298 3052
2298 3057
2298 3116
2298 3242
2298 3400
2298 3700
2298 4113
2298 4137
2298 4280
2298 4292
2298 4503
2299 2497
2299 3175
2299 3371
2299 3697
2299 3956
2300 2460
2300 2867
2300 3389
2300 3519
2300 3819
2300 3858
2300 4078
2300 4082
2300 4261
2300 4460
2300 4632
2300 4758
2300 4789
2301 2352
2301 2583
2301 3262
2301 3793
2301 4163
2301 4400
2301 4602
2301 4847
2302 2366
2302 2856
2302 3034
2302 3197
2302 3586
2302 3924
2302 3944
2302 3983
2302 4261
2303 2422
2303 2465
2303 2957
2303 3139
2303 3314
2303 3418
2303 3866
2303 3947
2303 4202
2303 4380
2303 4383
2303 4809
2303 4854
2303 4974
2304 2409
2304 2437
2304 2676
2304 2826
2304 2910
2304 3035
2304 3182
2304 3335
2304 3385
2304 3439
2304 3502
2304 3554
2304 3727
2304 4091
2304 4108
2304 4363
2304 4713
2305 2319
2305 2328
2305 2338
2305 2342
2305 2346
2305 2384
2305 2491
2305 2558
2305 2581
2305 2726
2305 2886
2305 2973
2305 3070
2305 3094
2305 3115
2305 3133
2305 3152
2305 3175
2305 3183
2305 3216
2305 3328
2305 3421
2305 3452
2305 3592
2305 3795
2305 3841
2305 3960
2305 4069
2305 4117
2305 4127
2305 4138
2305 4171
2305 4364
2305 4442
2305 4449
2305 4635
2305 4692
2305 4750
2305 4933
2306 3146
2306 3605
2306 4176
2306 4278
2306 4575
2306 4618
2306 4694
2306 4996
2307 2317
2307 2347
2307 2468
2307 2518
2307 2546
2307 2630
2307 2632
2307 2815
2307 3017
2307 3044
2307 3152
2307 3356
2307 3370
2307 3692
2307 3710
2307 3719
2307 3842
2307 3850
2307 4081
2307 4113
2307 4131
2307 4174
2307 4341
2307 4409
2307 4477
2307 4688
2307 4802
2307 4836
2307 4868
2307 4889
2307 4996
2307 4997
2308 2671
2308 2987
2308 3025
2308 3323
2308 3425
2308 3661
2308 3804
2308 3874
2308 3928
2308 4061
2308 4341
2308 4524
2309 2634
2309 2737
2309 2934
2309 3038
2309 3153
2309 3234
2309 3332
2309 3647
2309 3662
2309 4131
2309 4217
2309 4242
2309 4315
2309 4464
2309 4634
2309 4691
2309 4730
2309 4935
2310 2467
2310 2542
2310 2626
2310 3196
2310 3969
2310 4089
2310 4303
2310 4391
2310 4442
2310 4604
2310 4740
2310 4785
2311 2761
2311 2922
2311 2954
2311 4416
2311 4493
2311 4762
2312 2361
2312 2376
2312 2437
2312 2473
2312 3139
2312 3206
2312 3281
2312 3299
2312 3454
2312 3503
2312 3595
2312 3804
2312 3868
2312 3894
2312 3994
2312 4009
2312 4062
2312 4153
2312 4171
2312 4426
2312 4621
2312 4736
2312 4779
2312 4944
2313 2675
2313 2956
2313 3008
2313 3082
2313 3490
2313 3941
2313 3988
2313 4456
2313 4461
2313 4659
2313 4852
2314 2658
2314 2750
2314 3211
2314 3294
2314 3517
2314 3540
2314 3627
2314 3713
2314 3726
2314 3806
2314 3828
2314 4366
2314 4751
2314 4841
2315 3084
2315 3088
2315 3578
2315 3673
2315 4174
2315 4231
2315 4583
2315 4688
2316 2638
2316 2752
2316 2773
2316 3278
2316 3331
2316 3877
2316 4094
2316 4140
2316 4237
2316 4578
2316 4689
2316 4895
2316 4896
2317 2838
2317 2849
2317 2881
2317 3057
2317 3536
2317 4355
2317 4398
2317 4538
2318 2469
2318 2794
2318 2966
2318 3118
2318 3210
2318 3464
2318 3957
2318 4405
2318 4439
2318 4490
2318 4567
2319 2343
2319 2438
2319 2522
2319 3327
2319 3597
2319 4181
2319 4451
2320 2612
2320 2638
2320 2662
2320 2690
2320 3033
2320 3140
2320 3158
2320 3184
2320 3324
2320 3566
2320 3597
2320 3864
2320 3887
2320 4012
2320 4087
2320 4088
2320 4103
2320 4306
2320 4613
2320 4722
2320 4772
2320 4862
2321 2670
2321 2895
2321 2944
2321 3493
2321 3559
2321 3657
2321 4987
2322 2522
2322 2729
2322 2766
2322 3025
2322 3736
2322 3894
2322 4171
2322 4429
2322 4484
2322 4516
2322 4573
2322 4921
2322 4925
2322 4965
2323 2363
2323 2866
2323 2889
2323 3350
2323 3998
2323 4115
2323 4626
2324 2685
2324 2908
2324 3864
2324 4098
2324 4704
2325 2348
2325 2721
2325 3017
2325 3744
2325 4257
2325 4377
2325 4573
2325 4862
2326 2418
2326 2861
2326 3168
2326 3311
2326 3791
2326 4009
2326 4109
2326 4459
2326 4547
2326 4563
2326 4859
2326 4902
2326 4997
2327 2421
2327 2716
2327 2936
2327 3233
2327 3439
2327 3514
2327 3700
2327 3801
2327 4183
2327 4257
2327 4430
2327 4432
2327 4438
2327 4537
2327 4755
2327 4823
2328 2465
2328 2650
2328 2841
2328 2842
2328 2900
2328 3047
2328 3183
2328 3195
2328 3199
2328 3729
2328 3749
2328 3769
2328 3910
2328 4243
2328 4709
2328 4745
2328 4840
2329 2477
2329 2642
2329 3148
2329 4437
2329 4639
2330 3412
2330 3744
2330 3873
2330 4068
2330 4880
2331 2469
2331 2608
2331 2706
2331 2869
2331 2906
2331 3060
2331 3088
2331 3258
2331 3390
2331 3652
2331 3818
2331 4024
2332 2651
2332 2728
2332 2739
2332 2969
2332 4237
2332 4263
2332 4507
2332 4749
2333 2630
2333 2737
2333 3009
2333 3046
2333 3455
2333 3854
2333 4003
2333 4211
2333 4653
2333 4744
2333 4813
2333 4975
2334 2393
2334 2856
2334 2887
2334 2981
2334 3070
2334 3153
2334 3155
2334 3691
2334 3899
2334 3922
2334 3994
2334 4006
2334 4199
2334 4279
2334 4732
2334 4848
2335 2375
2335 2460
2335 2908
2335 3228
2335 3898
2335 4137
2335 4446
2335 4479
2335 4496
2335 4687
2335 4694
2336 2579
2336 2598
2336 3302
2336 3797
2336 3886
2336 4103
2336 4129
2336 4153
2336 4194
2336 4330
2336 4415
2336 4659
2336 4745
2336 4957
2337 3397
2337 3423
2337 4115
2337 4298
2337 4588
2337 4874
2338 2442
2338 2645
2338 3322
2338 4010
2338 4571
2338 4629
2338 4680
2338 4951
2339 2342
2339 2561
2339 2914
2339 3327
2339 3793
2339 3861
2339 4616
2339 4749
2339 4855
2339 4901
2340 2573
2340 2885
2340 2929
2340 3151
2340 3192
2340 3601
2340 3690
2340 3946
2340 4618
2341 2402
2341 2520
2341 2681
2341 2696
2341 2818
2341 2996
2341 3109
2341 3254
2341 3397
2341 3490
2341 3591
2341 3748
2341 4236
2341 4485
2341 4513
2341 4552
2341 4563
2341 4573
2342 2427
2342 2474
2342 2710
2342 2915
2342 3490
2342 3608
2342 3653
2342 3946
2342 4371
2342 4635
2342 4661
2342 4775
2342 4800
2342 4836
2342 4893
2342 4896
2343 2596
2343 2632
2343 2637
2343 2693
2343 2718
2343 2891
2343 3167
2343 3196
2343 3332
2343 3370
2343 3542
2343 3586
2343 3659
2343 3741
2343 3785
2343 4211
2343 4333
2343 4448
2343 4450
2343 4524
2343 4560
2343 4602
2343 4753
2343 4875
2343 4899
2344 2900
2344 3075
2344 3281
2344 3331
2344 3525
2344 3798
2344 4498
2344 4865
2344 4976
2344 4997
2345 2452
2345 2517
2345 2593
2345 2680
2345 2720
2345 2796
2345 2914
2345 3015
2345 3116
2345 3135
2345 3378
2345 3405
2345 3541
2345 3552
2345 3582
2345 3584
2345 3719
2345 3770
2345 3878
2345 3989
2345 4052
2345 4380
2345 4762
2345 4883
2346 2358
2346 2436
2346 2607
2346 2700
2346 3011
2346 3075
2346 3369
2346 3670
2346 3681
2346 3734
2346 3831
2346 3900
2346 4762
2346 4907
2346 4943
2347 2369
2347 2412
2347 2470
2347 2542
2347 2911
2347 2988
2347 3039
2347 3344
2347 3455
2347 3696
2347 3834
2347 4311
2347 4404
2347 4447
2347 4625
2348 2364
2348 2400
2348 2417
2348 2551
2348 2564
2348 2570
2348 2603
2348 2660
2348 2696
2348 2786
2348 2810
2348 2830
2348 2839
2348 2915
2348 2949
2348 2997
2348 3003
2348 3007
2348 3094
2348 3220
2348 3250
2348 3335
2348 3344
2348 3370
2348 3408
2348 3441
2348 3460
2348 3471
2348 3478
2348 3531
2348 3795
2348 3914
2348 4012
2348 4020
2348 4215
2348 4238
2348 4279
2348 4325
2348 4700
2348 4823
2348 4872
2348 4933
2349 2415
2349 2675
2349 2684
2349 2830
2349 2850
2349 2858
2349 2976
2349 2979
2349 3417
2349 4153
2349 4307
2349 4511
2349 4645
2349 4741
2349 4918
2350 2370
2350 2805
2350 2836
2350 2898
2350 2945
2350 3273
2350 3282
2350 3395
2350 3668
2350 3800
2350 4069
2350 4091
2350 4100
2350 4196
2350 4213
2351 2610
2351 2769
2351 2968
2351 3004
2351 3439
2351 3502
2351 3523
2351 3729
2351 4089
2351 4181
2351 4833
2352 2651
2352 2657
2352 2804
2352 2951
2352 3051
2352 3252
2352 3360
2352 3622
2352 4095
2352 4143
2352 4245
2352 4305
2352 4362
2352 4472
2352 4631
2352 4739
2352 4816
2353 2509
2353 2776
2353 2783
2353 2846
2353 3084
2353 3288
2353 3365
2353 3527
2353 3792
2353 4237
2353 4465
2353 4691
2354 2537
2354 2792
2354 3124
2354 3571
2354 4101
2355 2523
2355 2886
2355 3317
2355 3395
2355 3568
2355 3692
2355 3697
2355 3755
2355 4191
2355 4583
2355 4748
2356 2495
2356 2682
2356 2922
2356 3292
2356 3306
2356 3492
2356 3570
2356 3942
2356 3999
2356 4240
2356 4849
2357 3059
2357 3117
2357 3696
2357 3789
2357 3839
2357 4160
2357 4636
2357 4987
2358 2632
2358 2640
2358 2652
2358 2702
2358 2900
2358 2976
2358 2992
2358 3068
2358 3529
2358 3598
2358 3618
2358 3644
2358 3944
2358 3951
2358 3988
2358 4013
2358 4119
2358 4409
2358 4415
2358 4536
2358 4662
2358 4717
2358 4745
2358 4847
2358 4896
2358 4910
2358 4912
2359 2415
2359 2456
2359 2659
2359 2995
2359 3514
2359 3955
2359 4221
2359 4228
2359 4393
2359 4676
2359 4769
2359 4986
2360 2527
2360 2676
2360 2876
2360 2881
2360 3121
2360 3302
2360 3319
2360 3420
2360 3585
2360 3661
2360 3938
2360 3943
2360 4212
2360 4329
2360 4344
2360 4389
2360 4411
2360 4562
2361 2374
2361 2637
2361 2724
2361 2805
2361 2971
2361 3126
2361 3314
2361 3422
2361 3589
2361 3754
2361 4251
2361 4367
2361 4381
2361 4621
2362 2427
2362 2661
2362 2859
2362 2946
2362 3286
2362 3460
2362 4225
2362 4305
2362 4534
2362 4560
2362 4586
2363 2449
2363 2470
2363 2488
2363 2497
2363 2550
2363 2595
2363 2656
2363 2872
2363 3030
2363 3184
2363 3223
2363 3281
2363 3304
2363 3395
2363 3409
2363 3452
2363 3492
2363 3575
2363 3638
2363 3661
2363 3995
2363 4006
2363 4049
2363 4127
2363 4131
2363 4198
2363 4213
2363 4728
2363 4772
2363 4773
2363 4828
2363 4919
2364 2382
2364 2450
2364 2494
2364 2505
2364 2726
2364 2754
2364 2816
2364 2834
2364 2883
2364 3114
2364 3182
2364 3242
2364 3271
2364 3521
2364 3576
2364 3586
2364 3775
2364 3833
2364 3846
2364 3882
2364 3910
2364 4021
2364 4044
2364 4074
2364 4152
2364 4181
2364 4254
2364 4406
2364 4444
2364 4446
2364 4752
2364 4790
2364 4810
2364 4872
2364 4900
2365 3184
2365 3467
2365 3741
2365 4722
2365 4989
2366 2921
2366 3536
2366 3662
2366 4044
2366 4401
2366 4435
2366 4477
2366 4481
2366 4813
2367 2405
2367 2407
2367 2451
2367 2548
2367 3154
2367 3497
2367 4038
2367 4127
2367 4141
2367 4604
2367 4663
2368 2563
2368 2600
2368 2695
2368 3649
2368 3736
2368 3782
2368 3869
2368 3929
2368 4526
2368 4595
2368 4642
2369 2553
2369 2773
2369 2805
2369 3055
2369 3887
2369 4193
2369 4809
2369 4851
2370 2527
2370 2638
2370 3026
2370 3075
2370 3651
2370 3945
2370 4007
2370 4128
2370 4388
2370 4695
2370 4834
2371 2659
2371 2915
2371 3039
2371 3350
2371 3918
2371 4421
2371 4582
2371 4790
2372 2679
2372 2818
2372 3199
2372 4271
2372 4316
2372 4595
2373 2783
2373 3120
2373 3335
2373 3787
2373 3835
2373 3960
2373 4023
2374 2610
2374 3026
2374 3286
2374 3288
2374 3553
2374 3611
2374 3696
2374 3784
2374 3867
2374 3998
2374 4512
2374 4532
2374 4566
2374 4596
2374 4601
2374 4689
2374 4838
2374 4897
2375 2464
2375 2584
2375 2596
2375 2899
2375 2908
2375 2938
2375 3186
2375 3761
2375 3945
2375 4137
2375 4161
2375 4683
2375 4687
2375 4955
2376 3065
2376 3475
2376 3618
2376 3703
2376 3870
2376 4050
2376 4146
2376 4181
2376 4266
2376 4301
2377 2492
2377 2509
2377 2765
2377 2815
2377 2826
2377 2922
2377 2924
2377 3692
2377 4515
2377 4563
2377 4586
2377 4682
2377 4847
2377 4870
2378 2841
2378 3434
2378 3449
2378 3793
2378 3832
2378 4361
2378 4477
2378 4877
2379 2474
2379 2587
2379 2669
2379 2832
2379 3792
2379 3798
2379 4128
2379 4461
2379 4732
2380 2557
2380 2712
2380 3016
2380 3077
2380 3365
2380 3744
2380 4070
2380 4361
2380 4539
2380 4614
2380 4682
2380 4940
2381 3242
2381 3733
2381 3862
2381 4163
2381 4212
2381 4658
2381 4706
2382 2452
2382 2644
2382 2799
2382 2858
2382 3146
2382 3551
2382 3800
2382 3911
2382 4023
2382 4074
2382 4502
2382 4773
2383 2487
2383 2568
2383 2587
2383 3261
2383 3325
2383 3355
2383 3373
2383 3424
2383 3616
2383 4447
2383 4464
2383 4477
2383 4487
2383 4709
2384 2395
2384 2401
2384 2496
2384 2510
2384 2775
2384 2932
2384 2959
2384 3066
2384 3102
2384 3350
2384 3442
2384 3491
2384 3564
2384 3570
2384 3704
2384 3783
2384 3823
2384 3933
2384 4028
2384 4130
2384 4243
2384 4849
2384 4918
2384 4988
2385 2458
2385 2488
2385 2515
2385 2673
2385 2748
2385 2792
2385 2897
2385 2899
2385 3007
2385 3097
2385 3226
2385 3672
2385 3710
2385 3753
2385 3842
2385 3843
2385 3925
2385 4115
2385 4260
2385 4526
2385 4643
2385 4723
2385 4804
2385 4868
2385 4957
2385 4976
2386 2475
2386 2732
2386 2860
2386 3733
2386 4930
2387 2440
2387 2992
2387 3015
2387 3450
2387 3545
2387 3633
2387 3977
2387 4192
2387 4235
2387 4659
2387 4661
2387 4789
2388 2467
2388 2596
2388 2787
2388 2791
2388 3022
2388 3408
2388 3758
2388 3977
2388 4000
2388 4076
2388 4098
2388 4115
2388 4131
2388 4137
2388 4228
2388 4349
2388 4433
2388 4483
2388 4577
2388 4584
2388 4624
2388 4690
2388 4747
2388 4779
2388 4811
2388 4917
2389 2759
2389 2795
2389 3088
2389 3109
2389 3368
2389 3408
2389 3409
2389 3546
2389 3988
2389 4157
2389 4309
2389 4332
2389 4949
2390 2402
2390 2548
2390 2604
2390 2724
2390 2744
2390 2925
2390 3059
2390 3338
2390 3377
2390 3689
2390 3753
2390 3914
2390 4032
2390 4191
2390 4835
2391 2654
2391 2710
2391 2862
2391 3033
2391 3038
2391 3568
2391 3697
2391 4604
2392 2430
2392 2725
2392 2807
2392 3065
2392 3256
2392 3356
2392 3568
2392 3640
2392 3678
2392 3845
2392 4004
2392 4140
2392 4226
2392 4421
2392 4461
2392 4506
2392 4896
2393 2525
2393 2728
2393 2759
2393 2869
2393 3000
2393 3004
2393 3461
2393 4189
2393 4212
2393 4292
2393 4622
2393 4720
2393 4830
2394 2553
2394 3302
2394 3457
2394 3904
2394 4125
2394 4478
2394 4904
2394 4962
2394 4979
2395 2622
2395 3159
2395 3163
2395 3170
2395 3212
2395 3497
2395 3748
2395 4306
2395 4505
2396 2445
2396 2484
2396 2528
2396 2554
2396 2770
2396 3336
2396 3646
2396 3741
2396 3821
2396 3830
2396 3851
2396 4282
2396 4512
2396 4547
2396 4637
2396 4691
2397 2452
2397 2537
2397 2680
2397 2710
2397 2778
2397 2783
2397 2852
2397 2878
2397 2962
2397 3014
2397 3045
2397 3125
2397 3195
2397 3429
2397 3468
2397 3539
2397 3849
2397 4058
2397 4296
2397 4340
2397 4388
2397 4595
2397 4611
2397 4741
2397 4840
2397 4845
2397 4870
2397 4889
2397 4959
2398 2825
2398 3220
2398 3341
2398 3661
2398 3744
2398 4296
2398 4330
2398 4419
2398 4731
2399 3055
2399 3180
2399 3280
2399 3575
2399 3587
2399 3915
2399 3965
2399 4108
2399 4361
2399 4512
2400 2499
2400 2947
2400 3011
2400 3318
2400 3497
2400 3913
2400 4395
2400 4670
2400 4682
2400 4765
2401 2758
2401 2769
2401 2787
2401 2923
2401 3419
2401 4070
2401 4083
2401 4256
2401 4388
2401 4785
2402 2639
2402 2917
2402 3017
2402 3421
2402 3482
2402 3539
2402 3665
2402 3786
2402 3851
2402 4076
2402 4078
2402 4519
2402 4668
2402 4849
2402 4941
2403 2805
2403 3198
2403 3315
2403 3849
2403 4098
2403 4788
2403 4889
2404 2474
2404 2524
2404 2540
2404 2558
2404 2657
2404 2738
2404 3028
2404 3138
2404 3246
2404 3815
2404 3968
2404 4196
2404 4516
2404 4682
2404 4780
2405 2440
2405 2536
2405 2719
2405 2805
2405 3135
2405 3187
2405 3288
2405 3517
2405 4189
2405 4220
2405 4224
2405 4384
2405 4430
2405 4522
2405 4879
2406 2418
2406 2602
2406 2643
2406 2694
2406 3342
2406 3475
2406 3507
2406 3520
2406 3890
2406 3973
2406 4035
2406 4527
2406 4935
2407 2970
2407 3015
2407 3024
2407 3239
2407 3313
2407 3361
2407 3398
2407 3409
2407 3584
2407 3665
2407 3747
2407 4135
2407 4191
2407 4319
2407 4400
2407 4747
2407 4871
2407 4889
2407 4896
2408 2495
2408 2955
2408 3029
2408 3563
2408 4147
2408 4236
2408 4411
2409 2449
2409 2557
2409 2603
2409 2689
2409 2709
2409 2992
2409 3289
2409 3758
2409 4071
2409 4454
2409 4472
2409 4800
2410 2463
2410 3294
2410 3372
2410 3398
2410 3559
2410 3703
2410 3773
2410 3795
2410 3902
2410 4140
2410 4167
2410 4217
2410 4541
2410 4880
2410 4992
2410 4993
2410 4994
2411 2493
2411 2534
2411 2690
2411 2768
2411 3036
2411 3065
2411 3135
2411 3302
2411 3363
2411 3623
2411 4108
2411 4344
2411 4689
2411 4778
2411 4997
2412 2469
2412 2570
2412 2635
2412 2768
2412 2846
2412 3034
2412 3075
2412 3092
2412 3168
2412 3206
2412 3401
2412 3587
2412 3932
2412 4510
2412 4644
2412 4729
2413 2650
2413 2676
2413 2752
2413 2895
2413 3327
2413 3385
2413 3417
2413 3708
2413 3793
2413 4183
2413 4279
2414 2420
2414 2673
2414 2812
2414 3108
2414 3142
2414 3769
2414 3828
2414 4050
2414 4116
2414 4432
2414 4971
2415 2528
2415 2547
2415 2642
2415 3028
2415 3042
2415 3099
2415 3261
2415 3263
2415 3301
2415 3389
2415 3498
2415 3669
2415 3700
2415 3920
2415 4119
2415 4133
2415 4152
2415 4233
2415 4431
2415 4469
2415 4590
2415 4710
2415 4917
2415 4918
2415 4930
2416 2437
2416 2438
2416 3039
2416 3052
2416 3718
2416 3776
2416 4070
2416 4208
2416 4359
2416 4913
2417 2425
2417 3847
2417 3939
2417 4051
2417 4287
2417 4307
2417 4560
2417 4595
2417 4607
2417 4907
2418 2454
2418 2537
2418 2620
2418 2626
2418 2675
2418 2709
2418 2711
2418 2991
2418 3005
2418 3088
2418 3177
2418 3265
2418 3407
2418 3539
2418 3667
2418 3695
2418 3807
2418 3845
2418 4002
2418 4061
2418 4236
2418 4253
2418 4375
2418 4401
2418 4428
2418 4437
2418 4674
2418 4849
2418 4980
2418 4995
2419 2550
2419 2654
2419 2677
2419 2786
2419 2818
2419 3516
2419 3901
2419 4004
2419 4109
2419 4119
2419 4132
2419 4326
2419 4431
2419 4529
2419 4722
2420 2550
2420 3294
2420 3742
2420 3759
2420 3952
2420 4064
2420 4234
2420 4497
2420 4917
2421 2479
2421 2837
2421 2912
2421 3761
2421 3995
2421 4112
2421 4507
2421 4742
2421 4787
2421 4841
2422 2552
2422 2986
2422 3058
2422 3109
2422 3303
2422 3356
2422 4203
2422 4370
2423 2659
2423 2859
2423 2900
2423 3332
2423 3364
2423 3453
2423 3562
2423 3595
2423 3668
2423 3772
2423 4072
2423 4270
2423 4292
2423 4379
2423 4456
2423 4477
2423 4724
2423 4936
2423 4943
2424 2608
2424 2635
2424 2704
2424 2724
2424 2751
2424 2756
2424 2789
2424 2792
2424 2869
2424 2938
2424 2953
2424 3004
2424 3076
2424 3113
2424 3216
2424 3373
2424 3398
2424 3541
2424 3559
2424 3808
2424 3821
2424 3902
2424 3948
2424 4043
2424 4156
2424 4363
2424 4424
2424 4462
2424 4479
2424 4536
2424 4623
2424 4745
2424 4811
2424 4925
2424 4996
2425 2566
2425 2635
2425 2840
2425 2944
2425 3153
2425 3189
2425 3223
2425 3277
2425 3527
2425 3805
2425 4165
2425 4201
2425 4377
2426 3355
2426 3553
2426 3994
2426 4710
2426 4828
2427 2479
2427 2677
2427 2753
2427 3240
2427 3280
2427 3378
2427 4496
2427 4554
2428 2623
2428 2810
2428 3075
2428 3374
2428 3543
2428 3621
2428 4146
2428 4701
2428 4722
2428 4871
2429 3107
2429 4007
2429 4031
2429 4036
2429 4227
2429 4301
2429 4728
2430 2777
2430 3329
2430 3482
2430 3551
2430 3606
2430 3729
2430 3733
2430 3797
2430 4425
2430 4482
2430 4510
2430 4749
2430 4785
2431 2469
2431 2584
2431 2632
2431 3017
2431 3138
2431 3281
2431 3363
2431 3485
2431 3605
2431 3736
2431 3745
2431 3942
2431 4068
2431 4162
2431 4335
2431 4784
2431 4862
2432 2698
2432 2751
2432 2860
2432 3173
2432 3214
2432 3320
2432 3445
2432 3592
2432 3801
2432 3878
2432 4173
2432 4369
2432 4613
2432 4647
2432 4669
2432 4701
2433 3031
2433 3798
2433 3839
2433 3868
2434 2663
2434 3120
2434 3219
2434 3705
2434 3943
2435 2676
2435 2894
2435 3300
2435 3319
2435 3690
2435 3988
2435 4273
2435 4532
2435 4898
2436 2724
2436 2803
2436 2815
2436 3353
2436 3678
2436 4356
2436 4413
2436 4891
2437 2847
2437 2975
2437 3018
2437 3212
2437 3633
2437 4153
2437 4272
2437 4393
2437 4940
2438 2622
2438 3521
2438 3546
2438 3594
2438 3815
2438 3825
2438 4041
2438 4147
2438 4158
2438 4230
2438 4241
2438 4254
2438 4426
2438 4459
2438 4478
2438 4791
2438 4821
2438 4990
2439 2522
2439 3569
2439 4459
2439 4604
2439 4775
2439 4806
2439 4870
2440 2468
2440 2533
2440 2538
2440 2564
2440 2581
2440 2658
2440 2723
2440 2782
2440 2808
2440 2952
2440 2973
2440 3075
2440 3112
2440 3291
2440 3310
2440 3592
2440 3610
2440 3668
2440 3761
2440 3830
2440 4196
2440 4219
2440 4302
2440 4462
2440 4567
2440 4618
2440 4640
2440 4674
2440 4710
2440 4744
2440 4756
2440 4767
2441 2806
2441 2987
2441 2994
2441 3131
2441 3184
2441 3786
2441 3914
2441 3952
2441 4150
2441 4244
2441 4565
2441 4670
2441 4877
2442 2517
2442 2612
2442 3315
2442 3502
2442 3661
2442 3677
2442 3750
2442 3947
2442 4080
2442 4235
2442 4269
2442 4542
2442 4648
2443 2627
2443 3113
2443 3176
2443 3534
2443 4376
2443 4432
2443 4647
2443 4991
2444 2609
2444 2672
2444 2778
2444 2853
2444 2861
2444 3007
2444 3540
2444 3672
2444 3813
2444 4060
2444 4844
2444 4872
2445 2465
2445 2607
2445 2651
2445 2687
2445 3635
2445 4181
2445 4391
2445 4751
2446 2474
2446 2895
2446 3069
2446 3557
2446 3712
2446 3825
2446 3982
2446 4326
2446 4644
2446 4715
2446 4738
2446 4803
2447 2685
2447 2983
2447 3198
2447 3750
2447 4351
2447 4888
2447 4976
2448 2550
2448 3108
2448 3395
2448 3685
2448 3715
2448 3741
2448 3774
2448 3816
2448 3849
2448 4245
2448 4849
2448 4958
2449 2555
2449 2820
2449 3013
2449 3016
2449 3018
2449 3050
2449 3407
2449 3761
2449 3781
2449 4087
2449 4238
2449 4523
2449 4837
2449 4990
2450 2843
2450 3689
2450 3839
2450 3851
2450 4183
2450 4194
2451 2561
2451 3254
2451 3365
2451 3515
2451 3703
2451 4295
2451 4575
2452 2467
2452 2502
2452 2562
2452 2605
2452 2614
2452 2658
2452 2668
2452 2779
2452 2786
2452 2912
2452 3063
2452 3120
2452 3346
2452 3588
2452 3597
2452 3637
2452 3691
2452 3840
2452 3954
2452 4369
2452 4405
2452 4480
2452 4663
2452 4673
2452 4868
2452 4887
2452 4906
2452 4909
2452 4947
2452 4955
2453 2535
2453 2707
2453 2805
2453 2816
2453 3077
2453 3401
2453 3437
2453 3513
2453 3523
2453 3733
2453 3977
2453 4639
2453 4679
2453 4862
2453 4994
2454 2837
2454 2871
2454 2965
2454 3092
2454 3172
2454 3770
2454 3862
2454 4272
2454 4532
2454 4534
2454 4573
2454 4583
2454 4886
2455 2611
2455 2630
2455 2632
2455 2721
2455 2812
2455 3311
2455 3499
2455 3538
2455 3645
2455 3915
2455 3921
2455 4093
2455 4207
2455 4286
2455 4851
2456 2796
2456 2941
2456 3023
2456 3204
2456 3280
2456 3734
2456 4350
2456 4544
2456 4760
2456 4766
2456 4948
2457 2597
2457 3601
2457 4309
2457 4940
2457 4962
2458 2918
2458 3013
2458 3484
2458 3517
2458 3670
2458 3679
2458 3749
2458 3945
2458 4198
2458 4234
2458 4496
2458 4744
2458 4982
2459 2729
2459 2777
2459 3224
2459 3527
2459 3589
2459 4297
2459 4523
2460 2676
2460 2733
2460 2953
2460 3315
2460 3344
2460 3700
2460 3803
2460 3876
2460 4177
2460 4621
2460 4782
2460 4862
2461 2961
2461 3521
2461 3777
2461 4044
2461 4047
2461 4070
2461 4225
2461 4517
2461 4765
2461 4804
2462 2655
2462 2686
2462 2944
2462 3049
2462 3439
2462 3506
2462 3771
2462 3826
2462 4047
2462 4571
2462 4663
2462 4682
2462 4687
2463 2890
2463 2971
2463 3418
2463 3649
2463 3747
2463 3749
2463 3883
2463 3981
2463 4050
2463 4123
2463 4128
2463 4420
2463 4836
2464 2537
2464 2789
2464 3345
2464 3398
2464 3415
2464 3698
2464 4060
2464 4292
2464 4308
2464 4445
2464 4521
2464 4588
2464 4881
2464 4973
2465 2538
2465 2950
2465 3559
2465 3970
2465 3992
2465 4270
2465 4594
2465 4639
2466 2697
2466 2778
2466 2835
2466 2841
2466 3355
2466 3375
2466 3442
2466 3554
2466 4142
2466 4174
2466 4183
2466 4410
2466 4416
2466 4461
2466 4746
2467 2519
2467 2538
2467 2663
2467 2754
2467 3038
2467 3344
2467 3844
2467 3846
2467 3856
2467 4122
2467 4157
2467 4162
2467 4380
2467 4400
2467 4507
2467 4537
2467 4711
2467 4713
2467 4753
2467 4815
2468 2632
2468 3096
2468 3465
2468 3519
2468 3710
2468 3918
2468 3924
2468 4423
2468 4957
2469 2484
2469 2490
2469 2522
2469 2540
2469 2615
2469 2692
2469 2722
2469 2745
2469 2792
2469 2832
2469 2875
2469 2990
2469 3080
2469 3346
2469 3530
2469 3541
2469 3758
2469 3764
2469 3780
2469 3807
2469 3817
2469 3864
2469 3957
2469 4043
2469 4052
2469 4070
2469 4105
2469 4144
2469 4183
2469 4258
2469 4271
2469 4357
2469 4390
2469 4468
2469 4592
2469 4654
2469 4762
2469 4768
2469 4835
2469 4862
2469 4886
2469 4987
2470 2529
2470 2574
2470 2605
2470 2663
2470 2718
2470 3063
2470 3111
2470 3624
2470 3879
2470 4235
2470 4470
2470 4720
2471 2518
2471 3135
2471 3202
2471 3244
2471 3482
2471 4026
2471 4056
2471 4278
2471 4528
2471 4547
2472 2980
2472 3417
2472 3582
2472 3595
2472 3932
2472 4018
2472 4170
2472 4270
2472 4328
2472 4420
2473 2513
2473 2817
2473 2948
2473 3147
2473 3198
2473 3439
2473 3563
2473 4701
2473 4746
2474 2524
2474 2678
2474 2790
2474 3093
2474 3216
2474 3228
2474 3326
2474 3601
2474 4228
2474 4404
2474 4586
2475 2479
2475 3122
2475 3166
2475 3824
2475 4127
2475 4197
2475 4591
2476 2876
2476 3759
2476 3843
2476 3915
2476 4232
2476 4300
2476 4645
2476 4898
2477 2579
2477 2872
2477 3564
2477 3851
2477 3986
2477 4016
2477 4127
2477 4150
2477 4411
2477 4608
2478 2498
2478 2538
2478 2734
2478 2825
2478 2856
2478 2895
2478 3321
2478 3422
2478 3428
2478 3464
2478 3650
2478 3946
2478 4238
2478 4426
2478 4852
2478 4906
2478 4946
2479 2519
2479 2644
2479 3100
2479 3130
2479 3706
2479 3744
2479 3762
2479 3786
2479 3932
2479 4004
2479 4141
2479 4505
2479 4695
2479 4762
2479 4842
2479 4869
2479 4900
2480 2909
2480 3562
2480 4109
2480 4176
2480 4319
2480 4478
2480 4855
2481 3437
2481 3541
2481 3805
2481 3845
2481 3918
2481 4130
2481 4808
2482 2784
2482 2805
2482 3931
2482 3994
2482 4306
2483 2685
2483 2867
2483 2939
2483 3145
2483 3425
2483 3439
2483 3602
2483 3671
2483 3700
2483 4046
2483 4762
2484 2651
2484 2774
2484 2876
2484 3170
2484 3566
2484 3722
2484 4051
2484 4266
2484 4746
2484 4805
2484 4950
2485 2810
2485 3047
2485 3094
2485 3299
2485 3700
2485 3918
2485 4089
2485 4277
2485 4503
2485 4621
2486 2602
2486 2610
2486 2650
2486 3346
2486 3429
2486 3582
2486 3708
2486 3778
2486 3874
2486 3914
2486 4125
2486 4325
2486 4911
2487 2702
2487 2941
2487 3049
2487 3303
2487 3395
2487 3571
2487 3637
2487 3976
2487 4261
2487 4383
2487 4728
2487 4758
2487 4788
2488 2566
2488 2569
2488 2637
2488 2740
2488 2963
2488 3086
2488 3621
2488 3691
2488 3986
2488 4142
2488 4185
2488 4402
2488 4412
2488 4500
2488 4876
2489 3026
2489 3061
2489 3525
2489 3681
2489 3989
2489 4186
2489 4201
2489 4405
2489 4754
2489 4820
2489 4986
2490 2996
2490 3058
2490 3125
2490 3406
2490 3575
2490 3597
2490 3652
2490 3994
2490 4248
2490 4388
2490 4749
2491 2582
2491 2625
2491 2803
2491 2903
2491 3733
2491 4069
2491 4405
2491 4518
2491 4585
2491 4672
2492 3025
2492 3032
2492 3300
2492 3362
2492 3582
2492 4172
2492 4286
2492 4372
2492 4485
2492 4489
2492 4653
2492 4988
2493 2593
2493 3006
2493 3150
2493 3419
2493 3735
2493 3793
2493 3828
2493 4310
2493 4405
2493 4686
2494 2801
2494 3153
2494 3168
2494 3766
2494 4191
2494 4821
2494 4897
2495 2502
2495 2576
2495 2731
2495 2908
2495 3944
2495 4176
2496 2499
2496 2985
2496 3126
2496 4053
2496 4150
2496 4366
2496 4450
2496 4724
2497 2757
2497 2804
2497 2829
2497 3159
2497 3491
2497 3595
2497 3766
2497 4151
2497 4323
2497 4397
2497 4408
2497 4653
2498 2531
2498 2774
2498 2911
2498 3271
2498 3529
2498 3679
2498 3776
2498 3894
2498 4110
2498 4140
2498 4299
2498 4457
2498 4494
2498 4750
2498 4992
2499 2608
2499 2634
2499 2810
2499 2904
2499 2917
2499 2936
2499 2993
2499 3034
2499 3041
2499 3092
2499 3221
2499 3319
2499 3327
2499 3384
2499 3536
2499 3594
2499 3626
2499 3720
2499 3729
2499 3740
2499 3757
2499 3866
2499 3932
2499 3953
2499 4056
2499 4062
2499 4105
2499 4673
2499 4789
2499 4892
2499 4940
2499 4941
2500 2625
2500 2714
2500 2729
2500 3038
2500 3097
2500 3189
2500 3464
2500 3766
2500 4315
2500 4507
2500 4733
2500 4852
2500 4901
2500 4929
2501 2774
2501 3119
2501 3199
2501 3302
2501 3356
2501 3597
2501 3940
2501 4456
2501 4804
2501 4906
2502 2508
2502 2658
2502 2877
2502 2933
2502 3136
2502 3303
2502 3716
2502 3853
2502 4068
2502 4162
2502 4322
2502 4368
2502 4705
2502 4751
2503 2747
2503 3005
2503 3248
2503 3271
2503 3531
2503 3558
2503 3973
2503 4019
2503 4169
2503 4611
2503 4622
2503 4831
2503 4944
2504 2525
2504 2698
2504 2723
2504 2728
2504 2861
2504 2981
2504 3090
2504 3173
2504 3270
2504 3433
2504 3503
2504 3623
2504 3744
2504 3851
2504 4512
2504 4558
2504 4561
2504 4759
2504 4870
2505 2743
2505 3138
2505 3881
2505 3924
2505 3949
2505 4020
2505 4266
2505 4309
2505 4808
2506 2519
2506 2887
2506 2967
2506 3371
2506 3548
2506 3626
2506 4486
2506 4496
2506 4581
2506 4860
2507 2512
2507 2544
2507 3476
2507 3553
2507 4240
2507 4568
2507 4760
2508 2625
2508 3485
2508 3661
2508 3738
2508 4075
2508 4088
2508 4288
2508 4446
2509 2516
2509 2891
2509 3047
2509 3073
2509 3315
2509 3550
2509 3606
2509 3616
2509 3622
2509 3842
2509 3910
2509 3985
2509 4402
2509 4587
2509 4649
2509 4805
2509 4888
2510 2604
2510 2714
2510 2926
2510 3432
2510 3634
2510 3878
2510 4310
2510 4711
2510 4865
2511 2791
2511 2793
2511 2939
2511 2959
2511 3060
2511 3068
2511 3396
2511 3750
2511 3915
2511 4194
2511 4754
2511 4762
2511 4804
2512 2613
2512 2637
2512 2790
2512 3355
2512 3973
2512 4050
2512 4058
2512 4070
2512 4227
2512 4315
2512 4905
2513 2656
2513 3060
2513 3087
2513 3637
2513 4042
2513 4068
2513 4085
2513 4674
2513 4841
2513 4902
2514 2577
2514 2694
2514 2892
2514 3011
2514 3136
2514 3311
2514 3363
2514 3408
2514 3444
2514 3533
2514 3776
2514 3986
2514 4284
2514 4330
2514 4633
2514 4734
2514 4874
2515 2538
2515 2879
2515 3384
2515 4095
2515 4127
2515 4670
2516 3471
2516 3796
2516 3878
2516 3987
2516 4179
2516 4400
2516 4462
2516 4472
2516 4868
2517 2692
2517 2743
2517 2935
2517 3394
2517 3758
2517 4118
2517 4147
2517 4196
2517 4244
2517 4489
2517 4720
2517 4978
2518 2676
2518 2920
2518 3049
2518 3281
2518 3459
2518 3638
2518 3797
2518 3866
2518 4019
2518 4032
2518 4150
2518 4213
2518 4670
2518 4704
2518 4852
2518 4925
2519 2579
2519 2600
2519 2648
2519 2666
2519 3087
2519 3116
2519 3170
2519 3520
2519 3561
2519 3571
2519 3591
2519 3777
2519 3836
2519 3958
2519 4121
2519 4202
2519 4372
2519 4478
2519 4558
2519 4595
2519 4619
2519 4999
2520 2538
2520 2615
2520 2665
2520 3123
2520 3608
2520 3733
2520 4067
2520 4316
2520 4439
2520 4742
2520 4788
2520 4958
2521 2655
2521 2773
2521 2862
2521 2931
2521 3005
2521 3158
2521 3255
2521 3387
2521 3878
2521 3976
2521 4055
2521 4144
2521 4146
2521 4323
2521 4409
2521 4414
2521 4429
2521 4591
2521 4602
2521 4603
2521 4665
2521 4889
2521 4900
2522 2608
2522 3435
2522 3474
2522 3542
2522 3581
2522 3588
2522 3813
2522 4490
2522 4694
2522 4855
2522 4895
2523 2664
2523 2815
2523 2995
2523 3216
2523 3347
2523 3439
2523 3597
2523 3646
2523 3652
2523 3957
2523 4101
2523 4109
2523 4456
2523 4657
2523 4758
2524 2546
2524 2715
2524 3070
2524 3411
2524 3440
2524 3686
2524 3853
2524 3900
2524 3941
2524 3952
2524 4213
2524 4232
2524 4368
2524 4389
2524 4577
2524 4847
2524 4871
2525 2526
2525 2796
2525 2893
2525 3768
2525 3810
2525 4022
2525 4081
2525 4228
2525 4483
2525 4571
2525 4580
2525 4714
2525 4935
2526 2719
2526 2730
2526 2871
2526 2874
2526 2877
2526 3083
2526 3087
2526 3110
2526 3180
2526 3281
2526 3295
2526 3361
2526 3562
2526 3963
2526 3965
2526 4496
2526 4538
2526 4612
2526 4648
2526 4688
2526 4739
2526 4860
2527 2680
2527 2927
2527 3039
2527 3533
2527 3782
2527 4077
2527 4364
2527 4388
2527 4506
2527 4523
2527 4918
2527 4999
2528 2632
2528 2642
2528 2785
2528 2900
2528 3034
2528 3237
2528 3492
2528 3497
2528 4659
2529 2631
2529 2992
2529 3116
2529 4096
2529 4124
2529 4421
2529 4523
2529 4540
2529 4563
2529 4636
2530 3758
2530 3904
2530 4463
2530 4639
2531 2537
2531 2550
2531 2565
2531 2651
2531 2697
2531 2853
2531 3167
2531 3497
2531 3602
2531 3745
2531 3784
2531 3793
2531 4162
2531 4505
2531 4660
2531 4928
2532 2643
2532 2865
2532 3076
2532 3204
2532 3262
2532 3735
2532 3851
2532 4323
2532 4658
2532 4663
2533 3244
2533 4372
2533 4571
2533 4656
2533 4785
2533 4833
2534 2861
2534 3027
2534 3100
2534 3185
2534 3484
2534 3947
2534 4151
2534 4472
2534 4621
2535 2944
2535 3176
2535 3579
2535 3751
2535 3806
2535 3830
2535 3994
2535 4073
2535 4181
2535 4196
2535 4258
2535 4500
2535 4742
2536 2615
2536 2934
2536 3323
2536 3435
2536 3518
2536 3533
2536 3997
2536 4154
2536 4176
2536 4233
2536 4651
2536 4699
2536 4742
2536 4774
2537 2572
2537 2708
2537 2731
2537 2790
2537 2803
2537 2819
2537 2869
2537 2871
2537 2889
2537 3062
2537 3100
2537 3154
2537 3165
2537 3168
2537 3194
2537 3204
2537 3268
2537 3295
2537 3317
2537 3334
2537 3549
2537 3636
2537 3733
2537 3744
2537 3794
2537 3890
2537 3951
2537 4040
2537 4075
2537 4139
2537 4158
2537 4262
2537 4317
2537 4352
2537 4356
2537 4391
2537 4616
2537 4644
2537 4757
2537 4823
2537 4840
2537 4860
2538 2791
2538 2867
2538 3024
2538 3058
2538 3076
2538 3117
2538 3289
2538 3293
2538 3437
2538 3552
2538 3568
2538 3653
2538 4277
2538 4326
2538 4353
2538 4461
2538 4517
2538 4557
2538 4612
2538 4702
2538 4864
2539 2740
2539 3040
2539 3096
2539 3725
2539 4153
2539 4187
2540 2876
2540 3135
2540 3582
2540 3849
2540 4599
2540 4940
2541 2637
2541 2656
2541 2768
2541 2882
2541 3558
2541 3709
2541 3928
2541 4068
2541 4392
2541 4416
2541 4583
2542 2592
2542 2693
2542 2720
2542 2748
2542 2866
2542 3419
2542 3438
2542 3979
2542 4456
2542 4615
2542 4705
2542 4969
2543 2813
2543 3209
2543 3245
2543 3366
2543 3687
2543 3779
2543 3932
2543 4119
2543 4211
2543 4237
2543 4340
2543 4483
2543 4523
2543 4635
2543 4992
2544 2586
2544 2654
2544 3527
2544 3782
2544 3868
2544 3965
2544 4008
2544 4121
2544 4128
2544 4286
2544 4311
2544 4323
2544 4693
2544 4762
2544 4797
2544 4865
2544 4886
2545 2583
2545 2943
2545 3128
2545 3133
2545 3196
2545 3695
2545 3713
2545 3732
2545 4027
2545 4716
2546 2685
2546 2829
2546 2838
2546 2956
2546 3068
2546 3090
2546 3681
2546 4035
2546 4140
2546 4732
2546 4798
2547 3106
2547 3245
2547 3393
2547 3965
2547 4459
2547 4578
2547 4625
2547 4802
2548 3718
2548 3897
2548 3973
2548 3988
2548 4004
2548 4009
2548 4046
2548 4109
2548 4210
2548 4250
2548 4346
2548 4353
2548 4436
2548 4458
2548 4670
2548 4940
2549 2604
2549 2838
2549 2928
2549 3193
2549 3196
2549 3356
2549 3785
2549 4130
2549 4188
2549 4272
2549 4379
2549 4407
2549 4415
2549 4560
2549 4601
2549 4784
2549 4895
2550 2571
2550 2712
2550 2767
2550 2855
2550 2877
2550 3135
2550 3168
2550 3186
2550 3193
2550 3242
2550 3563
2550 3593
2550 3627
2550 3716
2550 4020
2550 4062
2550 4119
2550 4143
2550 4319
2550 4434
2550 4570
2551 2563
2551 2894
2551 3072
2551 3439
2551 3510
2551 4064
2551 4115
2551 4269
2552 2574
2552 2655
2552 2861
2552 3011
2552 3209
2552 3303
2552 3529
2552 3618
2552 3733
2552 3823
2552 3839
2552 3959
2552 4461
2552 4513
2552 4625
2552 4676
2553 2555
2553 2633
2553 3277
2553 3398
2553 3436
2553 3554
2553 3822
2553 3985
2553 4032
2553 4616
2554 2916
2554 2983
2554 3545
2554 3589
2554 3773
2554 4035
2554 4333
2554 4507
2554 4510
2555 2679
2555 2728
2555 2748
2555 3036
2555 3204
2555 3403
2555 3470
2555 3656
2555 3779
2555 3824
2555 3875
2555 4266
2555 4415
2556 2633
2556 2651
2556 2699
2556 3351
2556 3528
2556 3657
2556 3787
2556 3831
2556 3834
2556 4178
2556 4323
2556 4722
2556 4778
2556 4830
2557 3635
2557 3984
2557 4034
2557 4068
2557 4078
2557 4146
2557 4346
2557 4518
2557 4743
2557 4853
2558 2751
2558 3353
2558 3391
2558 3469
2558 3795
2558 3941
2558 3947
2558 4173
2558 4730
2558 4747
2559 2637
2559 2907
2559 3198
2559 3253
2559 3285
2559 4049
2559 4050
2559 4364
2559 4391
2559 4469
2559 4558
2560 3080
2560 3141
2560 3755
2560 3994
2560 4224
2560 4651
2561 2785
2561 2831
2561 3281
2561 3371
2561 3541
2561 3581
2561 4039
2561 4225
2561 4375
2561 4490
2561 4519
2561 4748
2562 3142
2562 3162
2562 3453
2562 3541
2562 3716
2562 4071
2562 4526
2562 4747
2562 4762
2563 2635
2563 2754
2563 2792
2563 2818
2563 3005
2563 3054
2563 3323
2563 3412
2563 3497
2563 3541
2563 3556
2563 3598
2563 3611
2563 3635
2563 3698
2563 3722
2563 3840
2563 3892
2563 4038
2563 4357
2563 4423
2563 4748
2563 4883
2563 4908
2563 4945
2564 3157
2564 3447
2564 3481
2564 3716
2564 4026
2564 4032
2564 4266
2564 4670
2564 4886
2564 4920
2564 4931
2565 2844
2565 3153
2565 3503
2565 4523
2565 4730
2565 4896
2566 2972
2566 3027
2566 3057
2566 3220
2566 3278
2566 3436
2566 3688
2566 4186
2566 4384
2566 4947
2567 2594
2567 3326
2567 3395
2567 3457
2567 3477
2567 3492
2567 3509
2567 3860
2567 4537
2567 4712
2567 4846
2567 4854
2568 2867
2568 2979
2568 3234
2568 4376
2568 4622
2568 4663
2569 2632
2569 2724
2569 3045
2569 3356
2569 3509
2569 3660
2569 3806
2569 3878
2569 3967
2569 4088
2569 4237
2569 4584
2569 4830
2570 3478
2570 3797
2570 3846
2570 3978
2570 4572
2571 3109
2571 3497
2571 3915
2572 2594
2572 2676
2572 2758
2572 2842
2572 3011
2572 3060
2572 3080
2572 3562
2572 3583
2572 4055
2572 4099
2572 4407
2572 4417
2573 2765
2573 2910
2573 3342
2573 3418
2573 3535
2573 3817
2573 3853
2573 3893
2573 4141
2573 4557
2573 4595
2573 4644
2574 2927
2574 2982
2574 3041
2574 3102
2574 3272
2574 3363
2574 3678
2574 3692
2574 4207
2574 4296
2574 4415
2574 4969
2574 4972
2575 3078
2575 3116
2575 3286
2575 3315
2575 4166
2575 4317
2575 4633
2575 4794
2575 4874
2576 2684
2576 2876
2576 2985
2576 3024
2576 3209
2576 3243
2576 3416
2576 3484
2576 3579
2576 3722
2576 3742
2576 3858
2576 4268
2576 4376
2576 4857
2576 4935
2576 4976
2577 2873
2577 3233
2577 3259
2577 3442
2577 4422
2577 4849
2577 4994
2578 2638
2578 2694
2578 3033
2578 3146
2578 3211
2578 3462
2578 3729
2578 3792
2578 4303
2578 4391
2579 2661
2579 3497
2579 3503
2579 3661
2579 3939
2579 4037
2579 4043
2579 4079
2580 2934
2580 2972
2580 2990
2580 3464
2580 3609
2580 4987
2581 2688
2581 2842
2581 3303
2581 3311
2581 3378
2581 3613
2581 3644
2581 3761
2581 3774
2581 3911
2581 3966
2581 4639
2582 2791
2582 2812
2582 2879
2582 3074
2582 3107
2582 3300
2582 3415
2582 3440
2582 3766
2582 3774
2582 4264
2582 4564
2582 4620
2582 4886
2583 2608
2583 3231
2583 3411
2583 3439
2583 3798
2583 3938
2583 4058
2583 4141
2583 4302
2583 4368
2583 4761
2584 2594
2584 3036
2584 3088
2584 3131
2584 3287
2584 3361
2584 3377
2584 3507
2584 3629
2584 4081
2584 4238
2584 4263
2584 4384
2584 4496
2584 4531
2584 4622
2584 4635
2584 4722
2584 4880
2585 2607
2585 2635
2585 2969
2585 3026
2585 3038
2585 3125
2585 3228
2585 3573
2585 3687
2585 3734
2585 4031
2585 4461
2585 4509
2585 4563
2585 4595
2585 4687
2586 2607
2586 3243
2586 3640
2586 3908
2586 4356
2586 4956
2586 4992
2587 2880
2587 3254
2587 3289
2587 3355
2587 3641
2587 3755
2587 3824
2587 3906
2587 4263
2587 4346
2587 4437
2587 4490
2587 4595
2587 4621
2587 4780
2587 4842
2588 2617
2588 2764
2588 2795
2588 3024
2588 3112
2588 3569
2588 3862
2588 4005
2588 4133
2588 4176
2588 4213
2588 4242
2588 4564
2588 4595
2588 4673
2588 4889
2589 2685
2589 2998
2589 3217
2589 3220
2589 3245
2589 3539
2589 3631
2589 4245
2589 4499
2590 3135
2590 3567
2590 3603
2590 4021
2590 4051
2590 4077
2590 4238
2590 4330
2590 4546
2590 4918
2590 4925
2590 4934
2591 2638
2591 2718
2591 3052
2591 3350
2591 3509
2591 3788
2591 3897
2591 3936
2591 4114
2591 4247
2591 4365
2591 4916
2592 2629
2592 2678
2592 2699
2592 3152
2592 3280
2592 3295
2592 3432
2592 3645
2592 3920
2592 3935
2592 4013
2592 4596
2592 4950
2593 2611
2593 2885
2593 3098
2593 3489
2593 3536
2593 3656
2593 3690
2593 3698
2593 3759
2593 3916
2593 4229
2593 4571
2593 4921
2593 4949
2594 2663
2594 2733
2594 3395
2594 3742
2594 3772
2594 4095
2594 4598
2595 2812
2595 2939
2595 3036
2595 3533
2595 3728
2595 3759
2595 3967
2595 4005
2595 4163
2595 4595
2595 4843
2596 2714
2596 2819
2596 3023
2596 3024
2596 3846
2596 3880
2596 3924
2596 3972
2596 4146
2596 4206
2596 4218
2596 4535
2596 4599
2596 4771
2596 4888
2597 2690
2597 2820
2597 3342
2597 3497
2597 3796
2597 3908
2597 4180
2597 4330
2597 4507
2598 2859
2598 3023
2598 3054
2598 3190
2598 3347
2598 3398
2598 3568
2598 4100
2598 4127
2598 4150
2598 4273
2598 4310
2598 4510
2598 4543
2598 4752
2599 2675
2599 2696
2599 2743
2599 2952
2599 3072
2599 3276
2599 3603
2599 3868
2599 3913
2599 3927
2599 3955
2599 4227
2599 4242
2599 4685
2600 2833
2600 2958
2600 2976
2600 3661
2600 3957
2600 4079
2600 4501
2600 4815
2601 2706
2601 2840
2601 2868
2601 2872
2601 3519
2601 3549
2601 3736
2601 4080
2601 4670
2601 4709
2602 2723
2602 3030
2602 3299
2602 3559
2602 3611
2602 3629
2602 3631
2602 3776
2602 3785
2602 3952
2602 4253
2602 4330
2602 4588
2602 4616
2602 4643
2602 4922
2603 3015
2603 3220
2603 3588
2603 3657
2603 3742
2603 4136
2603 4833
2603 4939
2604 2975
2604 2982
2604 2988
2604 3260
2604 3324
2604 3614
2604 3697
2604 3902
2604 4006
2604 4341
2604 4415
2604 4425
2604 4652
2604 4714
2604 4838
2604 4854
2604 4948
2605 3169
2605 3600
2605 3881
2605 3910
2605 3994
2605 4020
2605 4034
2605 4136
2605 4599
2605 4737
2605 4852
2605 4976
2606 3039
2606 3299
2606 3508
2606 3805
2606 4350
2606 4411
2606 4489
2606 4532
2606 4882
2606 4952
2607 2630
2607 3256
2607 3351
2607 3558
2607 4237
2607 4247
2607 4334
2607 4421
2607 4429
2607 4959
2608 2853
2608 3150
2608 3327
2608 3444
2608 3551
2608 3659
2608 3788
2609 3674
2609 3694
2609 4160
2609 4228
2609 4988
2610 2747
2610 2850
2610 2876
2610 3055
2610 3491
2610 3554
2610 3569
2610 3670
2610 3941
2610 3978
2610 4107
2610 4258
2610 4309
2610 4488
2610 4941
2611 2674
2611 2990
2611 3029
2611 3587
2611 4632
2611 4651
2611 4666
2612 2648
2612 2673
2612 2685
2612 2782
2612 2838
2612 3112
2612 3357
2612 3461
2612 3703
2612 3749
2612 3794
2612 3914
2612 3947
2612 3957
2612 4217
2612 4299
2612 4506
2612 4911
2612 4919
2613 2650
2613 3607
2613 3700
2613 3734
2613 3968
2613 4051
2613 4194
2613 4451
2613 4459
2614 2659
2614 2842
2614 2916
2614 3009
2614 3097
2614 3641
2614 3999
2614 4159
2614 4214
2614 4316
2614 4388
2614 4426
2614 4462
2614 4661
2614 4721
2614 4740
2614 4767
2614 4910
2615 2888
2615 2920
2615 3039
2615 3075
2615 3120
2615 3199
2615 3210
2615 3414
2615 3551
2615 3688
2615 3932
2615 4052
2615 4150
2615 4482
2615 4484
2615 4604
2615 4711
2616 3028
2616 3085
2616 3136
2616 3638
2616 3769
2616 3818
2616 4035
2616 4122
2616 4128
2616 4398
2616 4588
2616 4670
2616 4680
2617 4095
2617 4119
2617 4577
2617 4626
2617 4639
2617 4808
2617 4857
2618 2777
2618 2842
2618 2992
2618 3066
2618 3167
2618 3367
2618 3545
2618 4086
2618 4137
2618 4183
2618 4334
2618 4388
2618 4595
2618 4612
2618 4880
2619 3506
2619 3563
2619 3578
2619 3613
2619 4192
2620 2657
2620 2883
2620 2975
2620 2985
2620 3448
2620 3554
2620 3685
2620 4060
2620 4388
2620 4866
2621 2994
2621 3047
2621 3144
2621 3457
2621 4013
2621 4817
2621 4992
2622 3163
2622 4152
2622 4549
2622 4574
2622 4581
2622 4815
2622 4864
2623 2810
2623 2834
2623 3032
2623 3095
2623 3374
2623 3487
2623 3551
2623 3892
2623 3909
2623 3912
2623 3913
2623 3995
2623 4070
2623 4096
2623 4490
2623 4510
2623 4568
2623 4809
2624 2862
2624 2946
2624 3379
2624 3675
2624 4415
2624 4573
2625 2638
2625 2759
2625 2935
2625 2947
2625 3247
2625 3267
2625 3674
2625 3839
2625 3973
2625 4272
2625 4301
2625 4405
2625 4650
2625 4666
2625 4672
2625 4697
2626 3596
2626 3654
2626 3895
2626 4209
2626 4737
2627 2700
2627 3028
2627 3147
2627 3160
2627 3451
2627 3766
2627 3901
2627 4609
2627 4632
2627 4639
2627 4654
2627 4740
2628 2712
2628 2718
2628 2728
2628 2888
2628 3000
2628 4078
2628 4163
2628 4741
2628 4825
2628 4871
2628 4995
2629 2741
2629 4523
2629 4672
2629 4844
2630 2631
2630 2946
2630 3294
2630 3482
2630 3749
2630 3874
2630 4076
2630 4128
2630 4228
2630 4747
2630 4889
2631 2633
2631 2667
2631 2726
2631 3502
2631 3560
2631 3561
2631 3861
2631 3918
2631 4031
2631 4162
2631 4394
2631 4442
2631 4694
2631 4713
2632 2640
2632 2659
2632 2824
2632 2846
2632 2847
2632 2849
2632 2898
2632 2943
2632 2991
2632 3025
2632 3040
2632 3125
2632 3208
2632 3227
2632 3311
2632 3476
2632 3533
2632 3538
2632 3622
2632 3703
2632 3717
2632 3770
2632 3861
2632 3884
2632 3912
2632 3940
2632 3959
2632 3963
2632 3977
2632 4110
2632 4133
2632 4223
2632 4270
2632 4385
2632 4412
2632 4673
2632 4691
2632 4700
2632 4857
2632 4859
2632 4948
2632 4982
2633 2676
2633 2740
2633 2752
2633 2759
2633 2805
2633 2809
2633 3067
2633 3075
2633 3166
2633 3303
2633 3560
2633 3570
2633 4020
2633 4034
2633 4145
2633 4255
2633 4272
2633 4335
2633 4363
2633 4785
2633 4927
2633 4937
2634 2847
2634 2860
2634 3126
2634 3259
2634 4052
2634 4533
2635 2675
2635 2740
2635 2751
2635 2828
2635 2930
2635 2954
2635 3070
2635 3106
2635 3116
2635 3155
2635 3246
2635 3344
2635 3631
2635 3647
2635 4167
2635 4187
2635 4299
2635 4461
2635 4524
2635 4621
2635 4639
2635 4678
2635 4689
2635 4730
2635 4759
2635 4795
2635 4863
2636 2735
2636 2924
2636 2954
2636 3024
2636 3143
2636 3358
2636 3453
2636 3482
2636 3557
2636 4573
2636 4669
2636 4824
2636 4889
2637 2880
2637 2990
2637 3098
2637 3353
2637 3479
2637 3560
2637 3861
2637 4101
2637 4418
2637 4901
2638 2851
2638 2949
2638 3104
2638 3194
2638 3482
2638 3590
2638 3658
2638 3743
2638 3932
2638 4000
2638 4047
2638 4534
2638 4639
2638 4644
2638 4782
2638 4895
2638 4896
2638 4930
2639 2696
2639 2879
2639 2946
2639 2974
2639 3183
2639 3506
2639 3688
2639 3811
2639 3829
2639 3965
2639 4071
2639 4487
2639 4798
2639 4849
2640 2694
2640 2909
2640 3154
2640 3247
2640 3792
2640 3953
2640 4457
2640 4843
2640 4861
2640 4932
2640 4940
2641 3303
2641 3332
2641 3533
2641 3724
2641 4157
2641 4201
2641 4394
2642 2873
2642 3210
2642 3427
2642 4018
2642 4496
2642 4497
2642 4808
2643 3070
2643 3197
2643 3601
2643 3725
2643 3804
2643 3805
2643 3987
2643 4072
2643 4765
2644 2851
2644 2937
2644 2967
2644 2990
2644 2996
2644 3054
2644 3087
2644 3094
2644 3103
2644 3270
2644 3315
2644 3351
2644 3358
2644 3381
2644 3412
2644 3413
2644 3478
2644 3734
2644 3887
2644 4071
2644 4073
2644 4085
2644 4152
2644 4169
2644 4171
2644 4213
2644 4234
2644 4246
2644 4371
2644 4395
2644 4674
2644 4882
2644 4884
2644 4915
2644 4936
2645 3194
2645 3446
2645 3514
2645 4523
2645 4574
2645 4635
2645 4742
2645 4877
2646 2697
2646 3332
2646 3744
2646 4336
2646 4712
2647 2872
2647 2984
2647 2998
2647 3078
2647 3267
2647 3341
2647 3613
2647 3687
2647 3723
2647 3769
2647 4033
2647 4050
2647 4096
2647 4537
2647 4611
2648 2984
2648 3303
2648 3541
2648 4408
2649 2809
2649 3083
2649 3258
2649 3431
2649 3603
2649 3611
2649 3724
2649 3742
2649 4237
2649 4532
2649 4683
2650 2700
2650 2709
2650 2737
2650 2738
2650 2817
2650 2820
2650 3055
2650 3120
2650 3220
2650 3428
2650 3536
2650 3749
2650 3907
2650 4083
2650 4158
2650 4256
2650 4362
2650 4411
2650 4520
2650 4676
2651 2671
2651 2687
2651 2844
2651 3288
2651 3464
2651 3581
2651 3932
2651 3939
2651 4074
2651 4296
2651 4388
2651 4550
2651 4669
2651 4740
2651 4745
2651 4883
2651 4982
2652 3090
2652 4183
2652 4206
2652 4309
2652 4930
2653 2659
2653 2802
2653 3874
2653 3924
2653 3970
2653 3973
2653 4223
2653 4384
2653 4523
2653 4679
2654 2693
2654 2709
2654 2917
2654 3131
2654 3324
2654 3564
2654 3612
2654 4409
2654 4421
2654 4507
2654 4581
2654 4760
2654 4847
2654 4862
2654 4876
2655 2679
2655 2719
2655 2802
2655 2810
2655 3056
2655 3229
2655 3304
2655 3482
2655 3539
2655 3578
2655 3583
2655 3642
2655 3661
2655 3908
2655 4089
2655 4112
2655 4128
2655 4241
2655 4281
2655 4286
2655 4390
2655 4424
2655 4466
2655 4593
2655 4669
2655 4708
2655 4841
2655 4867
2656 2849
2656 3094
2656 3395
2656 3871
2656 3900
2656 3998
2656 4187
2656 4222
2656 4281
2656 4399
2656 4571
2656 4617
2657 2749
2657 3299
2657 3638
2657 3661
2657 3757
2657 4612
2657 4652
2657 4888
2658 2744
2658 3038
2658 3255
2658 3621
2658 3714
2658 3933
2658 4121
2658 4284
2658 4372
2658 4639
2658 4914
2659 3056
2659 3198
2659 3303
2659 3509
2659 3830
2659 3902
2659 4126
2659 4484
2659 4711
2659 4747
2660 2686
2660 2756
2660 2778
2660 2806
2660 2924
2660 3104
2660 3197
2660 3471
2660 3526
2660 3536
2660 3582
2660 3701
2660 3721
2660 4035
2660 4295
2660 4304
2660 4359
2660 4674
2660 4812
2660 4863
2661 2718
2661 2821
2661 2883
2661 3034
2661 3221
2661 3341
2661 3351
2661 3395
2661 3683
2661 3722
2661 3760
2661 3814
2661 4021
2661 4063
2661 4541
2661 4929
2662 2686
2662 2718
2662 2774
2662 3412
2662 4158
2662 4595
2663 2746
2663 2776
2663 2846
2663 3011
2663 3039
2663 3057
2663 3122
2663 3450
2663 3592
2663 3787
2663 3792
2663 3915
2663 4095
2663 4395
2663 4580
2663 4588
2663 4781
2664 2798
2664 3068
2664 3073
2664 3515
2664 3908
2664 4965
2665 2792
2665 3202
2665 3366
2665 3651
2665 3849
2665 4080
2665 4573
2666 3710
2666 3994
2666 4573
2666 4922
2667 2823
2667 2853
2667 2919
2667 2968
2667 3188
2667 3576
2667 3839
2667 3897
2667 3946
2667 4270
2667 4643
2667 4701
2667 4793
2668 2785
2668 4022
2668 4079
2668 4894
2668 4962
2669 3463
2669 3467
2669 3996
2669 4022
2669 4212
2669 4424
2669 4469
2669 4501
2669 4718
2669 4749
2670 2672
2670 2756
2670 3011
2670 3077
2670 3180
2670 3419
2670 3461
2670 3557
2670 4068
2670 4302
2670 4567
2670 4831
2670 4933
2671 3269
2671 3709
2671 3713
2671 3876
2671 4012
2671 4203
2671 4266
2671 4287
2671 4351
2672 3788
2672 3921
2672 4631
2673 2851
2673 3193
2673 3242
2673 3403
2673 3504
2673 3727
2673 4076
2673 4410
2673 4532
2673 4880
2674 2706
2674 2732
2674 3219
2674 3390
2674 3438
2674 3580
2674 3586
2674 3588
2674 3635
2674 4009
2674 4138
2674 4320
2674 4483
2674 4544
2674 4556
2674 4738
2675 2680
2675 2804
2675 2873
2675 2982
2675 2996
2675 3025
2675 3087
2675 3115
2675 3185
2675 3219
2675 3278
2675 3308
2675 3392
2675 3393
2675 3590
2675 3607
2675 3660
2675 3716
2675 3780
2675 3853
2675 3891
2675 3899
2675 3906
2675 3976
2675 4022
2675 4145
2675 4152
2675 4177
2675 4362
2675 4394
2675 4509
2675 4757
2676 2705
2676 2736
2676 2793
2676 3012
2676 3017
2676 3176
2676 3214
2676 3567
2676 3578
2676 3579
2676 3654
2676 3717
2676 4002
2676 4044
2676 4076
2676 4212
2676 4440
2676 4471
2676 4596
2676 4682
2676 4739
2676 4965
2677 3670
2677 3800
2677 3918
2677 4425
2677 4611
2677 4672
2677 4898
2678 2853
2678 2940
2678 3591
2678 3681
2678 3744
2678 3806
2678 3862
2678 3864
2678 4002
2678 4162
2678 4290
2678 4489
2678 4860
2678 4937
2679 2695
2679 2759
2679 3129
2679 3156
2679 3198
2679 3853
2679 4578
2679 4831
2680 2798
2680 2903
2680 2942
2680 3028
2680 3045
2680 3088
2680 3243
2680 3248
2680 3323
2680 4163
2680 4218
2680 4765
2680 4894
2681 2705
2681 2842
2681 2946
2681 2984
2681 3004
2681 3158
2681 3747
2681 3845
2681 3942
2681 4030
2681 4045
2681 4270
2681 4450
2681 4675
2681 4848
2682 3835
2682 3963
2682 4394
2682 4537
2682 4750
2682 4762
2682 4785
2682 4898
2683 2984
2683 3010
2683 3251
2683 3509
2683 3619
2683 3898
2683 4176
2683 4196
2683 4200
2683 4735
2684 3114
2684 3335
2684 3651
2684 4060
2684 4350
2684 4532
2684 4737
2685 3218
2685 3255
2685 3297
2685 3340
2685 3540
2685 3614
2685 3851
2685 3973
2685 4284
2685 4323
2685 4381
2685 4389
2685 4392
2685 4481
2685 4511
2685 4542
2685 4593
2685 4694
2685 4719
2685 4818
2685 4863
2685 4995
2686 2762
2686 2846
2686 2930
2686 3080
2686 3502
2686 3884
2686 3981
2686 4027
2686 4094
2686 4228
2686 4688
2686 4702
2687 2869
2687 2990
2687 3177
2687 3371
2687 3376
2687 3406
2687 3497
2687 3978
2687 4087
2687 4277
2687 4361
2687 4600
2687 4897
2688 3078
2688 3085
2688 3531
2688 4175
2688 4250
2688 4313
2688 4416
2688 4705
2688 4833
2689 2731
2689 2902
2689 3546
2689 3692
2689 3703
2689 3978
2689 3981
2689 4021
2689 4377
2689 4522
2689 4813
2689 4919
2690 2758
2690 2830
2690 2850
2690 3094
2690 3433
2690 3526
2690 3582
2690 3635
2690 3650
2690 3806
2690 3872
2690 4708
2690 4886
2691 2813
2691 2886
2691 3017
2691 3668
2691 3789
2691 3936
2691 4318
2691 4431
2691 4496
2691 4741
2692 3087
2692 3126
2692 3257
2692 3613
2692 3618
2692 3697
2692 3801
2692 4013
2692 4196
2692 4321
2692 4408
2692 4717
2692 4862
2693 2856
2693 3031
2693 3116
2693 3823
2693 3824
2694 2743
2694 2749
2694 2849
2694 2966
2694 2994
2694 3075
2694 3222
2694 3607
2694 3858
2694 3867
2694 3892
2694 4072
2694 4473
2694 4488
2694 4505
2694 4605
2694 4708
2694 4811
2694 4889
2695 2771
2695 3121
2695 3198
2695 3769
2695 3801
2695 4068
2695 4135
2695 4242
2695 4646
2695 4683
2695 4700
2696 2810
2696 3203
2696 3495
2696 3827
2696 4121
2696 4292
2696 4393
2696 4573
2696 4853
2697 3167
2697 3365
2697 3603
2697 3770
2697 3839
2697 4199
2697 4422
2697 4570
2697 4660
2697 4785
2697 4896
2698 2812
2698 3683
2698 3843
2698 4109
2698 4154
2698 4325
2698 4512
2698 4880
2698 4964
2699 2808
2699 2870
2699 2994
2699 2996
2699 3823
2699 3839
2699 4585
2699 4615
2699 4623
2699 4748
2700 2754
2700 3017
2700 3083
2700 3183
2700 3304
2700 3583
2700 4133
2700 4579
2700 4651
2700 4745
2700 4764
2700 4768
2700 4902
2700 4962
2701 2721
2701 3065
2701 3263
2701 3277
2701 3612
2701 3741
2701 3769
2701 4047
2701 4273
2701 4705
2701 4725
2701 4916
2702 3011
2702 3237
2702 3245
2702 3562
2702 3661
2702 3749
2702 3759
2702 3964
2702 4155
2702 4629
2703 2791
2703 2985
2703 3706
2703 3844
2703 3924
2703 4032
2703 4041
2703 4368
2703 4719
2703 4755
2703 4777
2704 2867
2704 3044
2704 3358
2704 3418
2704 3658
2704 4087
2704 4153
2704 4496
2704 4889
2705 2866
2705 2950
2705 3011
2705 3190
2705 3237
2705 3333
2705 3473
2705 4004
2705 4162
2705 4195
2705 4484
2705 4592
2705 4805
2706 2781
2706 2813
2706 2831
2706 2897
2706 2959
2706 2976
2706 3373
2706 3419
2706 3462
2706 3504
2706 3614
2706 3618
2706 3752
2706 3772
2706 3951
2706 4354
2706 4498
2706 4502
2706 4653
2706 4720
2706 4877
2707 2894
2707 2990
2707 3287
2707 3571
2707 4445
2707 4522
2707 4589
2707 4767
2708 2878
2708 3542
2708 3650
2708 3724
2708 4131
2708 4499
2708 4590
2709 2997
2709 3098
2709 4044
2709 4253
2709 4302
2710 3024
2710 3053
2710 3789
2710 3823
2710 4035
2710 4149
2710 4557
2710 4639
2710 4835
2711 2722
2711 2740
2711 2796
2711 2898
2711 2928
2711 2962
2711 3079
2711 3083
2711 3113
2711 3288
2711 3488
2711 3561
2711 3602
2711 3641
2711 3773
2711 3857
2711 4143
2711 4165
2711 4235
2711 4256
2711 4270
2711 4361
2711 4382
2711 4514
2712 2969
2712 2988
2712 3314
2712 3315
2712 3359
2712 3386
2712 3717
2712 4066
2712 4102
2712 4616
2712 4626
2713 2939
2713 3082
2713 4082
2713 4367
2713 4470
2714 2863
2714 3729
2714 3776
2714 4275
2714 4421
2714 4632
2714 4872
2715 3233
2715 3514
2715 3650
2715 3764
2715 3782
2715 4136
2715 4825
2716 2754
2716 3098
2716 3289
2716 3997
2716 4115
2716 4229
2716 4585
2716 4827
2716 4893
2717 3548
2717 3629
2717 3852
2717 3969
2717 4026
2717 4183
2717 4188
2717 4681
2717 4729
2717 4964
2717 4999
2718 2990
2718 3134
2718 3135
2718 3155
2718 3288
2718 3411
2718 3437
2718 3608
2718 3712
2718 3972
2718 4145
2718 4195
2718 4214
2718 4269
2718 4300
2718 4484
2718 4795
2718 4853
2718 4976
2719 3033
2719 3332
2719 3349
2719 3411
2719 3510
2719 3562
2719 3631
2719 3843
2719 3851
2719 3939
2719 3967
2719 4095
2719 4197
2719 4228
2719 4388
2719 4527
2719 4886
2719 4994
2720 3134
2720 3379
2720 3589
2720 3984
2720 4091
2720 4136
2720 4594
2721 2961
2721 2996
2721 3527
2721 3595
2721 3845
2721 3909
2721 3985
2721 4430
2721 4642
2722 2774
2722 2794
2722 2866
2722 2966
2722 3242
2722 3288
2722 3334
2722 3697
2722 3727
2722 4726
2722 4862
2723 2736
2723 3008
2723 3009
2723 3058
2723 3662
2723 3685
2723 3714
2723 3727
2723 3797
2723 4051
2723 4162
2723 4305
2723 4534
2723 4821
2724 2845
2724 2887
2724 2947
2724 2978
2724 3277
2724 3683
2724 3705
2724 3756
2724 3960
2724 4008
2724 4020
2724 4065
2724 4275
2724 4553
2724 4633
2724 4736
2724 4747
2725 3020
2725 3445
2725 3542
2725 3562
2725 3621
2725 3716
2725 3767
2725 4266
2726 2821
2726 3116
2726 3529
2726 3664
2726 4804
2726 4957
2727 3276
2727 3423
2727 3764
2727 3785
2727 3793
2727 3993
2727 4031
2727 4070
2727 4207
2727 4969
2727 4983
2728 2799
2728 2951
2728 3000
2728 3041
2728 3061
2728 3077
2728 3155
2728 3186
2728 3216
2728 3245
2728 3272
2728 3338
2728 3424
2728 3437
2728 3581
2728 3597
2728 3731
2728 3937
2728 3968
2728 4031
2728 4242
2728 4245
2728 4366
2728 4385
2728 4394
2728 4451
2728 4501
2728 4567
2728 4596
2728 4609
2728 4644
2728 4681
2728 4729
2728 4945
2729 3234
2729 3305
2729 3705
2729 4032
2729 4186
2729 4639
2729 4811
2729 4902
2729 4926
2730 3117
2730 3168
2730 3921
2730 3952
2730 4485
2730 4568
2730 4820
2730 4992
2731 3056
2731 3098
2731 3265
2731 4639
2731 4676
2731 4804
2732 2792
2732 3167
2732 3299
2732 3318
2732 3569
2732 3632
2732 3663
2732 3717
2732 3968
2732 4256
2732 4417
2732 4440
2732 4612
2733 3042
2733 3563
2733 4161
2733 4352
2733 4827
2734 2934
2734 3100
2734 3154
2734 3359
2734 3500
2734 3529
2734 3632
2734 3725
2734 3770
2734 3878
2734 3976
2734 3980
2734 4514
2734 4560
2734 4670
2734 4765
2734 4824
2734 4991
2735 2740
2735 2770
2735 2842
2735 2859
2735 3027
2735 3035
2735 3256
2735 3589
2735 3648
2735 3672
2735 3691
2735 3698
2735 3708
2735 3765
2735 3834
2735 3883
2735 4000
2735 4189
2735 4223
2735 4278
2735 4330
2735 4760
2735 4764
2735 4857
2735 4862
2736 3202
2736 4330
2736 4361
2736 4415
2736 4623
2736 4959
2737 3750
2737 3766
2737 3909
2737 4178
2737 4213
2737 4256
2737 4358
2737 4785
2737 4941
2738 2784
2738 2925
2738 3004
2738 3202
2738 3235
2738 3293
2738 3301
2738 3476
2738 3630
2738 3761
2738 3801
2738 3814
2738 3873
2738 4473
2738 4494
2738 4496
2738 4654
2738 4890
2739 2903
2739 3213
2739 3802
2739 4067
2739 4140
2739 4603
2739 4615
2739 4629
2739 4765
2739 4770
2739 4819
2739 4841
2739 4880
2740 3013
2740 3212
2740 3311
2740 3334
2740 3335
2740 3475
2740 3536
2740 3729
2740 3843
2740 4032
2740 4498
2740 4691
2740 4742
2740 4929
2741 2986
2741 3039
2741 3296
2741 3326
2741 3586
2741 3640
2741 4022
2741 4133
2741 4174
2741 4372
2741 4393
2741 4417
2742 2959
2742 4053
2742 4215
2742 4291
2742 4330
2742 4506
2742 4679
2742 4680
2742 4888
2743 2915
2743 3305
2743 3306
2743 3568
2743 3793
2743 3928
2743 4144
2743 4905
2743 4919
2744 2945
2744 3641
2744 4375
2744 4898
2745 2752
2745 2754
2745 2876
2745 3839
2745 4229
2745 4326
2745 4691
2745 4897
2745 4939
2746 3154
2746 3373
2746 3518
2746 3621
2746 4162
2746 4358
2746 4757
2747 2903
2747 3089
2747 3201
2747 3671
2747 3989
2747 4086
2747 4238
2747 4263
2747 4313
2747 4328
2747 4701
2747 4740
2747 4901
2748 2889
2748 3207
2748 3391
2748 3506
2748 3593
2748 3803
2748 3853
2748 4294
2748 4555
2748 4616
2748 4808
2748 4820
2748 4862
2749 2789
2749 3156
2749 3233
2749 3261
2749 3302
2749 3489
2749 3895
2749 4483
2749 4829
2749 4966
2750 2777
2750 2960
2750 3831
2750 4123
2750 4321
2750 4729
2750 4950
2750 4983
2751 2925
2751 3098
2751 3192
2751 3603
2751 3700
2751 3869
2751 4065
2751 4111
2751 4472
2752 2793
2752 2930
2752 2938
2752 2986
2752 3212
2752 3307
2752 3362
2752 3394
2752 3677
2752 3870
2752 3907
2752 3938
2752 3946
2752 3989
2752 3991
2752 4024
2752 4055
2752 4067
2752 4162
2752 4178
2752 4265
2752 4283
2752 4482
2752 4519
2752 4662
2752 4727
2752 4735
2752 4892
2753 2938
2753 3251
2753 3536
2753 3541
2753 3725
2753 3950
2753 4004
2753 4192
2753 4373
2753 4693
2753 4739
2753 4806
2753 4944
2754 2807
2754 2824
2754 2826
2754 3173
2754 3277
2754 3381
2754 3546
2754 3557
2754 3566
2754 3651
2754 3654
2754 3712
2754 3794
2754 3876
2754 3903
2754 4105
2754 4184
2754 4186
2754 4277
2754 4295
2754 4353
2754 4441
2754 4540
2754 4554
2754 4654
2754 4695
2754 4735
2754 4798
2754 4815
2754 4867
2754 4880
2755 2889
2755 3029
2755 3044
2755 3516
2755 3812
2755 3878
2755 4073
2755 4463
2755 4559
2755 4808
2756 2992
2756 3581
2756 3592
2756 3627
2756 3692
2756 3971
2756 4043
2756 4108
2756 4446
2756 4535
2756 4572
2756 4822
2757 3153
2757 3237
2757 3378
2757 3602
2757 3678
2757 3819
2757 3824
2757 3843
2757 4086
2757 4087
2757 4204
2757 4406
2757 4506
2757 4723
2757 4897
2758 3183
2758 3236
2758 3358
2758 3667
2758 4189
2758 4868
2759 2880
2759 2926
2759 3013
2759 3044
2759 3118
2759 3145
2759 3354
2759 3523
2759 3566
2759 3668
2759 3716
2759 3781
2759 3826
2759 3979
2759 4055
2759 4069
2759 4115
2759 4450
2759 4531
2759 4765
2759 4789
2759 4793
2759 4848
2759 4923
2759 4961
2760 3536
2760 3796
2760 4195
2760 4320
2760 4475
2760 4682
2760 4846
2760 4949
2761 2964
2761 3140
2761 3575
2761 3701
2761 3849
2761 4456
2761 4605
2762 2874
2762 2909
2762 3007
2762 3054
2762 3188
2762 3232
2762 3584
2762 3777
2762 4016
2762 4082
2762 4206
2762 4482
2762 4825
2762 4848
2762 4886
2763 2952
2763 3025
2763 3057
2763 4808
2763 4990
2764 3072
2764 3150
2764 3419
2764 3772
2764 4349
2764 4761
2765 3039
2765 3312
2765 3666
2765 3708
2765 3789
2765 3805
2765 3929
2765 4503
2765 4540
2765 4564
2765 4740
2765 4863
2766 3001
2766 3010
2766 3352
2766 3433
2766 3464
2766 3708
2766 3898
2766 4042
2766 4176
2766 4220
2766 4588
2766 4602
2766 4652
2766 4793
2767 2819
2767 2947
2767 3210
2767 3215
2767 3597
2767 3751
2767 3786
2767 3882
2767 3945
2767 4140
2767 4510
2767 4609
2767 4616
2768 2779
2768 3057
2768 3096
2768 3319
2768 3754
2768 4346
2768 4714
2768 4888
2769 3022
2769 3136
2769 3419
2769 3627
2769 3890
2769 4046
2769 4165
2769 4703
2769 4747
2769 4826
2769 4863
2769 4867
2769 4873
2769 4958
2769 4972
2770 2799
2770 3046
2770 3304
2770 3436
2770 3627
2770 3796
2770 3846
2770 4266
2770 4319
2770 4359
2770 4506
2770 4563
2770 4688
2770 4757
2770 4999
2771 3525
2771 3635
2771 3923
2771 4021
2771 4211
2771 4272
2771 4669
2771 4717
2772 2964
2772 3189
2772 3299
2772 3887
2772 4210
2772 4443
2772 4785
2773 3022
2773 3075
2773 3141
2773 3419
2773 4058
2773 4795
2774 3028
2774 3114
2774 3875
2774 3890
2774 3932
2774 4496
2774 4630
2774 4758
2774 4858
2775 2865
2775 3162
2775 3281
2775 3314
2775 3738
2775 3853
2775 4239
2776 2839
2776 2844
2776 2856
2776 3189
2776 3417
2776 3587
2776 3770
2776 3783
2776 3919
2776 3961
2776 4005
2776 4050
2776 4073
2776 4090
2776 4209
2776 4456
2776 4540
2776 4664
2776 4846
2777 3016
2777 3284
2777 4002
2777 4122
2777 4459
2777 4477
2777 4743
2777 4780
2777 4827
2777 4843
2777 4938
2778 3072
2778 3374
2778 3583
2778 3787
2778 4762
2778 4831
2778 4857
2778 4898
2779 3017
2779 3150
2779 3299
2779 3335
2779 3800
2779 3821
2779 4052
2779 4221
2779 4637
2779 4670
2779 4820
2780 3314
2780 3597
2780 4102
2780 4921
2781 2936
2781 3352
2781 3369
2781 3673
2781 4462
2781 4496
2781 4805
2782 3031
2782 3048
2782 3094
2782 3294
2782 3336
2782 3341
2782 3420
2782 3469
2782 3587
2782 3593
2782 3736
2782 3963
2782 3971
2782 4611
2782 4628
2782 4765
2782 4933
2782 4961
2783 2831
2783 2856
2783 2909
2783 3267
2783 3400
2783 3435
2783 3450
2783 3533
2783 3536
2783 3546
2783 3786
2783 3940
2783 4145
2783 4359
2783 4947
2783 4971
2784 2787
2784 2846
2784 2861
2784 2867
2784 2885
2784 3875
2784 4353
2784 4372
2784 4804
2784 4941
2785 2954
2785 3324
2785 3371
2785 3377
2785 3470
2785 3475
2785 3476
2785 3524
2785 3755
2785 3790
2785 3854
2785 3947
2785 4001
2785 4031
2785 4135
2785 4199
2785 4272
2785 4296
2785 4308
2785 4330
2785 4564
2785 4622
2785 4791
2785 4816
2785 4855
2785 4945
2786 2942
2786 3335
2786 3561
2786 3659
2786 3769
2786 4153
2786 4929
2787 2887
2787 3052
2787 3197
2787 3271
2787 3309
2787 3598
2787 3874
2787 4040
2787 4700
2788 3541
2788 3882
2788 4654
2788 4754
2789 3302
2789 3358
2789 3423
2789 3508
2789 3835
2789 4157
2789 4461
2789 4810
2789 4966
2789 4995
2790 3228
2790 3446
2790 3522
2790 3726
2790 3761
2790 3907
2790 3912
2790 4041
2790 4095
2790 4742
2790 4847
2790 4983
2791 2852
2791 2859
2791 3331
2791 3606
2791 4096
2791 4128
2791 4150
2791 4151
2791 4403
2791 4437
2791 4439
2791 4526
2791 4747
2791 4786
2791 4867
2792 2818
2792 3216
2792 3265
2792 3398
2792 3425
2792 3435
2792 3579
2792 3642
2792 3821
2792 3926
2792 4044
2792 4058
2792 4123
2792 4185
2792 4312
2792 4422
2792 4512
2792 4741
2792 4935
2793 2906
2793 2969
2793 3116
2793 3187
2793 3849
2793 3973
2793 4246
2793 4721
2793 4731
2793 4939
2794 3053
2794 3113
2794 3173
2794 3239
2794 3430
2794 3492
2794 3567
2794 3616
2794 4688
2794 4790
2794 4998
2795 2820
2795 2897
2795 3039
2795 3214
2795 3370
2795 3627
2795 3927
2795 3994
2795 4208
2795 4266
2795 4511
2795 4587
2795 4716
2795 4821
2796 2821
2796 3008
2796 3033
2796 3171
2796 3483
2796 3825
2796 3936
2796 4206
2796 4458
2796 4500
2796 4861
2796 4945
2796 4989
2796 4992
2797 2872
2797 3345
2797 4213
2797 4472
2797 4734
2797 4840
2798 3326
2798 3729
2798 3851
2798 4060
2798 4974
2799 2990
2799 3034
2799 3177
2799 3333
2799 3484
2799 3562
2799 3739
2799 3904
2799 4132
2799 4649
2799 4658
2799 4923
2800 2894
2800 2927
2800 3039
2800 3332
2800 3977
2800 4041
2800 4544
2800 4747
2801 3459
2801 3495
2801 3623
2801 3747
2801 3847
2801 3853
2801 3924
2801 4317
2801 4737
2802 2821
2802 2928
2802 3229
2802 3271
2802 3329
2802 3450
2802 3609
2802 3631
2802 3975
2802 4239
2802 4277
2803 2950
2803 2991
2803 3236
2803 3246
2803 3294
2803 3723
2803 3789
2803 3851
2803 3953
2803 3978
2803 4185
2803 4186
2803 4313
2803 4380
2803 4770
2803 4849
2803 4889
2803 4893
2803 4912
2804 3424
2804 3744
2804 3837
2804 4228
2804 4313
2804 4756
2804 4803
2805 2922
2805 3256
2805 3637
2805 3854
2805 4030
2805 4559
2805 4652
2805 4964
2806 3230
2806 3235
2806 3315
2806 3395
2806 4785
2807 3223
2807 3395
2807 3593
2807 3786
2807 3974
2807 4571
2807 4639
2807 4773
2807 4785
2808 2859
2808 3271
2808 3419
2808 4294
2808 4447
2808 4505
2808 4835
2808 4849
2809 2889
2809 2954
2809 3017
2809 3048
2809 3057
2809 3482
2809 3788
2809 3917
2809 4008
2809 4327
2809 4330
2809 4594
2809 4726
2809 4763
2809 4830
2810 2942
2810 2967
2810 3014
2810 3450
2810 3580
2810 4604
2810 4995
2811 2842
2811 3057
2811 3386
2811 3440
2811 3714
2811 3806
2811 4418
2812 3037
2812 3392
2812 3758
2812 3821
2812 4152
2812 4357
2812 4430
2812 4458
2812 4510
2812 4772
2812 4868
2812 4873
2813 3031
2813 3113
2813 3215
2813 3308
2813 4131
2813 4362
2813 4400
2813 4818
2814 2919
2814 3155
2814 3330
2814 3427
2814 3482
2814 4150
2814 4605
2814 4895
2815 2849
2815 2984
2815 3143
2815 3276
2815 3289
2815 3555
2815 3867
2815 3879
2815 4213
2815 4259
2815 4493
2815 4584
2815 4905
2816 2830
2816 2893
2816 2924
2816 3034
2816 3052
2816 3244
2816 3586
2816 3644
2816 3996
2816 4232
2816 4234
2816 4317
2816 4338
2816 4469
2816 4486
2816 4498
2816 4518
2816 4537
2816 4784
2817 2866
2817 2999
2817 3047
2817 3395
2817 4377
2817 4729
2818 3046
2818 4277
2818 4520
2819 3152
2819 3183
2819 3758
2819 4129
2819 4622
2819 4672
2819 4717
2820 3034
2820 3098
2820 3214
2820 3319
2820 4076
2820 4149
2820 4222
2820 4486
2821 3206
2821 3534
2821 3809
2821 4280
2821 4473
2821 4493
2821 4824
2821 4980
2822 2830
2822 3063
2822 3152
2822 3246
2822 3301
2822 3639
2822 3693
2822 3763
2822 3823
2822 3880
2822 4124
2822 4149
2822 4312
2822 4550
2822 4648
2822 4678
2822 4745
2822 4748
2823 2892
2823 2992
2823 3004
2823 3023
2823 3218
2823 3623
2823 4238
2823 4253
2823 4316
2823 4532
2823 4684
2823 4881
2824 3518
2824 3598
2824 3653
2824 3871
2824 4145
2824 4196
2824 4296
2824 4327
2824 4369
2825 3217
2825 3234
2825 3545
2825 3661
2825 3847
2825 3879
2825 3917
2825 4201
2825 4266
2825 4303
2825 4319
2825 4353
2825 4717
2825 4821
2825 4926
2825 4934
2826 3311
2826 3357
2826 3408
2826 3459
2826 3535
2826 4663
2827 3263
2827 3347
2827 3484
2827 3580
2827 3622
2827 3635
2827 4432
2827 4509
2828 3086
2828 3116
2828 3332
2828 3380
2828 3414
2828 3742
2828 4287
2828 4522
2829 2903
2829 3562
2829 3609
2829 3666
2829 3761
2829 4152
2829 4374
2830 2840
2830 3162
2830 3563
2830 3635
2830 3669
2830 3819
2830 4565
2830 4588
2830 4695
2830 4896
2831 3306
2831 3461
2831 3500
2831 3871
2831 4307
2831 4721
2832 2923
2832 3044
2832 3047
2832 3202
2832 3216
2832 3481
2832 4150
2832 4221
2832 4717
2832 4723
2833 2929
2833 3370
2833 3467
2833 3681
2833 3768
2833 3817
2833 4219
2833 4425
2834 2961
2834 3102
2834 3452
2834 4052
2834 4346
2834 4779
2835 3342
2835 3429
2835 3720
2835 3842
2835 4193
2835 4307
2835 4846
2836 3010
2836 3105
2836 3192
2836 3249
2836 3334
2836 4521
2836 4522
2836 4679
2836 4742
2836 4996
2837 2909
2837 2978
2837 3060
2837 3296
2837 3308
2837 3347
2837 3359
2837 3398
2837 3535
2837 3830
2837 3874
2837 3876
2837 4049
2837 4077
2837 4319
2837 4416
2837 4514
2837 4652
2837 4824
2838 3090
2838 3211
2838 3333
2838 3377
2838 3427
2838 4311
2838 4458
2838 4534
2838 4722
2838 4861
2839 2850
2839 2992
2839 3384
2839 3851
2839 4326
2840 2849
2840 3111
2840 3287
2840 3457
2840 3537
2840 3767
2840 3912
2840 4150
2840 4264
2840 4384
2840 4464
2840 4470
2840 4661
2840 4800
2840 4956
2841 3063
2841 3322
2841 3424
2841 3590
2841 3900
2841 4140
2841 4173
2841 4237
2841 4263
2841 4534
2841 4611
2841 4894
2841 4896
2842 2865
2842 2976
2842 3103
2842 3124
2842 3407
2842 3702
2842 3849
2842 3916
2842 4085
2842 4160
2842 4666
2842 4743
2843 3137
2843 3366
2843 3381
2843 3390
2843 3679
2843 3873
2843 3886
2843 3902
2843 4487
2843 4492
2843 4548
2844 2887
2844 3510
2844 4421
2844 4595
2844 4665
2845 2890
2845 2936
2845 3316
2845 3425
2845 3616
2845 3724
2845 3851
2845 3915
2845 4054
2845 4183
2845 4386
2845 4716
2846 3044
2846 3111
2846 3461
2846 3614
2846 3687
2846 3832
2846 3851
2846 4234
2846 4619
2847 2876
2847 3169
2847 3370
2847 3433
2847 3557
2847 3781
2847 3853
2847 4113
2847 4175
2847 4206
2847 4517
2847 4578
2847 4900
2848 2994
2848 3144
2848 3379
2848 3621
2848 3650
2848 3665
2848 3784
2848 4210
2848 4457
2848 4537
2849 2952
2849 3025
2849 3049
2849 3242
2849 3788
2849 3839
2849 3880
2849 3955
2849 4227
2849 4307
2849 4440
2849 4461
2849 4565
2849 4819
2850 3024
2850 3285
2850 3508
2850 3522
2850 3535
2850 3587
2850 3793
2850 4367
2850 4465
2850 4549
2851 3010
2851 3131
2851 3192
2851 3360
2851 3906
2851 3909
2851 4055
2851 4656
2851 4869
2852 2944
2852 3074
2852 3166
2852 3613
2852 3926
2852 4146
2852 4535
2852 4548
2852 4631
2852 4753
2852 4760
2852 4922
2853 2980
2853 3107
2853 3146
2853 3187
2853 3213
2853 3396
2853 3425
2853 3479
2853 3736
2853 3847
2853 3922
2853 3985
2853 4039
2853 4059
2853 4184
2853 4215
2853 4228
2853 4293
2853 4299
2853 4783
2853 4786
2853 4859
2853 4888
2854 3082
2854 3817
2854 4334
2854 4585
2855 3494
2855 3540
2855 4141
2855 4594
2856 3016
2856 3052
2856 3059
2856 3117
2856 3175
2856 3217
2856 3415
2856 3824
2856 3998
2856 4209
2856 4223
2856 4445
2856 4597
2856 4608
2856 4668
2856 4728
2856 4749
2856 4989
2857 3052
2857 3100
2857 3657
2857 3692
2857 4256
2857 4629
2857 4722
2858 3056
2858 3073
2858 3661
2858 3769
2858 3772
2858 3973
2858 3981
2858 4567
2858 4616
2859 3016
2859 3277
2859 3328
2859 3342
2859 3404
2859 3610
2859 3897
2859 3973
2859 4067
2859 4081
2859 4083
2859 4418
2859 4543
2859 4617
2859 4670
2859 4672
2859 4691
2859 4753
2859 4872
2859 4940
2860 2890
2860 3052
2860 3700
2860 4048
2860 4541
2860 4562
2860 4643
2860 4909
2860 4916
2860 4992
2861 2893
2861 3018
2861 3080
2861 3099
2861 3106
2861 3263
2861 3313
2861 3354
2861 3355
2861 3427
2861 3448
2861 3488
2861 3535
2861 3685
2861 3707
2861 3734
2861 3751
2861 3888
2861 3906
2861 3961
2861 4061
2861 4090
2861 4171
2861 4178
2861 4207
2861 4215
2861 4348
2861 4361
2861 4442
2861 4449
2861 4479
2861 4515
2861 4674
2861 4739
2861 4742
2861 4882
2861 4925
2861 4935
2861 4981
2862 2954
2862 3042
2862 3086
2862 3177
2862 3232
2862 3295
2862 3322
2862 3362
2862 3887
2862 3906
2862 4407
2862 4489
2862 4800
2862 4947
2863 3186
2863 3558
2863 3563
2863 3700
2863 3744
2863 3959
2863 4237
2863 4473
2863 4696
2863 4849
2864 3159
2864 3272
2864 3330
2864 3729
2864 4026
2864 4203
2864 4237
2864 4268
2864 4625
2864 4713
2864 4793
2864 4879
2864 4896
2864 4911
2865 2880
2865 3052
2865 3113
2865 3554
2865 4191
2865 4523
2865 4524
2865 4861
2865 4911
2866 3413
2866 3469
2866 3570
2866 3652
2866 3811
2866 4295
2866 4385
2866 4612
2866 4632
2866 4667
2866 4675
2866 4863
2867 2884
2867 2947
2867 3308
2867 3341
2867 3461
2867 3744
2867 3943
2867 4051
2867 4226
2867 4351
2867 4510
2867 4595
2867 4654
2867 4705
2867 4898
2867 4912
2868 3245
2868 3343
2868 3373
2868 3484
2868 3517
2868 3746
2868 3968
2868 4023
2868 4513
2868 4612
2869 3002
2869 3027
2869 3037
2869 3061
2869 3190
2869 3304
2869 3343
2869 3357
2869 3359
2869 3637
2869 3798
2869 3863
2869 3915
2869 3944
2869 4071
2869 4199
2869 4204
2869 4313
2869 4385
2869 4754
2869 4771
2869 4890
2870 2976
2870 3028
2870 3186
2870 3324
2870 3423
2870 3614
2870 3672
2870 3769
2870 4127
2870 4140
2870 4344
2870 4493
2871 2922
2871 3430
2871 4144
2871 4270
2871 4356
2871 4363
2871 4391
2871 4468
2871 4507
2871 4529
2871 4735
2872 2906
2872 2953
2872 3271
2872 3299
2872 3324
2872 3521
2872 3572
2872 3732
2872 3897
2872 3976
2872 3981
2872 4031
2872 4053
2872 4134
2872 4371
2872 4558
2872 4668
2872 4747
2872 4831
2872 4883
2872 4919
2872 4924
2873 2914
2873 3180
2873 3607
2873 3929
2873 3975
2873 4316
2873 4523
2873 4559
2873 4672
2873 4936
2873 4999
2874 3207
2874 3492
2874 3736
2874 4025
2874 4670
2874 4921
2875 3302
2875 3874
2875 3944
2875 4537
2875 4992
2876 2890
2876 2964
2876 2972
2876 3021
2876 3064
2876 3398
2876 3482
2876 3535
2876 3575
2876 3661
2876 3755
2876 3915
2876 3929
2876 4340
2876 4507
2876 4553
2876 4644
2876 4758
2876 4802
2876 4826
2876 4954
2876 4969
2876 4970
2876 4992
2877 3352
2877 3641
2877 3808
2877 3969
2877 4050
2877 4185
2877 4194
2877 4317
2877 4475
2877 4530
2877 4680
2878 3044
2878 3203
2878 3258
2878 3619
2878 3731
2878 3929
2878 4297
2878 4397
2878 4716
2878 4808
2878 4978
2878 4992
2879 2978
2879 3159
2879 3275
2879 3296
2879 3307
2879 4164
2879 4328
2879 4720
2879 4858
2880 3001
2880 3113
2880 3536
2880 4000
2880 4026
2880 4127
2880 4137
2880 4235
2880 4330
2880 4391
2880 4488
2880 4539
2880 4780
2880 4823
2880 4896
2880 4963
2881 2979
2881 3607
2881 3860
2881 3956
2881 4302
2881 4407
2881 4475
2881 4612
2881 4766
2881 4767
2881 4847
2882 2971
2882 3043
2882 3069
2882 3217
2882 3770
2882 3968
2882 3985
2882 4079
2882 4359
2882 4391
2882 4670
2882 4672
2883 3804
2883 3871
2883 4588
2883 4827
2883 4992
2884 3231
2884 4196
2884 4388
2884 4510
2884 4915
2885 3328
2885 3627
2885 4030
2885 4142
2885 4250
2885 4294
2885 4688
2885 4695
2885 4862
2886 2892
2886 3083
2886 3130
2886 3352
2886 3366
2886 3422
2886 3685
2886 3802
2886 3865
2886 3905
2886 4157
2886 4194
2886 4261
2886 4388
2886 4609
2886 4623
2886 4788
2886 4915
2886 4918
2887 3246
2887 3568
2887 3979
2887 4068
2887 4154
2887 4205
2887 4254
2887 4724
2887 4997
2888 3122
2888 3700
2888 3787
2888 3837
2888 3986
2888 4003
2888 4015
2888 4212
2888 4237
2888 4349
2888 4358
2888 4465
2888 4495
2888 4512
2888 4568
2888 4581
2888 4746
2889 3374
2889 3423
2889 3865
2889 3949
2889 4035
2889 4053
2889 4315
2889 4486
2889 4631
2889 4697
2890 2957
2890 3159
2890 3298
2890 3488
2890 3762
2890 3797
2890 3878
2890 4006
2890 4040
2890 4042
2890 4074
2890 4321
2890 4480
2890 4608
2890 4788
2891 2938
2891 3426
2891 3435
2891 3464
2891 4058
2891 4616
2891 4623
2891 4836
2892 3348
2892 3841
2892 3862
2892 3926
2892 4003
2892 4505
2892 4641
2892 4709
2893 2969
2893 3135
2893 3418
2893 3597
2893 4159
2894 2979
2894 3161
2894 3553
2894 3736
2894 3839
2894 3932
2894 3933
2894 4008
2894 4109
2894 4130
2894 4142
2894 4526
2894 4567
2894 4688
2894 4741
2894 4809
2895 2983
2895 2984
2895 3182
2895 3323
2895 3331
2895 3395
2895 3449
2895 3509
2895 3665
2895 4200
2895 4288
2895 4413
2895 4565
2895 4594
2895 4686
2895 4961
2896 3159
2896 3490
2896 4127
2896 4793
2896 4831
2896 4871
2896 4911
2897 3276
2897 3340
2897 3509
2897 3788
2897 3909
2897 4264
2897 4573
2898 3057
2898 3394
2898 3602
2898 3759
2898 3775
2898 3863
2898 3902
2898 4084
2898 4157
2898 4692
2899 3075
2899 3265
2899 3303
2899 3549
2899 4410
2900 3425
2900 3535
2900 3596
2900 4030
2900 4187
2900 4573
2900 4659
2901 2923
2901 3024
2901 3264
2901 3369
2901 4030
2901 4119
2901 4183
2901 4578
2901 4785
2902 3230
2902 3382
2902 3562
2902 3904
2902 4088
2902 4204
2903 3231
2903 3377
2903 3780
2903 3926
2903 4231
2903 4235
2903 4399
2903 4565
2903 4658
2903 4926
2904 3061
2904 3090
2904 3288
2904 3842
2904 4181
2904 4298
2904 4531
2904 4873
2905 3034
2905 3039
2905 3227
2905 3549
2905 3635
2905 3667
2905 3804
2905 3907
2905 4600
2906 3031
2906 3303
2906 3449
2906 3626
2906 3869
2906 4082
2906 4386
2906 4412
2906 4659
2906 4702
2906 4995
2907 3307
2907 3363
2907 3584
2907 3692
2907 4081
2907 4160
2907 4241
2907 4554
2907 4594
2907 4785
2908 3399
2908 3781
2908 3949
2908 4349
2908 4479
2908 4736
2909 2977
2909 3035
2909 3116
2909 3131
2909 3333
2909 3452
2909 3986
2909 4031
2909 4145
2909 4224
2909 4400
2909 4716
2909 4762
2909 4770
2909 4859
2909 4980
2910 2950
2910 4350
2910 4355
2910 4459
2910 4573
2911 2947
2911 3142
2911 3185
2911 3953
2911 4302
2911 4457
2911 4516
2911 4990
2912 3348
2912 3794
2912 4241
2912 4304
2912 4537
2912 4608
2912 4896
2913 3034
2913 3271
2913 3513
2913 3568
2913 4082
2913 4421
2913 4534
2913 4821
2914 3136
2914 3510
2914 3543
2914 3877
2914 4087
2914 4252
2914 4332
2914 4468
2914 4715
2914 4951
2915 2923
2915 2960
2915 3193
2915 3770
2915 3904
2915 3909
2915 4040
2915 4284
2915 4424
2915 4587
2915 4922
2916 3177
2916 3376
2916 3492
2916 3635
2916 4191
2916 4296
2916 4863
2916 4964
2917 3272
2917 3502
2917 3727
2917 4037
2917 4746
2918 3061
2918 3872
2918 3993
2918 4179
2918 4201
2918 4280
2918 4338
2918 4402
2918 4513
2919 3032
2919 3123
2919 3350
2919 4012
2919 4161
2919 4262
2919 4567
2919 4731
2919 4847
2919 4901
2919 4956
2919 4957
2920 2970
2920 3117
2920 3461
2920 3697
2920 3721
2920 3982
2920 4050
2920 4178
2920 4397
2920 4522
2920 4551
2920 4812
2921 3276
2921 3416
2921 3692
2921 3901
2921 3926
2921 3936
2921 3986
2921 4181
2921 4469
2921 4865
2921 4967
2922 3065
2922 3506
2922 3658
2922 3756
2922 3929
2922 4140
2922 4237
2922 4747
2922 4846
2922 4911
2923 3016
2923 3586
2923 3795
2923 4535
2923 4666
2923 4790
2924 2947
2924 3049
2924 3073
2924 3258
2924 3591
2924 3948
2924 4069
2924 4651
2924 4754
2924 4849
2925 3005
2925 3061
2925 3336
2925 3417
2925 3609
2925 3631
2925 3719
2925 3781
2925 3784
2925 4140
2925 4238
2925 4496
2925 4732
2925 4755
2925 4910
2926 3597
2926 4026
2926 4729
2926 4788
2926 4913
2927 3006
2927 3467
2927 4257
2927 4717
2928 2991
2928 3012
2928 3389
2928 3482
2928 3573
2928 3857
2928 4009
2928 4062
2928 4372
2928 4711
2928 4762
2929 3096
2929 3142
2929 3167
2929 3175
2929 3347
2929 3543
2929 3994
2929 4255
2929 4276
2929 4296
2929 4592
2929 4617
2929 4723
2929 4961
2930 3109
2930 3252
2930 3562
2930 3672
2930 3760
2930 4037
2930 4288
2930 4777
2930 4863
2930 4961
2931 3269
2931 3300
2931 4476
2932 3249
2932 3267
2932 3727
2932 3805
2932 4439
2932 4557
2932 4749
2932 4763
2933 3003
2933 3072
2933 3153
2933 3173
2933 4537
2933 4823
2934 3622
2934 3631
2934 3995
2934 4414
2935 3356
2935 3422
2935 3504
2935 3604
2935 3918
2935 3965
2935 4266
2935 4288
2935 4306
2935 4318
2935 4527
2935 4630
2935 4711
2935 4785
2936 2940
2936 3037
2936 3127
2936 3167
2936 3267
2936 3284
2936 3373
2936 3522
2936 3662
2936 4013
2936 4185
2936 4326
2936 4357
2936 4447
2936 4591
2936 4694
2936 4768
2936 4781
2936 4858
2937 3259
2937 3430
2937 3821
2937 4290
2937 4621
2937 4918
2938 3061
2938 3082
2938 3301
2938 3439
2938 3515
2938 3675
2938 3882
2938 4269
2938 4338
2938 4451
2938 4656
2938 4670
2938 4769
2938 4846
2939 3198
2939 3314
2939 3803
2939 4140
2939 4505
2939 4739
2939 4936
2940 3253
2940 3695
2940 4146
2940 4263
2940 4383
2940 4437
2940 4496
2940 4503
2940 4541
2940 4658
2940 4718
2941 3317
2941 3400
2941 4219
2941 4606
2941 4846
2942 3116
2942 3886
2942 3967
2942 4084
2942 4512
2942 4525
2942 4795
2943 2956
2943 3566
2943 3585
2943 3682
2943 3726
2943 3842
2943 3857
2943 3977
2943 4049
2943 4334
2943 4541
2943 4557
2943 4721
2944 2947
2944 2949
2944 3101
2944 3108
2944 3123
2944 3128
2944 3159
2944 3374
2944 3557
2944 3663
2944 3699
2944 3736
2944 3926
2944 4056
2944 4343
2944 4351
2944 4436
2944 4548
2944 4556
2944 4946
2945 3010
2945 3580
2945 4010
2945 4049
2945 4100
2945 4115
2945 4464
2945 4472
2945 4729
2945 4819
2945 4860
2945 4867
2945 4984
2946 2947
2946 2984
2946 3929
2946 4130
2946 4298
2946 4594
2947 3075
2947 3207
2947 3475
2947 3476
2947 3661
2947 3779
2947 3904
2947 3957
2947 4045
2947 4372
2947 4486
2947 4518
2947 4627
2947 4732
2948 2970
2948 3041
2948 3215
2948 3218
2948 3319
2948 3338
2948 3532
2948 3569
2948 4077
2948 4355
2948 4465
2948 4682
2948 4911
2949 3010
2949 3127
2949 3607
2949 3622
2949 3914
2949 4495
2949 4648
2950 3016
2950 3442
2950 3611
2950 3661
2950 3739
2950 3838
2950 3840
2950 3846
2950 3858
2950 3998
2950 4080
2950 4103
2950 4121
2950 4250
2950 4265
2950 4295
2950 4330
2950 4369
2950 4383
2950 4438
2950 4458
2950 4501
2950 4555
2950 4606
2950 4642
2950 4666
2950 4762
2950 4826
2950 4997
2951 3315
2951 3365
2951 3582
2951 3994
2951 4493
2951 4523
2951 4874
2951 4972
2952 3803
2952 3878
2952 4119
2952 4531
2953 3998
2953 4127
2953 4247
2953 4443
2953 4594
2953 4623
2953 4979
2954 2966
2954 4240
2954 4514
2954 4616
2954 4708
2954 4761
2954 4774
2955 3044
2955 3222
2955 3484
2955 3994
2955 4028
2955 4103
2955 4420
2955 4488
2955 4628
2955 4676
2955 4751
2955 4971
2956 3102
2956 3166
2956 3400
2956 3725
2956 3775
2956 3881
2956 4082
2956 4118
2956 4234
2956 4561
2957 3016
2957 3198
2957 3232
2957 3436
2957 3635
2957 3661
2957 3744
2957 4323
2957 4391
2957 4416
2957 4504
2957 4640
2957 4765
2957 4895
2958 3279
2958 3314
2958 3590
2958 3605
2958 3794
2958 3999
2958 4270
2958 4438
2958 4559
2958 4877
2959 3051
2959 3647
2959 3751
2959 3754
2959 3872
2959 3879
2959 4170
2959 4323
2959 4493
2959 4599
2960 3677
2960 3698
2960 3750
2960 3772
2960 3988
2960 4153
2960 4234
2960 4294
2960 4659
2960 4810
2960 4963
2961 3681
2961 3849
2961 3993
2961 4670
2961 4854
2961 4907
2961 4946
2962 3167
2962 3533
2962 3548
2962 3598
2962 3687
2962 3760
2962 3887
2962 3981
2962 4355
2962 4506
2962 4853
2962 4870
2963 2983
2963 3057
2963 3296
2963 3373
2963 4107
2963 4299
2963 4329
2963 4432
2964 3834
2964 3920
2964 3995
2964 4496
2964 4578
2964 4877
2965 3193
2965 3355
2965 3475
2965 3568
2965 3813
2965 3864
2965 3993
2965 4127
2965 4512
2965 4742
2965 4863
2965 4987
2966 3048
2966 3143
2966 3415
2966 3451
2966 3605
2966 3966
2966 3998
2966 4035
2966 4432
2966 4472
2966 4496
2966 4525
2966 4531
2966 4762
2966 4876
2966 4885
2967 3285
2967 3331
2967 3622
2967 3772
2967 3791
2967 3915
2967 4505
2967 4746
2967 4754
2967 4809
2968 3448
2968 3703
2968 3810
2968 4154
2968 4473
2968 4633
2969 3072
2969 3497
2969 3546
2969 3621
2969 4362
2969 4840
2969 4952
2970 3165
2970 3176
2970 3190
2970 3226
2970 3255
2970 3384
2970 3471
2970 3724
2970 3773
2970 3787
2970 3908
2970 3963
2970 4022
2970 4077
2970 4187
2970 4210
2970 4226
2970 4292
2970 4641
2971 2990
2971 3085
2971 3200
2971 3448
2971 4213
2971 4542
2971 4670
2971 4690
2971 4959
2972 3109
2972 3194
2972 3441
2972 3670
2972 4001
2972 4013
2972 4096
2972 4184
2973 4141
2973 4348
2973 4434
2973 4542
2974 3168
2974 3744
2975 4362
2975 4722
2975 4746
2976 3284
2976 3988
2976 4352
2976 4473
2976 4565
2976 4824
2976 4920
2976 4943
2977 3172
2977 3198
2977 3302
2977 3317
2977 4421
2977 4577
2977 4918
2978 3051
2978 3253
2978 3409
2978 3522
2978 4071
2978 4857
2978 4896
2978 4910
2979 3169
2979 3357
2979 3744
2980 2990
2980 3321
2980 3547
2980 4564
2980 4897
2981 3255
2981 3527
2981 3760
2981 3879
2981 3943
2981 4273
2981 4472
2981 4641
2981 4667
2981 4741
2981 4813
2982 3467
2982 4683
2983 3048
2983 3328
2983 3398
2983 3427
2983 3455
2983 3530
2983 3703
2983 3919
2983 4129
2983 4217
2983 4398
2983 4447
2983 4530
2983 4577
2983 4886
2984 3027
2984 3048
2984 3769
2984 3795
2984 3941
2984 4110
2984 4147
2984 4266
2984 4507
2984 4578
2984 4619
2984 4621
2984 4684
2984 4800
2984 4888
2984 4889
2984 4938
2984 4952
2985 3010
2985 3116
2985 3130
2985 4226
2985 4233
2985 4953
2985 4987
2986 3135
2986 3337
2986 3478
2986 3601
2986 3922
2986 4306
2986 4592
2986 4786
2986 4914
2987 3245
2987 3351
2987 4302
2987 4424
2987 4519
2987 4956
2988 4213
2988 4266
2988 4317
2988 4720
2988 4793
2989 3212
2989 3249
2989 3517
2989 3536
2989 3545
2989 3748
2989 3828
2989 3871
2989 3944
2989 4071
2989 4344
2989 4645
2989 4742
2989 4911
2990 2996
2990 3036
2990 3094
2990 3153
2990 3320
2990 3365
2990 3394
2990 3769
2990 3781
2990 4110
2990 4213
2990 4293
2990 4505
2990 4531
2990 4598
2990 4616
2990 4993
2991 3245
2991 3322
2991 3361
2991 3867
2991 3958
2991 4033
2991 4239
2991 4410
2991 4770
2992 3042
2992 3102
2992 3124
2992 3358
2992 3373
2992 3471
2992 3552
2992 3793
2992 3880
2992 4049
2992 4202
2992 4264
2992 4636
2992 4695
2992 4874
2992 4922
2993 3107
2993 3129
2993 3137
2993 3429
2993 3616
2993 3903
2993 3991
2993 4119
2993 4350
2993 4576
2993 4675
2994 3116
2994 3150
2994 3691
2994 3744
2994 3783
2994 3910
2994 4127
2994 4241
2994 4332
2994 4579
2995 3133
2995 3572
2995 3609
2995 4015
2995 4181
2995 4282
2996 3100
2996 3569
2996 3582
2996 3621
2996 3669
2996 3808
2996 3840
2996 3868
2996 4148
2996 4177
2996 4213
2996 4281
2996 4419
2996 4425
2996 4523
2996 4994
2997 3049
2997 3415
2997 3563
2997 3768
2997 3805
2997 3874
2997 3918
2997 3921
2997 4241
2997 4348
2997 4612
2997 4640
2997 4703
2997 4819
2997 4896
2998 3015
2998 3117
2998 3381
2998 3691
2998 3909
2998 4206
2998 4264
2998 4340
2998 4442
2998 4656
2998 4702
2999 3036
2999 3047
2999 3065
2999 3176
2999 3900
2999 4268
2999 4292
3000 3143
3000 3461
3000 3508
3000 3794
3000 4054
3000 4291
3000 4305
3001 3177
3001 3510
3001 3531
3001 3652
3001 3797
3001 4148
3002 3073
3002 3439
3002 3450
3002 3932
3002 4060
3002 4109
3002 4176
3002 4638
3003 3082
3003 3186
3003 3362
3003 3384
3003 3491
3003 3979
3003 4164
3003 4378
3003 4616
3003 4766
3004 3068
3004 3231
3004 3322
3004 3344
3004 3597
3004 3942
3004 4574
3004 4696
3004 4709
3004 4753
3004 4880
3004 4888
3005 3028
3005 3183
3005 3335
3005 3379
3005 3555
3005 3595
3005 3680
3005 4199
3005 4447
3005 4922
3006 3135
3006 3146
3006 3347
3006 3712
3006 3789
3006 3887
3006 4186
3006 4359
3006 4429
3007 3071
3007 3250
3007 3740
3007 3943
3007 3952
3007 4228
3007 4281
3007 4742
3007 4830
3008 3152
3008 3595
3008 3671
3008 4264
3008 4364
3008 4725
3008 4729
3009 3335
3009 3725
3009 4256
3009 4819
3009 4838
3009 4852
3010 3164
3010 3190
3010 3514
3010 3612
3010 3745
3010 3915
3010 4152
3010 4211
3010 4626
3010 4712
3010 4743
3010 4866
3011 3228
3011 3231
3011 3279
3011 3484
3011 3880
3011 4012
3011 4311
3011 4597
3011 4811
3012 3328
3012 3338
3012 4876
3012 4980
3013 3209
3013 3252
3013 3279
3013 3323
3013 3349
3013 3398
3013 3426
3013 3443
3013 4280
3013 4407
3013 4522
3013 4602
3013 4605
3013 4808
3013 4952
3014 3385
3014 3448
3014 3460
3014 3613
3014 3663
3014 4071
3014 4132
3014 4146
3014 4407
3014 4741
3015 3016
3015 3532
3015 4228
3015 4780
3016 3191
3016 3380
3016 3470
3016 3500
3016 3516
3016 3683
3016 3860
3016 3868
3016 3879
3016 4196
3016 4215
3016 4364
3016 4581
3016 4697
3016 4718
3016 4799
3016 4843
3016 4955
3016 4960
3016 4975
3017 3243
3017 3363
3017 3744
3017 3778
3017 3914
3017 3923
3017 4186
3017 4191
3017 4242
3017 4306
3017 4332
3017 4372
3017 4405
3017 4440
3017 4636
3017 4657
3017 4666
3017 4799
3017 4835
3017 4844
3017 4901
3017 4990
3018 3299
3018 3508
3018 3638
3018 3808
3018 4103
3018 4183
3018 4239
3018 4309
3018 4888
3019 3135
3019 3187
3019 3388
3019 3559
3019 3568
3019 3875
3019 3924
3019 4306
3019 4454
3019 4910
3020 3791
3020 4113
3020 4456
3020 4578
3020 4931
3020 4941
3021 3194
3021 3494
3021 3559
3021 3671
3021 4153
3021 4632
3022 3119
3022 3489
3022 4005
3022 4210
3022 4653
3022 4905
3023 3064
3023 3167
3023 3250
3023 3805
3023 4005
3023 4676
3024 3092
3024 3251
3024 3396
3024 3602
3024 3648
3024 3691
3024 3713
3024 3761
3024 3774
3024 3804
3024 4012
3024 4055
3024 4291
3024 4452
3024 4455
3024 4465
3024 4631
3024 4637
3024 4700
3024 4703
3024 4775
3024 4958
3024 4966
3025 3528
3025 3566
3025 3682
3025 3713
3025 3944
3025 4012
3025 4292
3025 4420
3025 4422
3025 4441
3025 4545
3025 4632
3025 4784
3025 4798
3025 4882
3025 4971
3025 4999
3026 3031
3026 3075
3026 3533
3026 4058
3026 4088
3026 4199
3026 4279
3026 4562
3026 4988
3027 3118
3027 3644
3028 3266
3028 3537
3028 3557
3028 3576
3028 3766
3028 3819
3028 3900
3028 3922
3028 4024
3028 4157
3028 4423
3028 4626
3028 4690
3028 4984
3029 3464
3029 3766
3030 3090
3030 3139
3030 3184
3030 3289
3030 3314
3030 3404
3030 3569
3030 3635
3030 3652
3030 3715
3030 4133
3030 4232
3030 4259
3030 4297
3030 4588
3030 4717
3030 4747
3030 4748
3030 4843
3031 3144
3031 3374
3031 3541
3031 3579
3031 3657
3031 3788
3031 4029
3031 4048
3031 4116
3031 4245
3031 4325
3031 4374
3031 4504
3031 4569
3031 4658
3031 4830
3031 4900
3031 4965
3031 4992
3032 3135
3032 3138
3032 3289
3032 4260
3032 4584
3033 3315
3033 3344
3033 3364
3033 3419
3033 3471
3033 3500
3033 4122
3033 4274
3033 4680
3033 4845
3033 4978
3034 3060
3034 3243
3034 3263
3034 3476
3034 3512
3034 3526
3034 3532
3034 3539
3034 3566
3034 3575
3034 3660
3034 3668
3034 3778
3034 3824
3034 3981
3034 4223
3034 4373
3034 4417
3034 4476
3034 4490
3034 4496
3034 4724
3034 4821
3034 4936
3034 4992
3035 3442
3035 3673
3035 4007
3035 4054
3035 4755
3035 4763
3036 3056
3036 3205
3036 3278
3036 3318
3036 3326
3036 3526
3036 3805
3036 3856
3036 3870
3036 3978
3036 4142
3036 4271
3036 4283
3036 4347
3036 4426
3036 4551
3036 4860
3036 4865
3037 3137
3037 3296
3037 3388
3037 3402
3037 3597
3037 3653
3037 3664
3037 3822
3037 3826
3037 3836
3037 3887
3037 4294
3037 4360
3037 4767
3037 4772
3037 4876
3037 4881
3038 3056
3038 3203
3038 3306
3038 3432
3038 3454
3038 3470
3038 3483
3038 3567
3038 3708
3038 3763
3038 3782
3038 3845
3038 3862
3038 3920
3038 3940
3038 4034
3038 4090
3038 4094
3038 4115
3038 4122
3038 4177
3038 4314
3038 4440
3038 4501
3038 4558
3038 4617
3038 4642
3038 4686
3038 4702
3038 4780
3038 4835
3038 4919
3039 3124
3039 3145
3039 3190
3039 3198
3039 3232
3039 3260
3039 3269
3039 3286
3039 3297
3039 3337
3039 3442
3039 3497
3039 3510
3039 3581
3039 3647
3039 3850
3039 3911
3039 3927
3039 3991
3039 4018
3039 4031
3039 4045
3039 4052
3039 4065
3039 4105
3039 4139
3039 4162
3039 4265
3039 4317
3039 4344
3039 4369
3039 4440
3039 4468
3039 4497
3039 4512
3039 4574
3039 4651
3039 4674
3039 4830
3039 4954
3040 3155
3040 3446
3040 3930
3040 4128
3040 4267
3040 4903
3040 4969
3041 3114
3041 3295
3041 3350
3041 3414
3041 3445
3041 3476
3041 3574
3041 4175
3041 4340
3041 4413
3041 4617
3042 3124
3042 3132
3042 3157
3042 3231
3042 3354
3042 3802
3042 4064
3042 4239
3042 4437
3042 4514
3043 3141
3043 3192
3043 3227
3043 3259
3043 3446
3043 3471
3043 3522
3043 3591
3043 3667
3043 3742
3043 3810
3043 4137
3043 4537
3043 4705
3043 4826
3043 4969
3044 3282
3044 3482
3044 3545
3044 3664
3044 3687
3044 3732
3044 4018
3044 4090
3044 4760
3044 4856
3045 3475
3045 3536
3045 4123
3045 4349
3045 4717
3045 4822
3046 3316
3046 3326
3046 3597
3046 4050
3046 4476
3046 4530
3046 4686
3046 4835
3046 4932
3047 3164
3047 3192
3047 3653
3047 3761
3047 4263
3047 4453
3047 4594
3047 4746
3047 4888
3048 3575
3048 3718
3048 3887
3048 4375
3048 4864
3049 3301
3049 3305
3049 3408
3049 3694
3049 3748
3049 3808
3049 3909
3049 3949
3049 4002
3049 4142
3049 4150
3049 4152
3049 4370
3049 4525
3049 4596
3049 4733
3049 4846
3049 4889
3050 3242
3050 3755
3050 4245
3050 4400
3050 4758
3051 3898
3051 4266
3051 4384
3051 4412
3051 4475
3051 4604
3052 3100
3052 3109
3052 3303
3052 3661
3052 3786
3052 4049
3052 4204
3052 4772
3052 4823
3053 3231
3053 3484
3053 3764
3053 3928
3053 4421
3053 4638
3054 3177
3054 3480
3054 3516
3054 4075
3054 4207
3054 4555
3054 4569
3054 4824
3055 3419
3055 3529
3055 3552
3055 3559
3055 3584
3055 3609
3055 4289
3055 4404
3055 4521
3055 4551
3055 4571
3055 4722
3055 4847
3055 4968
3056 3114
3056 3177
3056 3288
3056 3368
3056 3655
3056 3997
3056 4107
3056 4284
3056 4433
3056 4498
3056 4522
3056 4533
3056 4613
3056 4715
3056 4742
3057 3137
3057 3260
3057 3292
3057 3448
3057 3593
3057 3619
3057 3678
3057 3700
3057 3769
3057 3800
3057 3807
3057 3812
3057 3921
3057 3933
3057 4011
3057 4023
3057 4041
3057 4180
3057 4185
3057 4271
3057 4352
3057 4379
3057 4391
3057 4830
3057 4832
3057 4881
3057 4894
3058 3061
3058 3131
3058 3252
3058 3581
3058 3674
3058 3878
3058 3958
3058 3998
3058 4043
3058 4266
3058 4391
3058 4400
3058 4573
3058 4612
3058 4760
3058 4832
3058 4834
3059 3116
3059 3303
3059 3586
3059 3631
3059 3715
3059 3928
3059 4032
3059 4246
3059 4435
3059 4484
3059 4770
3059 4814
3059 4834
3059 4948
3059 4994
3060 3101
3060 3136
3060 3425
3060 3460
3060 3573
3060 3707
3060 3776
3060 3784
3060 4113
3060 4131
3060 4292
3060 4361
3060 4366
3060 4415
3060 4490
3060 4580
3060 4837
3060 4843
3061 3228
3061 3532
3061 4246
3061 4612
3061 4685
3062 3402
3062 3429
3062 3440
3062 3491
3062 3944
3062 3968
3062 4269
3062 4376
3062 4741
3062 4957
3063 3149
3063 3288
3063 3590
3063 3800
3063 4077
3063 4101
3063 4151
3063 4489
3063 4939
3064 3380
3064 3589
3064 4274
3064 4368
3064 4542
3064 4554
3065 3572
3065 3693
3065 3749
3065 4140
3065 4158
3065 4422
3065 4584
3065 4652
3065 4734
3065 4820
3066 3237
3066 4274
3066 4406
3066 4699
3066 4992
3067 3228
3067 3620
3067 3900
3067 4014
3067 4577
3067 4625
3067 4821
3067 4875
3067 4995
3068 3482
3068 3496
3068 3573
3068 3717
3068 3773
3068 3893
3068 3928
3068 3972
3068 4081
3068 4149
3068 4241
3068 4430
3068 4462
3068 4507
3068 4719
3068 4780
3068 4850
3069 3160
3069 4178
3069 4281
3069 4335
3069 4782
3070 3656
3070 3853
3070 3932
3070 3969
3070 4614
3070 4632
3070 4748
3071 3548
3071 3562
3071 3595
3071 4071
3071 4198
3071 4400
3071 4524
3071 4631
3072 3116
3072 3631
3072 3695
3072 4042
3072 4823
3072 4973
3073 3156
3073 3191
3073 3361
3073 3506
3073 3653
3073 3869
3073 3994
3073 4047
3073 4235
3073 4282
3073 4305
3073 4479
3073 4777
3073 4946
3074 3704
3074 3726
3074 4412
3074 4776
3074 4887
3075 3202
3075 3223
3075 3358
3075 3511
3075 3561
3075 3656
3075 3666
3075 3839
3075 3908
3075 3923
3075 3993
3075 4019
3075 4061
3075 4163
3075 4166
3075 4272
3075 4341
3075 4359
3075 4631
3075 4636
3075 4685
3075 4699
3075 4704
3075 4775
3075 4923
3075 4964
3076 3799
3076 4276
3076 4642
3076 4717
3076 4896
3076 4897
3077 3247
3077 3487
3077 3688
3077 3694
3077 3931
3077 4200
3077 4230
3077 4405
3077 4486
3077 4682
3077 4686
3077 4841
3077 4922
3078 3082
3078 4127
3078 4490
3078 4735
3079 3352
3079 3434
3079 4176
3079 4178
3079 4191
3079 4380
3079 4721
3079 4732
3079 4754
3079 4897
3080 3179
3080 3193
3080 3220
3080 3277
3080 3448
3080 3572
3080 3715
3080 3741
3080 3958
3080 4157
3080 4287
3080 4353
3080 4430
3080 4438
3080 4606
3080 4769
3080 4770
3080 4814
3080 4815
3080 4841
3080 4939
3081 3097
3081 3498
3081 3842
3081 4008
3081 4449
3081 4493
3081 4772
3081 4832
3082 3107
3082 3543
3082 3562
3082 3645
3082 4114
3082 4210
3082 4228
3082 4296
3082 4376
3082 4651
3082 4765
3083 3107
3083 3372
3083 3827
3083 4259
3083 4499
3083 4953
3084 3198
3084 3227
3084 3543
3084 3699
3084 4140
3085 3131
3085 3393
3085 3656
3085 3780
3085 4562
3085 4633
3086 3978
3086 4240
3086 4446
3086 4450
3086 4862
3087 3635
3087 3681
3087 3697
3087 3712
3087 3901
3087 4017
3087 4148
3087 4152
3087 4281
3087 4687
3087 4715
3087 4733
3088 3124
3088 3497
3088 3524
3088 3603
3088 3677
3088 4086
3088 4620
3088 4781
3088 4863
3089 3467
3089 3579
3089 4147
3089 4177
3089 4496
3089 4560
3089 4703
3089 4758
3089 4765
3090 3147
3090 4730
3090 4776
3090 4889
3090 4981
3091 3879
3091 3915
3091 4131
3091 4293
3091 4690
3091 4729
3091 4815
3091 4852
3091 4936
3092 3159
3092 4215
3092 4253
3092 4364
3093 3246
3093 3872
3093 4248
3093 4421
3093 4441
3093 4463
3093 4619
3094 3615
3094 3631
3094 3632
3094 3762
3094 4052
3094 4053
3094 4317
3094 4448
3094 4475
3094 4664
3094 4830
3094 4841
3095 3336
3095 3611
3095 3755
3095 4100
3095 4321
3095 4562
3095 4622
3096 3405
3096 3907
3096 4522
3096 4885
3097 3605
3097 3800
3097 4385
3097 4657
3097 4722
3097 4858
3097 4864
3098 3322
3098 3451
3098 4400
3098 4506
3099 3761
3099 3910
3099 4330
3099 4493
3100 3140
3100 3661
3100 3991
3100 4411
3100 4693
3100 4779
3100 4842
3100 4907
3100 4989
3101 3261
3101 4102
3101 4574
3101 4594
3101 4705
3101 4870
3101 4888
3101 4956
3102 3198
3102 3213
3102 3216
3102 3304
3102 3314
3102 3327
3102 3332
3102 3355
3102 3459
3102 3467
3102 3533
3102 3998
3102 4024
3102 4088
3102 4287
3102 4302
3102 4876
3103 3425
3103 3447
3103 3649
3103 4026
3103 4507
3103 4745
3103 4987
3104 3351
3104 3363
3104 3422
3104 3571
3104 3853
3104 3872
3104 3938
3104 4074
3104 4357
3104 4397
3104 4422
3104 4490
3104 4514
3104 4567
3104 4583
3104 4845
3105 4033
3105 4044
3105 4264
3105 4300
3105 4374
3105 4598
3105 4760
3105 4769
3105 4780
3105 4909
3105 4936
3106 3208
3106 3256
3106 3340
3106 3643
3106 4014
3106 4150
3106 4239
3106 4329
3106 4461
3106 4841
3106 4852
3106 4880
3107 3175
3107 3322
3107 3360
3107 3505
3107 4271
3107 4653
3107 4816
3107 4938
3108 3237
3108 3276
3108 3362
3108 3419
3108 3570
3108 3931
3108 4371
3108 4810
3108 4952
3109 3290
3109 4132
3109 4316
3109 4662
3109 4799
3109 4903
3109 4945
3110 3450
3110 3502
3110 3792
3110 4085
3110 4133
3110 4578
3110 4954
3110 4978
3110 4993
3111 3273
3111 3502
3111 3635
3111 4503
3111 4510
3111 4532
3111 4651
3112 3421
3112 4162
3112 4645
3112 4667
3112 4950
3113 3329
3113 3756
3113 3907
3113 4496
3113 4584
3114 3159
3114 3164
3114 3735
3114 3787
3114 4265
3114 4364
3114 4367
3114 4480
3114 4487
3114 4505
3114 4603
3114 4639
3114 4758
3114 4800
3114 4956
3115 3447
3115 3572
3115 3840
3115 4743
3115 4826
3115 4893
3116 3204
3116 3405
3116 3419
3116 3554
3116 3856
3116 3878
3116 3902
3116 3912
3116 3936
3116 4061
3116 4065
3116 4071
3116 4090
3116 4097
3116 4160
3116 4166
3116 4195
3116 4279
3116 4301
3116 4332
3116 4458
3116 4509
3116 4603
3116 4662
3116 4672
3116 4718
3116 4722
3116 4724
3116 4948
3116 4974
3116 4982
3117 3348
3117 3436
3117 3570
3117 3985
3117 4129
3117 4285
3117 4454
3117 4506
3117 4541
3117 4632
3117 4747
3118 3322
3118 3457
3118 3733
3118 3989
3118 4070
3118 4101
3118 4108
3118 4247
3118 4743
3118 4946
3118 4999
3119 3238
3119 3304
3119 3597
3119 3886
3119 3949
3119 4474
3119 4577
3119 4659
3120 3213
3120 3300
3120 3303
3120 3379
3120 3382
3120 3482
3120 3576
3120 3776
3120 3850
3120 4033
3120 4071
3120 4100
3120 4381
3120 4591
3120 4771
3121 3158
3121 3720
3121 4371
3121 4489
3121 4682
3121 4872
3122 3528
3122 3597
3122 3789
3122 3862
3122 3955
3122 4136
3122 4274
3122 4475
3122 4563
3122 4661
3122 4931
3123 3159
3123 3201
3123 3378
3123 3803
3123 4649
3123 4852
3124 3219
3124 3287
3124 3483
3124 3571
3124 3596
3124 3617
3124 3690
3124 4430
3124 4434
3124 4538
3124 4629
3125 3139
3125 3529
3125 4138
3126 3456
3126 3486
3126 3545
3126 3742
3126 3799
3126 3957
3126 4256
3126 4742
3126 4945
3126 4979
3126 4988
3127 3666
3127 4132
3127 4474
3127 4769
3128 3193
3128 3391
3128 3896
3128 4264
3128 4315
3128 4367
3128 4506
3128 4617
3129 3226
3129 3403
3129 3699
3129 3915
3129 3951
3129 3966
3129 4068
3129 4168
3129 4256
3129 4365
3129 4370
3129 4372
3129 4373
3129 4386
3129 4480
3129 4504
3129 4752
3130 3418
3130 3603
3130 3760
3130 4647
3130 4669
3131 3294
3131 3415
3131 3502
3131 4185
3131 4189
3131 4213
3131 4274
3131 4309
3131 4341
3131 4355
3131 4441
3131 4901
3132 3183
3132 3335
3132 4075
3132 4086
3132 4489
3132 4595
3132 4645
3132 4726
3132 4888
3133 3771
3133 3788
3133 4504
3133 4995
3134 3231
3134 3439
3134 3765
3134 3998
3134 4125
3134 4823
3134 4846
3135 3164
3135 3251
3135 3274
3135 3384
3135 3551
3135 3554
3135 3561
3135 3618
3135 3656
3135 3690
3135 3703
3135 3718
3135 3786
3135 3789
3135 3849
3135 3899
3135 3900
3135 3903
3135 3905
3135 3997
3135 4221
3135 4222
3135 4254
3135 4267
3135 4425
3135 4568
3135 4579
3135 4671
3135 4684
3135 4936
3135 4991
3136 3302
3136 3345
3136 3568
3136 3576
3136 3661
3136 3735
3136 3783
3136 3886
3136 3987
3136 4121
3136 4137
3136 4491
3136 4612
3136 4751
3136 4752
3136 4858
3137 3179
3137 3302
3137 3334
3137 3378
3137 3547
3137 3587
3137 3647
3137 3657
3137 3668
3137 4360
3137 4372
3137 4573
3137 4702
3137 4755
3137 4777
3137 4831
3138 3491
3138 3905
3138 3923
3138 3998
3138 4017
3138 4119
3138 4304
3138 4438
3138 4537
3138 4557
3138 4904
3138 4984
3139 3696
3139 4288
3139 4621
3139 4638
3139 4877
3140 3146
3140 3198
3140 3397
3140 3677
3140 3708
3140 3812
3140 3816
3140 4247
3140 4411
3140 4479
3140 4817
3141 3524
3141 3562
3141 3633
3141 3648
3141 3659
3141 3807
3141 4447
3141 4531
3141 4580
3141 4877
3142 3191
3142 3262
3142 3618
3142 3704
3142 3890
3142 4055
3142 4083
3142 4087
3142 4226
3142 4371
3143 3193
3143 3827
3143 4055
3143 4121
3143 4137
3143 4653
3143 4877
3144 3504
3144 4009
3144 4113
3144 4334
3144 4761
3144 4779
3145 3195
3145 3347
3145 3419
3145 3643
3145 3735
3145 3751
3145 3761
3145 3768
3145 3789
3145 4174
3145 4332
3145 4335
3145 4549
3145 4810
3145 4962
3146 3549
3146 4127
3146 4150
3147 3407
3147 3573
3147 3677
3147 3682
3147 4169
3147 4626
3147 4770
3147 4830
3147 4922
3148 3184
3148 3331
3148 3352
3148 3807
3148 4066
3148 4086
3148 4162
3148 4196
3148 4414
3148 4644
3148 4758
3148 4778
3148 4808
3149 3558
3149 3843
3149 4255
3149 4529
3149 4779
3149 4866
3149 4998
3150 3167
3150 3191
3150 3449
3150 3475
3150 3765
3150 4070
3150 4128
3150 4305
3150 4354
3150 4462
3150 4486
3150 4642
3150 4671
3150 4711
3150 4746
3150 4901
3151 3213
3151 3624
3151 4140
3151 4148
3151 4279
3151 4436
3151 4532
3151 4548
3151 4680
3151 4767
3151 4854
3152 3435
3152 3704
3152 3817
3152 4233
3152 4556
3152 4781
3152 4820
3153 3313
3153 3842
3153 3850
3153 3856
3153 4030
3153 4131
3153 4225
3153 4256
3153 4643
3153 4729
3153 4762
3153 4784
3153 4805
3154 3380
3154 3408
3154 3801
3154 4595
3154 4975
3155 3160
3155 3189
3155 3438
3155 3531
3155 3594
3155 3862
3155 3986
3155 4150
3155 4237
3155 4573
3155 4827
3155 4851
3156 3266
3156 3492
3156 3587
3156 3880
3156 3979
3156 4048
3156 4068
3156 4156
3156 4655
3157 3720
3157 3998
3157 4085
3157 4196
3157 4216
3157 4261
3157 4734
3157 4783
3158 3345
3158 3462
3158 3755
3158 4137
3158 4667
3158 4841
3159 3482
3159 3587
3159 3807
3159 4415
3159 4421
3159 4611
3159 4951
3159 4995
3160 3402
3160 3734
3160 3869
3160 4044
3160 4078
3160 4213
3160 4402
3160 4625
3160 4746
3160 4747
3160 4781
3160 4896
3160 4931
3161 3557
3161 3817
3161 4580
3161 4722
3161 4823
3162 3189
3162 3217
3162 3348
3162 3549
3162 3594
3162 3738
3162 3764
3162 4046
3162 4146
3162 4184
3162 4259
3162 4516
3162 4574
3162 4819
3162 4857
3162 4870
3163 3235
3163 3282
3163 3507
3163 3540
3163 3666
3163 3934
3163 3945
3163 4401
3163 4603
3163 4638
3163 4737
3163 4749
3163 4757
3163 4784
3164 3761
3164 4216
3164 4237
3164 4524
3164 4937
3165 3167
3165 3245
3165 3588
3165 3803
3165 4196
3165 4531
3165 4580
3165 4715
3166 3402
3166 3448
3166 3533
3166 3572
3166 3709
3166 4419
3166 4441
3166 4491
3166 4518
3166 4592
3167 3261
3167 3303
3167 3391
3167 3459
3167 3574
3167 3642
3167 3677
3167 3897
3167 3915
3167 4063
3167 4486
3167 4495
3167 4515
3167 4526
3167 4569
3168 3281
3168 3512
3168 3648
3168 3721
3168 3736
3168 3839
3168 4050
3168 4081
3168 4110
3168 4167
3168 4198
3168 4242
3168 4260
3168 4312
3168 4386
3168 4416
3168 4535
3168 4621
3168 4683
3168 4684
3168 4711
3168 4840
3168 4930
3168 4969
3169 3513
3169 3980
3169 4061
3169 4183
3169 4770
3169 4929
3170 3482
3170 3954
3170 4104
3170 4230
3170 4538
3170 4880
3171 3226
3171 3355
3171 3750
3171 4026
3171 4071
3172 3628
3172 4669
3172 4729
3172 4880
3173 3417
3173 4068
3173 4610
3174 3186
3174 3486
3174 3729
3174 3743
3174 4405
3174 4437
3174 4607
3175 3351
3175 3914
3175 4038
3175 4237
3175 4337
3175 4561
3175 4830
3175 4887
3176 3257
3176 3550
3176 3681
3176 3711
3176 3977
3176 4073
3176 4265
3176 4280
3176 4412
3176 4513
3177 3218
3177 3258
3177 4400
3177 4464
3177 4613
3177 4718
3178 3417
3178 3471
3178 3593
3178 3744
3178 3963
3178 4375
3178 4797
3178 4910
3179 3851
3179 3944
3179 3946
3179 4046
3179 4088
3179 4261
3179 4454
3179 4708
3179 4723
3179 4749
3179 4944
3180 3260
3180 3806
3180 3931
3180 4027
3180 4394
3180 4594
3180 4607
3180 4615
3180 4811
3180 4927
3181 3973
3181 4984
3182 3187
3182 3905
3182 4013
3182 4085
3182 4514
3182 4864
3182 4979
3183 3568
3183 3979
3183 4284
3183 4311
3183 4588
3183 4758
3183 4846
3184 3192
3184 3358
3184 3361
3184 3554
3184 3562
3184 3998
3185 3358
3185 3407
3185 3488
3185 3595
3185 4274
3185 4864
3186 3433
3186 3611
3186 4077
3187 3720
3187 3827
3187 4255
3187 4596
3187 4762
3187 4880
3188 3352
3188 3644
3188 3656
3188 3957
3188 3968
3188 4013
3188 4219
3188 4256
3188 4257
3188 4340
3188 4574
3188 4722
3188 4879
3189 3201
3189 3727
3189 3915
3189 4046
3189 4590
3189 4601
3189 4639
3190 3798
3190 3813
3190 3824
3190 3945
3190 4120
3190 4152
3190 4297
3190 4586
3190 4645
3191 3349
3191 3359
3191 3887
3191 4229
3191 4476
3191 4886
3192 3210
3192 3395
3192 3423
3192 3477
3192 3547
3192 3595
3192 3663
3192 3976
3192 4034
3192 4324
3192 4584
3192 4734
3192 4938
3193 3440
3193 3514
3193 3699
3193 3742
3193 4007
3193 4324
3193 4368
3193 4478
3193 4545
3193 4584
3193 4607
3193 4660
3193 4718
3193 4931
3194 3462
3194 3522
3194 3766
3194 4162
3194 4307
3194 4311
3194 4454
3194 4785
3195 3208
3195 3293
3195 4035
3195 4067
3195 4527
3195 4536
3195 4538
3195 4551
3195 4573
3195 4830
3196 3511
3196 3896
3196 4008
3196 4180
3196 4224
3196 4350
3196 4484
3196 4502
3196 4573
3196 4674
3196 4820
3196 4942
3196 4997
3197 3301
3197 3813
3197 4287
3197 4398
3197 4496
3197 4507
3197 4773
3197 4926
3198 3415
3198 3558
3198 3579
3198 3612
3198 3635
3198 3650
3198 3670
3198 3676
3198 3677
3198 3710
3198 3757
3198 3974
3198 4010
3198 4112
3198 4116
3198 4245
3198 4247
3198 4357
3198 4400
3198 4565
3198 4595
3198 4629
3198 4651
3198 4701
3198 4758
3198 4763
3198 4765
3198 4772
3198 4805
3198 4967
3199 3347
3199 3656
3199 3844
3199 4023
3199 4111
3199 4853
3199 4940
3200 3587
3200 4391
3200 4432
3200 4647
3200 4705
3200 4834
3200 4917
3201 3595
3201 3693
3201 3915
3201 4056
3201 4674
3202 3216
3202 3389
3202 3565
3202 3898
3202 4335
3202 4387
3202 4667
3202 4683
3202 4722
3202 4828
3202 4911
3202 4999
3203 3414
3203 3817
3203 3824
3203 3987
3203 4437
3203 4680
3204 3460
3204 3467
3204 3562
3204 4476
3204 4680
3204 4702
3204 4850
3204 4974
3205 3230
3205 3232
3205 3254
3205 3566
3205 3695
3205 4249
3205 4290
3205 4328
3205 4530
3205 4729
3205 4884
3206 3306
3206 3789
3206 4039
3206 4901
3207 3345
3207 3351
3207 3373
3207 3430
3207 3485
3207 3937
3207 4068
3207 4412
3207 4604
3207 4885
3208 3408
3208 3611
3208 3875
3208 4402
3208 4711
3209 3337
3209 3356
3209 3545
3209 3652
3209 3819
3209 4201
3209 4312
3209 4355
3210 3662
3210 3944
3210 4057
3210 4522
3210 4562
3210 4589
3210 4691
3210 4746
3211 3444
3211 3697
3211 3939
3211 4194
3211 4225
3211 4560
3211 4661
3211 4907
3212 3359
3212 3394
3212 3631
3212 3893
3212 3932
3212 4154
3212 4206
3212 4440
3212 4524
3212 4974
3213 3419
3213 3428
3213 3761
3213 3934
3213 4342
3214 3885
3214 3922
3214 3994
3214 4506
3214 4840
3214 4976
3215 3360
3215 4191
3215 4591
3215 4639
3216 3553
3216 3711
3216 3773
3216 3808
3216 3956
3216 4090
3216 4173
3216 4338
3216 4419
3216 4623
3216 4638
3216 4755
3216 4844
3216 4872
3217 3304
3217 3573
3217 3686
3217 3713
3217 3877
3217 4223
3217 4464
3217 4881
3218 3262
3218 4016
3218 4456
3218 4475
3218 4511
3218 4725
3218 4777
3218 4803
3218 4971
3219 3325
3219 3588
3219 3601
3219 3723
3219 3789
3219 3855
3219 4229
3219 4571
3219 4628
3219 4632
3220 3303
3220 3614
3220 3952
3220 4053
3220 4104
3220 4171
3220 4196
3220 4204
3220 4316
3220 4350
3220 4570
3220 4662
3220 4751
3221 3288
3221 3327
3221 3520
3221 3755
3221 4470
3221 4896
3222 3303
3222 3707
3222 4014
3222 4343
3222 4483
3222 4541
3222 4544
3222 4888
3223 3568
3223 3835
3223 4144
3223 4510
3223 4885
3224 3612
3224 4075
3224 4136
3224 4217
3224 4430
3224 4654
3225 3246
3225 3408
3225 3634
3225 3994
3225 4098
3225 4444
3225 4463
3225 4481
3225 4506
3225 4536
3225 4636
3225 4737
3225 4907
3225 4958
3226 3585
3226 3928
3226 4083
3226 4365
3226 4529
3227 3453
3227 4015
3227 4655
3227 4705
3227 4855
3228 3333
3228 3423
3228 3427
3228 3592
3228 3611
3228 3684
3228 3786
3228 3887
3228 4001
3228 4003
3228 4053
3228 4162
3228 4344
3228 4448
3228 4562
3228 4625
3228 4643
3228 4730
3228 4760
3228 4776
3228 4809
3229 3766
3229 3890
3229 4204
3229 4311
3229 4489
3229 4493
3229 4563
3229 4650
3229 4774
3229 4870
3230 3398
3230 3535
3230 3651
3230 4084
3231 3338
3231 3344
3231 3601
3231 3809
3231 3848
3231 3963
3231 3987
3231 3998
3231 4076
3231 4089
3231 4148
3231 4180
3231 4281
3231 4491
3231 4659
3231 4742
3231 4759
3231 4841
3231 4897
3232 3342
3232 3574
3232 3770
3232 3922
3232 4293
3232 4338
3232 4388
3232 4470
3232 4717
3232 4805
3233 3494
3233 3796
3233 3851
3233 4473
3233 4762
3233 4877
3234 3269
3234 3321
3234 3534
3234 3596
3234 3910
3234 3983
3234 4222
3234 4239
3234 4342
3234 4406
3234 4840
3235 3244
3235 3275
3235 3569
3235 3573
3235 3753
3235 4095
3235 4257
3235 4563
3235 4696
3235 4949
3236 3358
3236 3819
3236 4291
3236 4739
3236 4901
3237 3307
3237 3348
3237 3360
3237 3587
3237 3655
3237 3746
3237 3805
3237 4100
3237 4479
3237 4588
3237 4805
3237 4852
3238 3257
3238 3355
3238 3507
3238 3560
3238 3821
3238 3902
3238 3944
3238 4114
3238 4366
3238 4636
3238 4688
3238 4871
3239 3448
3239 3724
3239 4120
3239 4155
3239 4653
3240 3277
3240 3371
3240 3572
3240 3620
3240 3773
3240 4028
3240 4140
3240 4163
3240 4266
3240 4582
3240 4668
3240 4941
3241 3473
3241 3699
3241 3870
3241 3945
3241 4256
3241 4259
3241 4308
3241 4439
3241 4450
3241 4584
3241 4777
3241 4862
3242 3545
3242 3581
3242 3589
3242 3756
3242 3766
3242 4448
3242 4547
3242 4579
3242 4723
3242 4935
3243 3340
3243 3588
3243 3596
3243 3615
3243 3809
3243 3840
3243 4309
3243 4361
3243 4541
3243 4597
3243 4639
3243 4694
3243 4714
3243 4778
3243 4906
3243 4993
3244 3530
3244 3675
3244 3694
3244 3810
3244 4145
3244 4238
3245 3411
3245 3597
3245 3785
3245 3789
3245 4019
3245 4031
3245 4152
3245 4183
3245 4198
3245 4384
3245 4455
3245 4939
3245 4982
3246 3260
3246 3559
3246 3728
3246 3813
3246 3863
3246 4223
3246 4348
3246 4530
3247 3395
3247 3411
3247 3419
3247 3422
3247 3555
3247 3823
3247 3936
3247 4097
3247 4299
3247 4505
3247 4566
3247 4784
3248 3318
3248 3379
3248 3418
3248 3769
3248 3830
3248 4092
3248 4196
3248 4346
3248 4405
3248 4672
3248 4686
3248 4785
3248 4902
3249 3592
3249 3616
3249 4188
3249 4204
3249 4346
3249 4410
3249 4420
3249 4512
3249 4663
3250 3377
3250 3793
3250 3826
3250 3850
3250 4196
3250 4573
3251 3320
3251 3576
3251 3620
3251 3714
3251 3915
3251 4519
3251 4806
3252 3481
3252 3595
3252 4018
3252 4079
3252 4204
3252 4246
3252 4475
3252 4632
3252 4844
3252 4848
3253 3263
3253 4029
3253 4154
3253 4293
3253 4516
3253 4595
3253 4773
3253 4774
3253 4892
3254 3326
3254 3397
3254 3425
3254 3736
3254 3849
3254 4627
3254 4762
3255 3659
3255 4630
3255 4699
3255 4769
3256 3366
3256 3392
3256 3423
3256 3582
3256 4046
3256 4231
3256 4278
3256 4466
3256 4709
3257 3535
3257 3633
3257 3770
3257 3776
3257 4356
3257 4388
3258 3516
3258 3744
3258 3843
3258 3909
3258 3961
3258 4078
3258 4271
3258 4346
3258 4493
3258 4743
3258 4917
3259 3562
3259 3805
3259 4594
3259 4901
3260 3714
3260 4184
3260 4670
3260 4762
3260 4772
3261 3568
3261 3968
3261 4081
3261 4146
3261 4237
3261 4383
3261 4966
3262 3296
3262 3361
3262 3686
3262 3728
3262 3795
3262 4213
3262 4250
3262 4817
3263 3360
3263 3428
3263 3541
3263 3713
3263 3761
3263 4877
3264 3635
3264 4614
3264 4855
3264 4921
3265 3331
3265 3879
3265 4112
3265 4176
3265 4231
3265 4590
3265 4631
3265 4637
3265 4713
3265 4872
3265 4937
3266 3417
3266 3516
3266 3661
3266 4609
3266 4880
3266 4909
3266 4937
3267 3348
3267 3403
3267 3522
3267 4042
3267 4171
3267 4269
3267 4464
3267 4541
3268 3367
3268 3569
3268 4052
3268 4366
3268 4612
3268 4939
3269 3407
3269 3560
3269 3637
3269 3650
3269 3836
3269 3887
3269 4052
3269 4444
3269 4450
3270 3541
3270 3754
3270 3946
3270 4163
3270 4189
3270 4213
3270 4287
3270 4375
3270 4388
3270 4758
3271 3572
3271 3604
3271 3927
3271 4009
3271 4120
3271 4400
3271 4865
3271 4867
3272 3365
3272 3732
3272 4160
3272 4191
3272 4636
3272 4667
3273 3366
3273 3567
3273 3796
3273 3953
3273 4086
3273 4298
3273 4571
3273 4710
3273 4725
3273 4730
3273 4823
3273 4949
3274 3462
3274 3592
3274 3660
3274 3752
3274 4113
3274 4123
3274 4124
3274 4204
3274 4246
3274 4337
3274 4400
3274 4595
3274 4626
3274 4789
3274 4951
3274 4985
3275 3391
3275 3488
3275 3733
3275 3936
3275 4203
3275 4482
3275 4512
3276 3390
3276 3424
3276 3493
3276 3631
3276 3769
3276 3862
3276 4028
3276 4076
3276 4442
3276 4550
3276 4596
3276 4738
3276 4762
3276 4827
3276 4846
3276 4889
3276 4993
3277 3425
3277 3670
3277 3778
3277 3846
3277 4288
3277 4815
3277 4818
3277 4898
3277 4951
3278 3706
3278 3797
3278 3973
3278 4346
3278 4632
3278 4690
3279 3319
3279 3398
3279 3815
3279 4145
3280 3354
3280 3443
3280 3486
3280 3492
3280 3635
3280 3736
3280 4232
3280 4249
3280 4261
3280 4428
3280 4601
3280 4608
3281 4045
3281 4243
3281 4365
3281 4574
3281 4627
3281 4683
3281 4777
3281 4895
3281 4912
3281 4921
3282 3439
3282 3531
3282 3631
3282 3738
3282 4396
3282 4411
3282 4431
3282 4471
3282 4661
3282 4833
3282 4962
3283 3785
3283 4234
3283 4642
3283 4681
3283 4701
3283 4776
3283 4823
3284 3305
3284 3397
3284 3541
3284 3985
3284 3994
3284 4011
3284 4069
3284 4374
3284 4414
3284 4417
3284 4445
3284 4734
3284 4898
3284 4915
3285 3293
3285 3347
3285 3952
3285 4347
3285 4481
3285 4762
3286 3354
3286 3392
3286 3958
3286 3960
3286 4210
3286 4233
3286 4247
3286 4266
3286 4288
3286 4657
3286 4673
3286 4727
3286 4760
3287 3608
3287 3681
3287 3781
3287 3785
3287 4228
3287 4400
3287 4762
3287 4913
3287 4940
3288 3512
3288 4042
3288 4178
3288 4262
3288 4864
3288 4974
3289 3330
3289 3567
3289 3854
3289 4260
3289 4584
3289 4776
3289 4950
3290 3375
3290 4365
3290 4501
3290 4745
3290 4842
3291 3360
3291 3385
3291 3439
3291 3739
3291 3937
3291 4347
3291 4571
3291 4588
3291 4670
3291 4820
3291 4851
3291 4916
3292 3305
3292 3447
3292 3784
3292 4166
3292 4207
3292 4595
3292 4818
3293 3433
3293 3479
3293 3634
3293 3705
3293 3728
3293 3793
3293 4209
3293 4217
3293 4257
3293 4260
3293 4332
3293 4421
3293 4980
3294 3352
3294 3353
3294 4037
3294 4432
3294 4458
3294 4473
3294 4646
3294 4799
3294 4847
3295 3303
3295 3487
3295 4283
3295 4742
3295 4877
3295 4885
3296 3331
3296 3564
3296 3861
3296 3892
3296 3935
3296 4269
3296 4387
3296 4888
3297 3351
3297 3384
3297 3439
3297 3598
3297 3911
3297 4042
3298 4067
3298 4263
3298 4664
3298 4787
3298 4805
3298 4850
3298 4992
3299 3360
3299 3457
3299 3467
3299 3482
3299 3664
3299 3856
3299 4213
3299 4473
3299 4557
3299 4717
3299 4944
3300 3359
3300 3398
3300 3655
3300 3968
3300 4030
3300 4948
3301 3458
3301 3760
3301 3938
3301 4050
3301 4202
3302 3684
3302 3874
3302 3930
3302 4317
3302 4333
3302 4401
3302 4459
3302 4636
3302 4670
3302 4718
3302 4788
3302 4891
3303 3359
3303 3493
3303 3561
3303 3571
3303 3822
3303 3881
3303 3952
3303 4020
3303 4137
3303 4209
3303 4225
3303 4266
3303 4332
3303 4473
3303 4510
3303 4532
3303 4609
3303 4610
3303 4964
3304 4421
3304 4629
3304 4696
3304 4759
3304 4905
3305 3345
3305 3419
3305 3644
3305 3661
3305 3861
3305 4184
3305 4375
3305 4541
3306 3422
3306 3524
3306 3572
3306 4037
3306 4556
3306 4563
3306 4673
3307 3411
3307 3517
3307 3596
3307 3700
3307 3945
3307 4100
3307 4835
3308 4026
3308 4029
3308 4036
3308 4261
3308 4632
3308 4717
3308 4941
3309 3373
3309 3437
3309 3496
3309 3582
3309 3851
3309 3956
3309 4604
3309 4609
3309 4820
3309 4847
3310 3521
3310 3545
3310 3786
3310 3973
3310 4089
3310 4260
3310 4886
3311 3597
3311 4352
3311 4361
3311 4590
3311 4717
3312 3330
3312 3729
3312 4132
3312 4162
3312 4198
3312 4213
3312 4926
3313 3416
3313 3487
3313 4008
3313 4306
3313 4587
3313 4809
3314 3315
3314 3504
3314 3562
3314 3593
3314 3684
3314 3834
3314 3877
3314 3988
3314 3995
3314 4083
3314 4088
3314 4173
3314 4235
3314 4388
3314 4469
3314 4483
3314 4519
3314 4825
3314 4908
3315 3497
3315 3514
3315 3583
3315 3649
3315 3805
3315 3935
3315 3966
3315 4054
3315 4586
3315 4589
3315 4591
3315 4652
3315 4887
3315 4932
3316 3447
3316 3636
3316 3690
3316 3695
3316 3743
3316 4018
3316 4041
3317 3375
3317 3474
3317 3610
3317 3632
3317 3653
3317 3703
3317 3800
3317 3801
3317 3880
3317 3963
3317 4757
3317 4786
3317 4889
3317 4903
3318 3595
3318 3711
3318 3874
3318 3907
3318 3914
3318 4070
3318 4091
3318 4135
3318 4226
3318 4238
3318 4585
3318 4686
3318 4732
3319 3565
3319 3637
3319 3895
3319 4209
3319 4527
3319 4578
3319 4816
3319 4894
3320 3469
3320 3494
3320 3859
3320 4048
3320 4770
3320 4980
3321 3462
3321 3645
3321 3706
3321 3707
3321 3751
3321 3811
3321 3936
3321 3955
3321 4325
3321 4412
3321 4594
3321 4682
3321 4886
3322 3344
3322 3445
3322 3497
3322 3543
3322 3559
3322 3670
3322 3756
3322 3945
3322 3982
3322 3991
3322 4087
3322 4111
3322 4148
3322 4162
3322 4177
3322 4376
3322 4430
3322 4604
3322 4679
3322 4810
3322 4866
3322 4901
3322 4911
3322 4935
3322 4951
3322 4974
3323 3353
3323 3744
3323 4292
3323 4297
3323 4327
3323 4354
3323 4627
3323 4695
3323 4736
3323 4853
3324 3513
3324 4101
3324 4399
3324 4417
3324 4619
3324 4820
3325 3538
3325 3545
3325 4138
3325 4498
3325 4545
3325 4780
3326 3346
3326 3529
3326 3787
3326 3792
3326 3971
3326 4001
3326 4048
3326 4340
3326 4430
3326 4461
3326 4542
3326 4571
3326 4593
3326 4616
3326 4673
3326 4744
3326 4875
3327 3378
3327 3437
3327 3584
3327 4050
3327 4459
3327 4742
3328 3696
3328 3994
3328 4384
3328 4702
3328 4805
3328 4959
3329 3351
3329 3919
3329 3964
3329 3973
3329 4127
3329 4551
3329 4811
3330 3365
3330 3426
3330 3578
3330 3651
3330 3681
3330 3766
3330 3798
3330 3870
3330 4316
3330 4673
3330 4824
3330 4848
3330 4920
3331 3456
3331 3579
3331 3671
3331 4179
3331 4320
3331 4348
3331 4574
3331 4632
3331 4647
3331 4673
3331 4711
3332 3623
3332 3897
3332 4035
3332 4142
3332 4388
3332 4773
3333 3826
3333 3946
3333 3974
3333 4000
3333 4143
3333 4154
3333 4840
3334 3733
3334 3757
3334 4068
3334 4121
3334 4127
3334 4475
3334 4811
3335 3413
3335 3723
3335 3811
3335 3964
3335 4004
3335 4396
3335 4566
3335 4707
3335 4719
3335 4737
3335 4742
3336 3530
3336 3805
3336 3832
3336 3845
3336 4005
3336 4040
3336 4077
3336 4111
3336 4249
3336 4275
3336 4278
3336 4597
3336 4745
3336 4872
3336 4962
3337 3541
3337 3789
3337 3819
3337 4641
3337 4780
3337 4978
3338 3345
3338 3881
3338 4177
3338 4251
3338 4386
3338 4530
3338 4536
3338 4695
3338 4772
3338 4911
3338 4924
3339 3432
3339 3615
3339 3993
3339 4191
3339 4268
3339 4310
3339 4324
3339 4467
3339 4877
3339 4922
3339 4971
3340 3423
3340 3584
3340 3655
3340 3692
3340 3819
3340 3864
3340 3999
3340 4330
3340 4493
3340 4781
3341 3441
3341 3582
3341 3837
3341 3892
3341 3904
3341 4432
3341 4585
3341 4625
3341 4921
3342 3670
3342 3796
3342 4595
3342 4597
3342 4719
3342 4917
3343 3439
3343 3792
3343 3830
3343 3856
3343 4071
3343 4245
3343 4437
3343 4647
3343 4754
3344 3545
3344 3834
3344 4081
3344 4261
3344 4349
3344 4701
3344 4902
3345 3593
3345 3633
3345 4340
3345 4537
3345 4688
3346 3649
3346 3932
3346 4035
3346 4218
3346 4812
3346 4876
3346 4916
3346 4967
3347 3428
3347 3667
3347 3706
3347 3744
3347 3753
3347 4127
3347 4340
3347 4397
3347 4754
3347 4792
3347 4818
3347 4841
3347 4987
3348 3692
3348 3704
3348 3730
3348 3798
3348 3920
3348 4141
3348 4354
3348 4637
3348 4649
3348 4734
3348 4896
3349 3736
3349 3994
3349 4528
3349 4709
3349 4868
3349 4872
3349 4880
3349 4950
3349 4960
3350 3353
3350 3589
3350 3843
3350 3873
3350 4188
3350 4448
3350 4510
3350 4594
3350 4709
3350 4827
3351 3465
3351 3474
3351 3480
3351 3527
3351 3673
3351 3753
3351 3789
3351 3903
3351 3937
3351 3939
3351 3959
3351 4158
3351 4208
3351 4329
3351 4335
3351 4341
3351 4514
3351 4524
3351 4579
3351 4729
3351 4733
3351 4964
3352 3455
3352 3637
3352 3655
3352 3881
3352 4180
3352 4324
3352 4445
3352 4468
3352 4614
3352 4769
3352 4973
3353 3381
3353 3475
3353 3656
3353 3993
3353 4080
3353 4321
3353 4342
3353 4443
3353 4503
3353 4575
3353 4646
3354 3590
3354 3673
3354 3880
3354 4235
3354 4482
3354 4539
3354 4550
3355 3698
3355 4138
3355 4155
3355 4280
3355 4480
3355 4694
3355 4792
3355 4838
3355 4873
3356 3718
3356 3994
3356 4749
3357 3476
3357 3704
3357 3755
3357 3831
3357 4071
3357 4145
3357 4225
3357 4340
3357 4401
3357 4497
3357 4711
3358 3440
3358 3561
3358 3752
3358 3840
3358 4000
3358 4258
3358 4351
3358 4421
3358 4432
3358 4794
3358 4831
3358 4897
3359 3437
3359 3474
3359 3572
3359 3582
3359 3593
3359 3840
3359 3860
3359 4269
3359 4484
3359 4797
3359 4935
3360 3769
3360 4134
3360 4922
3361 3443
3361 4021
3361 4043
3361 4121
3361 4195
3361 4293
3361 4420
3361 4797
3361 4934
3362 4654
3362 4753
3362 4931
3362 4951
3363 3683
3363 3984
3363 4042
3363 4077
3363 4155
3363 4522
3363 4677
3363 4842
3363 4849
3364 3365
3364 3718
3364 3740
3364 3786
3364 3924
3364 4005
3364 4020
3364 4150
3364 4209
3364 4368
3364 4606
3365 3530
3365 3615
3365 3621
3365 3755
3365 4025
3365 4078
3365 4096
3365 4416
3365 4702
3365 4831
3365 4847
3366 3406
3366 3489
3366 3514
3366 3519
3366 3701
3366 3738
3366 3862
3366 3997
3366 4036
3366 4176
3366 4304
3366 4340
3366 4470
3366 4480
3366 4628
3366 4655
3366 4718
3366 4849
3366 4957
3366 4991
3367 3384
3367 3464
3367 3537
3367 3578
3367 3736
3367 3813
3367 4000
3367 4747
3368 3385
3368 3707
3368 4035
3368 4646
3368 4670
3368 4742
3369 3395
3369 3403
3369 3574
3369 4247
3369 4266
3369 4326
3369 4588
3369 4650
3370 3603
3370 4188
3370 4550
3370 4554
3370 4850
3371 3443
3371 3773
3371 3783
3371 4123
3371 4146
3371 4409
3371 4745
3371 4781
3371 4926
3372 3586
3372 4228
3372 4318
3372 4321
3373 3502
3373 3531
3373 3590
3373 3638
3373 3915
3373 3926
3373 3932
3373 3989
3373 4091
3373 4158
3373 4388
3373 4491
3373 4695
3373 4822
3373 4869
3373 4950
3374 3992
3374 4004
3374 4115
3374 4194
3374 4238
3374 4313
3374 4460
3374 4542
3374 4653
3375 3404
3375 3647
3375 3729
3375 3741
3375 3803
3375 4313
3375 4769
3375 4878
3376 3497
3376 3548
3376 4200
3376 4783
3376 4870
3377 3602
3377 4212
3377 4312
3377 4423
3377 4543
3377 4701
3377 4862
3378 3482
3378 3644
3378 3673
3378 3761
3378 3774
3378 3793
3378 3954
3378 4323
3378 4373
3378 4495
3378 4519
3378 4609
3378 4624
3378 4670
3378 4723
3378 4900
3378 4987
3379 3667
3379 3805
3379 3974
3379 4166
3379 4207
3379 4308
3379 4653
3380 3402
3380 3722
3380 3728
3380 3944
3380 4081
3380 4264
3380 4286
3380 4614
3380 4732
3381 3426
3381 3533
3381 3794
3381 3849
3381 4268
3381 4334
3381 4388
3381 4900
3381 4951
3382 3463
3382 3528
3382 4140
3382 4228
3382 4274
3382 4541
3382 4590
3382 4740
3382 4871
3382 4950
3383 3393
3383 3492
3383 3780
3383 4586
3384 3404
3384 3501
3384 3516
3384 3710
3384 3778
3384 3779
3384 3993
3384 4133
3384 4268
3384 4376
3384 4656
3384 4674
3384 4896
3385 3991
3385 4284
3385 4594
3385 4635
3386 3511
3386 3562
3386 3964
3386 3990
3386 4166
3386 4317
3386 4547
3386 4860
3387 3465
3387 4262
3387 4345
3387 4496
3388 4067
3388 4116
3388 4243
3388 4896
3389 3596
3389 4379
3389 4475
3389 4780
3390 3681
3390 3789
3390 4070
3390 4505
3390 4679
3390 4888
3391 3497
3391 3750
3391 4006
3391 4070
3391 4159
3391 4436
3391 4661
3391 4877
3392 3616
3392 4071
3392 4307
3392 4359
3392 4372
3392 4448
3392 4645
3392 4806
3392 4823
3392 4849
3392 4897
3392 4968
3393 3417
3393 3430
3393 3851
3393 3887
3393 3920
3393 4051
3393 4880
3393 4936
3394 3603
3394 3621
3394 3957
3394 4170
3394 4264
3394 4454
3394 4497
3394 4639
3395 3556
3395 3563
3395 3622
3395 3770
3395 3824
3395 3857
3395 3889
3395 3937
3395 3992
3395 4063
3395 4192
3395 4303
3395 4612
3395 4751
3395 4859
3395 4875
3395 4995
3396 3476
3396 4198
3396 4204
3396 4340
3396 4429
3396 4662
3397 3467
3397 4872
3398 3501
3398 3547
3398 3737
3398 3829
3398 3861
3398 3950
3398 4029
3398 4405
3398 4408
3398 4425
3398 4499
3398 4526
3398 4565
3398 4582
3398 4727
3398 4752
3398 4780
3398 4878
3398 4944
3398 4945
3399 3793
3399 4118
3399 4715
3399 4750
3399 4894
3400 3566
3400 3804
3400 3921
3400 3937
3400 4183
3400 4406
3400 4533
3400 4922
3401 3502
3401 3508
3401 3841
3401 3852
3402 3639
3402 3696
3402 3944
3402 4141
3402 4198
3402 4237
3402 4456
3402 4639
3402 4819
3402 4937
3403 3406
3403 3493
3403 3516
3403 3564
3403 3750
3403 3776
3403 3828
3403 3834
3403 3859
3403 4064
3403 4108
3403 4119
3403 4138
3403 4181
3403 4237
3403 4369
3403 4430
3403 4488
3403 4503
3403 4505
3403 4679
3403 4775
3403 4876
3403 4905
3404 3701
3404 3907
3404 3947
3404 4213
3404 4420
3404 4732
3404 4778
3404 4841
3405 3798
3405 3892
3405 4006
3405 4018
3405 4156
3405 4239
3405 4571
3405 4650
3405 4659
3405 4889
3406 3639
3406 4371
3406 4393
3407 3441
3407 4098
3407 4183
3407 4314
3407 4351
3407 4456
3407 4475
3407 4496
3408 3546
3408 3618
3408 3639
3408 4000
3408 4177
3408 4492
3408 4646
3408 4661
3408 4738
3408 4927
3408 4935
3409 3424
3409 4317
3410 3908
3410 4427
3410 4429
3410 4499
3410 4733
3411 3530
3411 3555
3411 4079
3411 4117
3411 4529
3411 4933
3412 4077
3412 4088
3412 4122
3412 4637
3413 3514
3413 3554
3413 3793
3413 3959
3413 4180
3413 4318
3413 4591
3413 4695
3413 4733
3413 4816
3414 3494
3414 3517
3414 3674
3414 3680
3414 4082
3414 4451
3414 4905
3415 3550
3415 3631
3415 3677
3415 3714
3415 3726
3415 4091
3415 4162
3415 4275
3415 4333
3415 4444
3415 4505
3415 4754
3415 4785
3416 3419
3416 4206
3416 4546
3416 4748
3417 3534
3417 3578
3417 3582
3417 3624
3417 3631
3417 3704
3417 3807
3417 4126
3417 4140
3417 4175
3417 4442
3417 4706
3417 4854
3417 4887
3418 3740
3418 3876
3418 4186
3418 4542
3418 4712
3419 3482
3419 3519
3419 3618
3419 3952
3419 4024
3419 4169
3419 4421
3419 4720
3420 3423
3420 3604
3420 3669
3420 3769
3420 3932
3420 4104
3420 4244
3420 4334
3420 4535
3420 4595
3420 4951
3421 3495
3421 3607
3421 3813
3421 3948
3422 3859
3422 4085
3422 4257
3422 4332
3422 4337
3422 4405
3422 4636
3422 4799
3423 3539
3423 3878
3423 3915
3423 4099
3423 4523
3423 4706
3423 4732
3423 4754
3423 4809
3423 4830
3424 3622
3424 3956
3424 4486
3425 3486
3425 3647
3425 3803
3425 4214
3425 4755
3425 4878
3425 4943
3426 3933
3426 3946
3426 4378
3426 4526
3426 4727
3426 4779
3426 4835
3427 3467
3427 3528
3427 3587
3427 3676
3427 4332
3427 4547
3427 4794
3428 3471
3428 3577
3428 3701
3428 4006
3428 4125
3428 4434
3428 4679
3428 4810
3429 3580
3429 4324
3429 4350
3429 4406
3429 4784
3430 3526
3430 3832
3430 3902
3430 3968
3430 4147
3431 3685
3431 3988
3431 4263
3431 4303
3431 4355
3431 4805
3431 4988
3432 3729
3432 4275
3432 4755
3432 4853
3433 3551
3433 4050
3433 4162
3433 4224
3433 4351
3433 4690
3433 4748
3434 3727
3434 4034
3434 4536
3435 3581
3435 3637
3435 4162
3435 4662
3435 4770
3435 4771
3436 3533
3436 3770
3436 3964
3436 4231
3436 4266
3436 4954
3437 3817
3437 3915
3437 4059
3437 4068
3437 4141
3437 4236
3437 4372
3437 4407
3437 4465
3437 4723
3438 3697
3438 3785
3438 4106
3438 4146
3438 4352
3438 4581
3438 4936
3439 3634
3439 3642
3439 3674
3439 3690
3439 3746
3439 3952
3439 3967
3439 4026
3439 4059
3439 4189
3439 4378
3439 4467
3439 4524
3439 4650
3439 4668
3439 4704
3439 4710
3440 3451
3440 3485
3440 3577
3440 3636
3440 3758
3440 3798
3440 4095
3440 4157
3440 4227
3440 4376
3440 4389
3440 4398
3440 4445
3440 4611
3440 4658
3440 4680
3440 4694
3440 4708
3440 4733
3440 4754
3440 4788
3441 3633
3441 3702
3441 3799
3441 3846
3441 3951
3441 4344
3441 4353
3441 4621
3441 4756
3441 4786
3441 4815
3442 3619
3442 4125
3442 4183
3442 4201
3442 4225
3442 4239
3442 4418
3442 4876
3443 3533
3443 3561
3443 4204
3443 4329
3443 4486
3443 4522
3443 4701
3443 4878
3443 4892
3444 4237
3444 4256
3444 4639
3445 3976
3445 4037
3446 3555
3446 3932
3446 4197
3446 4252
3446 4307
3446 4976
3447 3448
3447 3554
3447 3767
3447 3787
3447 3969
3447 4695
3447 4872
3448 3453
3448 3533
3448 4119
3448 4131
3448 4285
3448 4664
3448 4729
3449 3524
3449 3805
3449 4125
3449 4188
3449 4201
3449 4512
3449 4807
3449 4921
3449 4942
3450 3616
3450 3807
3450 4157
3450 4248
3450 4539
3450 4776
3450 4987
3451 3551
3451 3853
3451 4210
3451 4690
3452 3817
3452 4103
3452 4163
3452 4183
3453 3562
3453 3700
3453 3726
3454 3457
3454 3464
3454 3476
3454 3945
3454 4615
3454 4699
3454 4819
3454 4872
3455 4176
3455 4393
3455 4476
3455 4532
3455 4765
3455 4830
3456 3904
3456 3983
3456 4200
3456 4307
3456 4493
3456 4746
3457 3675
3457 4181
3457 4247
3457 4603
3458 3900
3458 3983
3458 4128
3458 4177
3458 4401
3458 4636
3458 4672
3458 4765
3459 3472
3459 3528
3459 3596
3459 3617
3459 3651
3459 3889
3459 3921
3459 4254
3459 4571
3459 4606
3459 4849
3459 4970
3460 3583
3460 3641
3460 3778
3460 4009
3461 3701
3461 3793
3461 3802
3461 3820
3461 3878
3461 3956
3461 3976
3461 4032
3461 4258
3461 4426
3461 4446
3461 4709
3461 4990
3462 3693
3462 4255
3462 4256
3462 4273
3462 4315
3463 3833
3463 4077
3463 4409
3463 4561
3463 4604
3463 4627
3463 4649
3464 3537
3464 3864
3464 3866
3464 3894
3464 3907
3464 3931
3464 3959
3464 4024
3464 4079
3464 4230
3464 4258
3464 4368
3464 4503
3464 4521
3464 4556
3464 4631
3464 4677
3464 4817
3464 4823
3464 4877
3464 4901
3464 4979
3465 3819
3465 3826
3465 4026
3465 4269
3465 4270
3465 4361
3465 4670
3466 3470
3466 3559
3466 3562
3466 3600
3466 3896
3466 4050
3466 4433
3466 4502
3466 4889
3467 3526
3467 3664
3467 3697
3467 3742
3467 3832
3467 3915
3467 4172
3467 4247
3467 4421
3467 4533
3467 4624
3467 4634
3467 4826
3467 4849
3467 4959
3468 3553
3468 3850
3468 4097
3468 4121
3468 4150
3468 4256
3468 4484
3468 4678
3468 4889
3469 3580
3469 3632
3469 4027
3469 4078
3469 4127
3469 4343
3469 4669
3469 4765
3469 4796
3470 3480
3470 3909
3470 4014
3470 4379
3470 4486
3471 3653
3471 3678
3471 3787
3471 3917
3471 4026
3471 4200
3471 4541
3471 4996
3472 3482
3472 3549
3472 3646
3472 4255
3472 4409
3472 4741
3472 4972
3473 3604
3473 3627
3473 4237
3473 4493
3473 4532
3473 4635
3473 4843
3473 4882
3474 4092
3474 4268
3474 4691
3474 4721
3474 4903
3475 3479
3475 3692
3475 3813
3475 3838
3475 3986
3475 4015
3475 4043
3475 4103
3475 4130
3475 4330
3475 4389
3475 4467
3475 4543
3475 4654
3475 4748
3475 4767
3475 4876
3475 4920
3476 3513
3476 3642
3476 3782
3476 3889
3476 4104
3476 4308
3476 4310
3476 4402
3476 4414
3476 4475
3476 4490
3476 4502
3476 4576
3476 4591
3476 4627
3476 4642
3476 4654
3476 4709
3476 4783
3476 4838
3476 4964
3476 4986
3477 3572
3477 3605
3477 3610
3477 3736
3477 3741
3477 3769
3477 4201
3477 4297
3477 4523
3477 4749
3477 4754
3477 4978
3478 3851
3478 4280
3478 4434
3479 3598
3479 4163
3479 4762
3479 4936
3480 3568
3480 3744
3481 3670
3481 3973
3481 4379
3481 4632
3481 4639
3481 4866
3481 4917
3482 3496
3482 3539
3482 3670
3482 3681
3482 3861
3482 3912
3482 3970
3482 4007
3482 4053
3482 4107
3482 4114
3482 4388
3482 4421
3482 4434
3482 4593
3482 4658
3482 4711
3482 4746
3482 4790
3482 4804
3482 4829
3482 4905
3483 4404
3483 4429
3483 4493
3483 4768
3484 3505
3484 3689
3484 4216
3484 4407
3484 4548
3484 4644
3484 4782
3484 4896
3485 3708
3485 4143
3485 4198
3485 4342
3486 3758
3486 3799
3486 3824
3486 3854
3486 3887
3486 3940
3486 3945
3486 4050
3486 4720
3487 3728
3487 3858
3487 3980
3487 4429
3487 4659
3487 4740
3488 4144
3488 4331
3488 4344
3488 4506
3488 4518
3488 4863
3488 4971
3489 3632
3489 4154
3489 4172
3489 4723
3489 4767
3489 4780
3490 3542
3490 3593
3490 3604
3490 3639
3490 3793
3490 3923
3490 4421
3490 4781
3491 3672
3491 3708
3491 3858
3491 4194
3491 4417
3491 4690
3492 3975
3492 4237
3492 4528
3492 4557
3492 4758
3492 4831
3492 4911
3492 4991
3493 3559
3493 4035
3493 4068
3493 4133
3493 4264
3493 4387
3493 4515
3493 4731
3494 3586
3494 3914
3494 4178
3494 4242
3494 4267
3495 4178
3495 4230
3495 4408
3495 4888
3495 4896
3495 4915
3496 3732
3496 3799
3496 4456
3496 4510
3496 4547
3496 4588
3496 4705
3496 4740
3497 3548
3497 3567
3497 3748
3497 3984
3497 4254
3497 4337
3497 4723
3497 4745
3497 4812
3497 4863
3497 4905
3498 3700
3498 3771
3498 3802
3498 4368
3498 4404
3498 4997
3499 3537
3499 4183
3499 4399
3499 4616
3499 4750
3499 4787
3499 4972
3500 3768
3500 4058
3500 4127
3500 4719
3500 4883
3501 3816
3501 3964
3501 4243
3501 4335
3502 3522
3502 3569
3502 3684
3502 3924
3502 4072
3502 4127
3502 4550
3502 4615
3502 4737
3503 3746
3503 4055
3503 4148
3503 4306
3503 4477
3503 4638
3503 4988
3504 3703
3504 4370
3504 4409
3504 4456
3504 4680
3504 4918
3505 3798
3505 3928
3505 4030
3505 4571
3505 4896
3506 3634
3506 3811
3506 4040
3506 4459
3506 4498
3507 3733
3507 4153
3507 4172
3507 4575
3507 4696
3508 3533
3508 3734
3508 4109
3508 4264
3508 4526
3508 4787
3508 4808
3509 3836
3509 3852
3509 4263
3509 4400
3509 4456
3509 4537
3509 4835
3510 4000
3510 4047
3510 4065
3510 4322
3511 3610
3511 3984
3511 4084
3511 4213
3511 4347
3511 4493
3511 4672
3511 4800
3511 4834
3511 4870
3511 4926
3511 4953
3512 3545
3512 3680
3512 3723
3512 4243
3512 4312
3512 4567
3512 4635
3512 4722
3512 4941
3513 3755
3513 3971
3513 4164
3513 4627
3514 3721
3514 4255
3514 4456
3514 4653
3514 4954
3514 4978
3515 3550
3515 4256
3515 4358
3515 4604
3516 3607
3516 3622
3516 3880
3516 3954
3516 4680
3516 4720
3516 4896
3517 3567
3517 3738
3517 3825
3517 3884
3517 3932
3517 3999
3517 4004
3517 4049
3517 4489
3517 4512
3517 4547
3517 4661
3517 4760
3517 4873
3517 4957
3518 4152
3518 4515
3518 4719
3518 4849
3518 4980
3519 3530
3519 3589
3519 3712
3519 3744
3519 4040
3519 4351
3519 4537
3519 4711
3519 4984
3520 3981
3520 4616
3520 4632
3520 4765
3521 3994
3521 4032
3522 3608
3522 3874
3522 3928
3522 4005
3522 4213
3522 4659
3522 4753
3523 3549
3523 3694
3523 4162
3523 4442
3523 4574
3524 3749
3524 3943
3524 4416
3524 4784
3524 4863
3525 3560
3525 3569
3525 3790
3525 3946
3525 4106
3525 4255
3525 4432
3525 4717
3525 4746
3526 4509
3526 4639
3526 4731
3526 4745
3526 4954
3527 3751
3527 3789
3527 3805
3527 3843
3527 4071
3527 4085
3527 4701
3527 4894
3528 3572
3528 3597
3528 3682
3528 4351
3528 4537
3528 4681
3528 4810
3528 4868
3529 3569
3529 3949
3529 3973
3529 4114
3529 4532
3529 4709
3529 4772
3529 4901
3529 4974
3530 3931
3530 3978
3530 4512
3531 3789
3531 4171
3531 4389
3531 4578
3531 4926
3531 4998
3532 3665
3532 3982
3532 4047
3532 4280
3532 4539
3532 4632
3533 3550
3533 3599
3533 3616
3533 3666
3533 3718
3533 3873
3533 3967
3533 4001
3533 4085
3533 4163
3533 4181
3533 4259
3533 4308
3533 4410
3533 4435
3533 4667
3533 4680
3533 4785
3533 4911
3533 4937
3533 4946
3534 3548
3534 3702
3534 3846
3534 4147
3534 4340
3534 4826
3534 4880
3535 3713
3535 3736
3535 3770
3535 3875
3535 3925
3535 3946
3535 4020
3535 4056
3535 4142
3535 4166
3535 4204
3535 4328
3535 4416
3535 4497
3535 4605
3535 4734
3535 4777
3535 4780
3535 4871
3535 4872
3535 4896
3536 3611
3536 3617
3536 3679
3536 3878
3536 3891
3536 4133
3536 4155
3536 4183
3536 4456
3536 4561
3536 4789
3536 4809
3536 4824
3537 3553
3537 3660
3537 3868
3537 3986
3537 3998
3537 4060
3538 3705
3538 4007
3538 4665
3538 4732
3539 3597
3539 3861
3540 3644
3540 3736
3540 3994
3540 4072
3540 4841
3541 3788
3541 3975
3541 4044
3541 4187
3541 4313
3541 4502
3541 4591
3541 4729
3541 4975
3542 3738
3542 4154
3542 4188
3542 4261
3543 3576
3543 3891
3543 4139
3543 4179
3543 4660
3544 3924
3544 3979
3544 4028
3544 4110
3544 4320
3544 4321
3544 4532
3544 4870
3545 3712
3545 3796
3545 3909
3545 3941
3545 4013
3545 4316
3545 4505
3545 4811
3545 4876
3546 3626
3546 3943
3546 4599
3546 4995
3547 3766
3547 4073
3547 4416
3547 4618
3548 3744
3548 3880
3548 3887
3548 3946
3548 4121
3548 4672
3548 4677
3548 4729
3548 4811
3548 4894
3549 3868
3549 3973
3549 4213
3549 4481
3549 4493
3549 4544
3549 4785
3549 4821
3549 4833
3549 4984
3550 3765
3550 3781
3550 3807
3550 3872
3550 4410
3550 4793
3550 4852
3550 4889
3551 3645
3551 3927
3551 4115
3551 4306
3551 4313
3551 4489
3551 4735
3551 4988
3552 3710
3552 3731
3552 3902
3552 3970
3552 4219
3552 4551
3552 4846
3552 4898
3553 3931
3553 4301
3553 4579
3553 4661
3553 4762
3553 4906
3554 3624
3554 3939
3554 4344
3554 4462
3554 4479
3554 4863
3554 4972
3555 3651
3555 3769
3555 3956
3556 3657
3556 3703
3556 3907
3556 4072
3556 4152
3556 4480
3556 4489
3556 4567
3556 4604
3556 4616
3556 4716
3557 3593
3557 3637
3557 3661
3557 3904
3557 4229
3557 4447
3557 4701
3557 4718
3557 4729
3557 4732
3557 4747
3558 3579
3558 3826
3558 3835
3558 3856
3558 3864
3558 3886
3558 4055
3558 4152
3558 4632
3559 3974
3559 4089
3559 4358
3559 4512
3559 4564
3559 4609
3559 4610
3559 4863
3560 3605
3560 3886
3560 4072
3560 4897
3560 4978
3561 3744
3561 3780
3561 4043
3561 4742
3561 4776
3562 3686
3562 3761
3562 3800
3562 3919
3562 3942
3562 3986
3562 3994
3562 4020
3562 4042
3562 4143
3562 4163
3562 4227
3562 4243
3562 4540
3562 4600
3562 4749
3562 4928
3562 4960
3563 3663
3563 3880
3563 3886
3563 3909
3563 4050
3563 4138
3563 4180
3563 4729
3564 4095
3564 4420
3564 4804
3565 3880
3565 3924
3565 4397
3565 4853
3565 4929
3565 4987
3566 3647
3566 3836
3566 3881
3566 4408
3566 4511
3566 4536
3566 4782
3566 4868
3567 3697
3567 3922
3567 3993
3567 4018
3567 4299
3567 4903
3568 3585
3568 3932
3568 3943
3568 3948
3568 4056
3568 4109
3568 4311
3568 4348
3568 4505
3568 4532
3568 4640
3568 4784
3568 4830
3569 3629
3569 3840
3569 3984
3569 3995
3569 4154
3569 4258
3569 4456
3569 4611
3570 3644
3570 4193
3571 3782
3571 3844
3571 3852
3571 3917
3571 4338
3571 4389
3571 4419
3571 4537
3571 4606
3571 4711
3571 4760
3571 4765
3572 3599
3572 3807
3572 4087
3572 4209
3572 4503
3572 4514
3572 4535
3572 4999
3573 4050
3573 4257
3573 4739
3574 3833
3574 3905
3574 4177
3574 4467
3574 4478
3574 4537
3574 4833
3574 4870
3574 4941
3575 4785
3576 3942
3576 4128
3576 4378
3576 4831
3577 4252
3577 4409
3577 4506
3577 4656
3577 4662
3577 4730
3578 3582
3578 4003
3578 4470
3578 4688
3578 4815
3578 4864
3579 3782
3579 3890
3579 3968
3579 3995
3579 4156
3579 4232
3579 4264
3579 4283
3579 4605
3579 4662
3579 4999
3580 3863
3580 4225
3580 4469
3580 4516
3580 4612
3581 3584
3581 4397
3581 4420
3582 3692
3582 3903
3582 3911
3582 3946
3582 3955
3582 4170
3582 4229
3582 4307
3582 4416
3582 4442
3582 4705
3582 4738
3582 4870
3582 4930
3582 4943
3582 4975
3582 4996
3583 3745
3583 4127
3583 4266
3583 4782
3584 4023
3584 4187
3584 4196
3584 4365
3584 4373
3584 4482
3584 4507
3584 4595
3584 4961
3585 3846
3585 3915
3585 4375
3586 3805
3586 4150
3586 4330
3586 4418
3586 4917
3587 3929
3587 3973
3587 4033
3587 4446
3587 4609
3587 4646
3587 4703
3587 4873
3588 3899
3588 3946
3588 4176
3588 4771
3589 4088
3589 4131
3589 4280
3589 4645
3589 4653
3589 4679
3590 3597
3590 4141
3590 4235
3590 4237
3590 4262
3590 4314
3590 4392
3590 4713
3590 4747
3590 4831
3591 3794
3591 4723
3591 4869
3591 4927
3592 4244
3592 4612
3592 4998
3593 3615
3593 3861
3593 3877
3593 3990
3593 4026
3593 4029
3593 4141
3593 4234
3593 4256
3593 4332
3593 4632
3593 4848
3593 4905
3593 4936
3593 4991
3594 4126
3594 4147
3594 4154
3594 4578
3594 4636
3595 3670
3595 3673
3595 3678
3595 3704
3595 3719
3595 3731
3595 3875
3595 3994
3595 4080
3595 4127
3595 4169
3595 4177
3595 4426
3595 4481
3595 4524
3595 4534
3595 4764
3595 4906
3595 4945
3596 3647
3596 3931
3596 3994
3596 4147
3596 4414
3596 4536
3596 4573
3596 4759
3596 4876
3597 3714
3597 3790
3597 3905
3597 3966
3597 3985
3597 4153
3597 4183
3597 4194
3597 4276
3597 4375
3597 4499
3597 4583
3597 4621
3597 4911
3598 3601
3598 3622
3598 3887
3598 3963
3598 4183
3598 4231
3598 4239
3598 4270
3598 4331
3598 4411
3598 4843
3598 4891
3598 4969
3598 4990
3599 3721
3599 3725
3599 3758
3599 4424
3599 4565
3599 4740
3599 4813
3599 4850
3600 3844
3600 4565
3600 4673
3601 3657
3601 3703
3601 3893
3601 4379
3601 4404
3602 3619
3602 3663
3602 3944
3602 4290
3602 4318
3602 4323
3602 4411
3602 4852
3602 4967
3602 4992
3603 3766
3603 4147
3603 4318
3603 4503
3603 4566
3603 4688
3603 4805
3604 3638
3604 3669
3604 3787
3604 4089
3604 4104
3604 4375
3605 3878
3605 3991
3605 4337
3605 4376
3605 4421
3605 4912
3606 3658
3606 4077
3606 4082
3606 4215
3606 4349
3606 4580
3606 4803
3606 4951
3607 3655
3607 3793
3607 3894
3607 4120
3607 4496
3607 4529
3607 4660
3607 4711
3607 4882
3607 4901
3607 4973
3608 4392
3608 4763
3608 4809
3608 4909
3609 3658
3609 3918
3609 4157
3610 3692
3610 3745
3610 4327
3610 4716
3610 4804
3610 4901
3611 3632
3611 3697
3611 3854
3611 3944
3611 4046
3611 4289
3611 4445
3611 4496
3611 4712
3611 4741
3611 4760
3611 4911
3612 3698
3612 3759
3612 3853
3612 4182
3612 4462
3612 4698
3612 4728
3612 4854
3612 4872
3613 4416
3613 4479
3613 4742
3613 4916
3613 4936
3613 4937
3613 4979
3614 3793
3614 4002
3614 4401
3614 4532
3614 4567
3614 4703
3614 4930
3615 3934
3615 4039
3615 4055
3615 4068
3615 4211
3615 4216
3615 4428
3616 3669
3616 3726
3616 3871
3616 3875
3616 3900
3616 4007
3616 4028
3616 4077
3616 4085
3616 4197
3616 4576
3616 4692
3616 4731
3616 4758
3616 4759
3616 4862
3616 4989
3617 3670
3617 3726
3617 3753
3617 3804
3617 3825
3617 3999
3618 3816
3618 4110
3618 4144
3618 4148
3618 4224
3618 4379
3618 4414
3618 4592
3618 4612
3619 3624
3619 3677
3619 3708
3619 3912
3619 4044
3619 4240
3619 4340
3619 4713
3619 4895
3619 4934
3620 3953
3620 4275
3620 4806
3621 3671
3621 4260
3621 4361
3621 4418
3621 4456
3621 4660
3621 4678
3621 4722
3621 4824
3622 4342
3622 4566
3622 4578
3622 4788
3622 4872
3622 4938
3623 3774
3623 3871
3623 4135
3623 4224
3623 4335
3623 4350
3623 4461
3623 4532
3623 4700
3623 4760
3624 4044
3624 4502
3624 4523
3624 4724
3624 4816
3624 4849
3625 3707
3625 3849
3625 4256
3625 4281
3626 3814
3626 4027
3626 4071
3626 4230
3626 4440
3626 4618
3626 4774
3626 4887
3626 4938
3627 4206
3627 4287
3627 4399
3627 4444
3627 4755
3628 3648
3628 4225
3628 4573
3628 4670
3629 3861
3629 3917
3629 4078
3629 4086
3629 4129
3629 4335
3629 4461
3629 4507
3629 4638
3629 4693
3629 4754
3630 3769
3630 3910
3630 3985
3630 4527
3630 4872
3631 3655
3631 3664
3631 3699
3631 3820
3631 3963
3631 4653
3632 3729
3632 4060
3632 4119
3632 4327
3633 3887
3633 4162
3633 4212
3633 4265
3633 4337
3633 4374
3633 4388
3633 4489
3633 4623
3633 4765
3633 4806
3633 4908
3634 3766
3634 3932
3634 4026
3634 4103
3634 4127
3634 4455
3635 3682
3635 3792
3635 4144
3635 4240
3635 4632
3635 4864
3636 3889
3636 4050
3636 4124
3636 4227
3636 4400
3636 4526
3636 4758
3637 3751
3637 3970
3637 4370
3637 4456
3637 4523
3637 4587
3637 4599
3637 4688
3637 4875
3637 4882
3637 4945
3638 4752
3638 4951
3639 4071
3639 4103
3639 4150
3639 4365
3639 4842
3639 4862
3640 3681
3640 3835
3640 3892
3640 3920
3640 4140
3640 4176
3640 4237
3640 4337
3640 4611
3640 4632
3640 4665
3641 4852
3642 4080
3642 4449
3642 4512
3643 3720
3643 3764
3643 3771
3643 3853
3643 4039
3643 4335
3643 4465
3643 4526
3643 4735
3644 3911
3644 4010
3644 4462
3644 4938
3644 4981
3645 4163
3645 4275
3645 4354
3645 4414
3645 4498
3645 4594
3646 3749
3646 3835
3646 4008
3646 4239
3646 4338
3646 4455
3647 3666
3647 3749
3647 3853
3647 3909
3647 3959
3647 4000
3647 4616
3647 4822
3648 3706
3648 3729
3648 3782
3648 4038
3648 4621
3648 4720
3648 4723
3648 4835
3649 3849
3649 4365
3649 4569
3649 4637
3649 4655
3649 4924
3650 3986
3650 4150
3650 4187
3650 4446
3651 3993
3651 3999
3651 4028
3651 4086
3651 4262
3651 4349
3651 4578
3651 4661
3651 4809
3651 4849
3651 4856
3652 4124
3652 4602
3652 4772
3652 4868
3652 4950
3653 3754
3653 3802
3653 3980
3653 3997
3653 4131
3653 4691
3653 4734
3654 3805
3654 3820
3654 4095
3654 4567
3654 4834
3654 4839
3654 4845
3655 3806
3655 3817
3655 3843
3655 4228
3655 4356
3655 4486
3655 4601
3655 4637
3655 4710
3656 3764
3656 3948
3656 4090
3656 4420
3656 4602
3656 4958
3657 3677
3657 3681
3657 3733
3657 3765
3657 4951
3658 3707
3658 3822
3658 4140
3658 4266
3658 4755
3658 4877
3658 4895
3658 4972
3659 3773
3659 4111
3659 4318
3659 4797
3660 3840
3660 4108
3660 4129
3660 4523
3660 4553
3660 4748
3661 3703
3661 3717
3661 3778
3661 3950
3661 3995
3661 4036
3661 4119
3661 4191
3661 4215
3661 4220
3661 4279
3661 4284
3661 4288
3661 4383
3661 4386
3661 4501
3661 4583
3661 4586
3661 4619
3661 4635
3661 4643
3661 4659
3661 4684
3661 4757
3661 4889
3662 3793
3662 4465
3662 4530
3662 4709
3663 3700
3663 3702
3663 3747
3663 3994
3663 4009
3663 4095
3663 4151
3663 4504
3663 4580
3663 4785
3663 4943
3664 3884
3664 3973
3664 4382
3664 4570
3664 4697
3664 4952
3665 3798
3665 3873
3665 4618
3665 4833
3666 3711
3666 3831
3666 4027
3666 4107
3666 4146
3666 4275
3666 4357
3666 4705
3666 4854
3667 3798
3667 4127
3667 4150
3667 4151
3667 4374
3667 4595
3667 4732
3667 4845
3667 4957
3668 3915
3668 3973
3668 3982
3668 4186
3668 4493
3668 4832
3668 4993
3669 3983
3669 4017
3669 4039
3669 4060
3669 4331
3669 4388
3669 4399
3669 4459
3669 4837
3669 4877
3670 3675
3670 3763
3670 3819
3670 3992
3670 4139
3670 4149
3670 4251
3670 4322
3670 4538
3670 4668
3671 3700
3671 3862
3671 3941
3671 3994
3671 4473
3671 4716
3672 4088
3672 4272
3672 4729
3673 4622
3674 3825
3674 4071
3674 4520
3675 3912
3675 4070
3675 4523
3676 3807
3676 4632
3676 4947
3677 3697
3677 3853
3677 3955
3677 4097
3677 4268
3677 4285
3677 4435
3677 4490
3677 4498
3677 4558
3677 4621
3677 4793
3677 4908
3678 3798
3678 4077
3678 4189
3678 4213
3678 4446
3678 4746
3678 4888
3679 4070
3679 4387
3680 3775
3680 4259
3680 4434
3680 4453
3680 4494
3680 4543
3680 4626
3680 4729
3681 3973
3681 3993
3681 3999
3681 4013
3681 4190
3681 4508
3681 4535
3681 4730
3681 4865
3682 3775
3682 4028
3682 4461
3682 4527
3682 4634
3682 4695
3682 4835
3682 4916
3683 3774
3683 3939
3683 4339
3683 4413
3683 4452
3683 4844
3684 3702
3684 4324
3685 4060
3685 4145
3685 4189
3685 4342
3685 4486
3685 4656
3686 4386
3686 4698
3686 4844
3686 4847
3686 4951
3686 4979
3687 3730
3687 3961
3687 4067
3687 4127
3687 4339
3687 4740
3687 4849
3688 3779
3688 3900
3688 3968
3688 4206
3688 4665
3688 4775
3688 4804
3689 4067
3689 4189
3689 4412
3689 4590
3689 4684
3689 4780
3689 4804
3690 3729
3690 3843
3690 4725
3690 4880
3691 3802
3691 3817
3691 3973
3691 4247
3691 4936
3692 3698
3692 3738
3692 3805
3692 3854
3692 3935
3692 4075
3692 4091
3692 4093
3692 4241
3692 4381
3692 4433
3692 4547
3692 4562
3692 4793
3692 4810
3692 4838
3693 3893
3693 4337
3693 4661
3693 4780
3693 4850
3694 4571
3694 4846
3694 4849
3695 3899
3695 3991
3695 4635
3695 4896
3696 4164
3696 4728
3696 4767
3697 3717
3697 3746
3697 3758
3697 3760
3697 3829
3697 3867
3697 3973
3697 4006
3697 4090
3697 4094
3697 4185
3697 4215
3697 4218
3697 4321
3697 4351
3697 4435
3697 4510
3697 4546
3697 4600
3697 4615
3697 4725
3697 4762
3697 4964
3697 4973
3698 3714
3698 3899
3698 4399
3698 4523
3698 4726
3698 4844
3698 4856
3699 3764
3699 3883
3699 3894
3699 4265
3699 4462
3699 4505
3699 4586
3699 4757
3699 4784
3699 4789
3699 4836
3699 4916
3700 3715
3700 3739
3700 3800
3700 3860
3700 3868
3700 4000
3700 4038
3700 4069
3700 4172
3700 4424
3700 4534
3700 4583
3700 4722
3700 4792
3700 4801
3700 4831
3700 4874
3700 4932
3700 4974
3701 4176
3701 4528
3701 4537
3701 4590
3701 4746
3702 4122
3702 4303
3702 4439
3702 4887
3702 4898
3703 3758
3703 3848
3703 3897
3703 4049
3703 4065
3703 4206
3703 4250
3703 4619
3703 4668
3704 3942
3704 4363
3704 4733
3704 4835
3705 3926
3705 4357
3705 4726
3705 4774
3706 4024
3706 4825
3706 4971
3707 4279
3707 4455
3707 4725
3707 4977
3708 3736
3708 3816
3708 3899
3708 4192
3708 4241
3708 4391
3708 4558
3708 4751
3708 4940
3708 4997
3709 3731
3709 3805
3709 3809
3709 3988
3709 4359
3709 4388
3709 4863
3709 4936
3710 3962
3710 4075
3710 4523
3710 4611
3710 4896
3711 3878
3711 3975
3711 4128
3711 4318
3711 4668
3712 3736
3712 3839
3712 4129
3712 4508
3712 4714
3712 4885
3713 3792
3713 3805
3713 3938
3713 4210
3713 4293
3713 4330
3713 4488
3713 4577
3713 4626
3713 4888
3714 3853
3714 4183
3714 4744
3714 4760
3714 4925
3715 3831
3715 4703
3715 4718
3716 3723
3716 3858
3716 3918
3716 3920
3716 3971
3716 3992
3716 4172
3716 4262
3716 4490
3716 4508
3716 4603
3716 4695
3716 4874
3717 4029
3717 4140
3717 4323
3717 4464
3717 4853
3718 3765
3718 3915
3718 4145
3718 4163
3718 4256
3718 4354
3718 4600
3718 4704
3718 4762
3719 3731
3719 3782
3719 4393
3719 4611
3720 3765
3720 4141
3720 4290
3720 4316
3720 4422
3720 4749
3720 4921
3720 4988
3721 4078
3722 3790
3722 3833
3722 4529
3722 4691
3722 4805
3722 4842
3722 4872
3722 4883
3723 3934
3723 3961
3723 4424
3723 4510
3723 4686
3723 4699
3723 4702
3724 3879
3724 4250
3724 4540
3724 4941
3725 3749
3725 3943
3725 4067
3725 4195
3725 4245
3725 4647
3725 4743
3726 3770
3726 3891
3726 4122
3726 4329
3726 4896
3727 3737
3727 3920
3727 4114
3727 4135
3727 4168
3727 4650
3727 4949
3728 3766
3728 4446
3728 4450
3728 4507
3728 4642
3728 4730
3728 4982
3729 3998
3729 4141
3729 4154
3729 4253
3729 4334
3729 4587
3729 4601
3729 4788
3729 4838
3729 4842
3730 3856
3730 3959
3730 3999
3730 4303
3730 4431
3731 4162
3731 4321
3731 4333
3731 4770
3732 3886
3732 4226
3732 4232
3732 4662
3732 4722
3732 4923
3733 4150
3733 4167
3733 4176
3733 4194
3733 4230
3733 4302
3733 4597
3733 4667
3734 4411
3734 4466
3734 4489
3734 4660
3734 4730
3735 3736
3735 3748
3735 4159
3735 4177
3735 4272
3735 4377
3736 3756
3736 3850
3736 3933
3736 4005
3736 4006
3736 4056
3736 4128
3736 4231
3736 4371
3736 4527
3736 4587
3736 4735
3736 4748
3736 4774
3736 4787
3737 3757
3737 3908
3737 4108
3737 4541
3737 4682
3737 4952
3738 3754
3738 4017
3738 4343
3738 4376
3738 4476
3739 3851
3739 4019
3739 4145
3739 4176
3739 4257
3739 4342
3740 4288
3740 4456
3740 4742
3740 4976
3741 3769
3741 4317
3741 4338
3741 4737
3741 4747
3741 4761
3741 4815
3741 4924
3742 3829
3742 3942
3742 4245
3742 4256
3742 4346
3742 4501
3742 4517
3742 4525
3742 4616
3742 4940
3743 4417
3743 4496
3743 4643
3743 4932
3744 3761
3744 3838
3744 3856
3744 3873
3744 4000
3744 4004
3744 4008
3744 4040
3744 4065
3744 4072
3744 4102
3744 4227
3744 4266
3744 4306
3744 4323
3744 4327
3744 4330
3744 4367
3744 4373
3744 4440
3744 4469
3744 4558
3744 4581
3744 4652
3744 4702
3744 4738
3744 4816
3744 4874
3744 4896
3744 4927
3744 4974
3745 3828
3745 3884
3745 4466
3745 4599
3746 3848
3746 3850
3747 4049
3747 4121
3747 4258
3747 4388
3747 4394
3747 4594
3748 3820
3748 3838
3748 4070
3748 4298
3748 4469
3748 4694
3748 4723
3749 3871
3749 4053
3749 4079
3749 4397
3749 4494
3749 4538
3749 4593
3749 4705
3749 4854
3749 4888
3749 4965
3750 3769
3750 3858
3750 3986
3750 4342
3750 4473
3750 4506
3750 4639
3751 3832
3751 3909
3751 4182
3751 4245
3751 4254
3751 4273
3751 4489
3751 4540
3751 4629
3752 3781
3752 3796
3752 3968
3752 4039
3752 4705
3753 4038
3753 4186
3753 4452
3753 4804
3754 3805
3754 4420
3754 4652
3754 4785
3755 3953
3755 4046
3755 4234
3755 4332
3755 4410
3755 4905
3755 4938
3756 4004
3756 4127
3756 4179
3756 4344
3757 4141
3757 4181
3757 4645
3758 4038
3758 4415
3758 4992
3759 4274
3759 4351
3759 4553
3759 4740
3760 4383
3760 4804
3761 3834
3761 3851
3761 4208
3761 4377
3761 4444
3761 4489
3761 4530
3761 4682
3761 4687
3761 4695
3761 4738
3761 4753
3761 4770
3761 4883
3762 4532
3762 4571
3762 4583
3762 4755
3762 4911
3762 4957
3763 3782
3763 4176
3763 4778
3764 3920
3764 4238
3764 4632
3764 4852
3765 3794
3765 4583
3765 4832
3765 4907
3766 3853
3766 3915
3766 4004
3766 4014
3766 4053
3766 4145
3766 4199
3766 4206
3766 4207
3766 4246
3766 4255
3766 4594
3766 4625
3766 4705
3766 4814
3766 4822
3766 4841
3767 3821
3767 4049
3767 4342
3767 4785
3767 4797
3767 4881
3768 4225
3768 4228
3768 4274
3768 4353
3768 4493
3768 4670
3769 3829
3769 3900
3769 4016
3769 4372
3769 4391
3769 4626
3769 4649
3769 4657
3769 4746
3769 4889
3769 4964
3769 4975
3770 3946
3770 3976
3770 4145
3770 4374
3770 4674
3770 4742
3770 4819
3770 4948
3770 4960
3771 4078
3771 4164
3771 4826
3771 4907
3772 3892
3772 4008
3772 4020
3772 4121
3773 3789
3773 4057
3773 4178
3773 4290
3773 4336
3773 4941
3774 4076
3774 4643
3775 4209
3775 4427
3775 4527
3775 4903
3776 4076
3776 4439
3776 4612
3776 4854
3776 4875
3777 4038
3777 4749
3778 4077
3778 4176
3778 4303
3778 4355
3778 4543
3778 4742
3778 4889
3779 4008
3779 4190
3779 4425
3779 4506
3779 4658
3780 3839
3780 4165
3780 4200
3780 4630
3781 4113
3781 4921
3781 4941
3782 3990
3782 4033
3782 4591
3782 4605
3783 4375
3783 4618
3783 4622
3784 3997
3784 4193
3784 4279
3784 4738
3785 4220
3785 4456
3785 4560
3785 4618
3785 4636
3785 4906
3786 3878
3786 3916
3786 4034
3786 4512
3786 4547
3786 4594
3786 4636
3786 4693
3786 4734
3786 4743
3787 3825
3787 4494
3788 3847
3788 3897
3788 4347
3788 4604
3789 3854
3789 4008
3789 4393
3789 4521
3789 4576
3789 4645
3789 4653
3789 4718
3789 4737
3789 4748
3789 4837
3790 4375
3790 4445
3790 4959
3791 3830
3791 4076
3791 4137
3791 4157
3791 4388
3791 4833
3791 4880
3792 3849
3792 4125
3792 4357
3792 4457
3792 4801
3793 3797
3793 3816
3793 3840
3793 3853
3793 3875
3793 3999
3793 4008
3793 4071
3793 4141
3793 4196
3793 4266
3793 4290
3793 4506
3793 4600
3793 4623
3793 4679
3793 4701
3793 4763
3793 4830
3794 3801
3794 3813
3794 4358
3794 4408
3794 4631
3794 4692
3794 4760
3795 4289
3795 4332
3795 4424
3795 4606
3795 4699
3795 4892
3796 3930
3796 3985
3796 4017
3796 4332
3796 4415
3796 4487
3796 4658
3796 4664
3796 4823
3796 4901
3797 3943
3797 4691
3797 4723
3797 4888
3797 4919
3798 3813
3798 3872
3798 4004
3798 4034
3798 4179
3798 4230
3798 4266
3798 4282
3798 4394
3798 4732
3798 4995
3799 4108
3799 4142
3800 3802
3800 3934
3800 4042
3800 4497
3800 4730
3800 4862
3801 3829
3801 3887
3801 4630
3801 4632
3801 4766
3802 4578
3802 4629
3802 4755
3803 3944
3803 3955
3803 3994
3803 4059
3803 4245
3803 4430
3803 4524
3803 4537
3803 4918
3803 4969
3804 3917
3804 4036
3804 4588
3804 4643
3805 3878
3805 3918
3805 3921
3805 3932
3805 3981
3805 4052
3805 4108
3805 4271
3805 4295
3805 4435
3805 4460
3805 4547
3805 4617
3805 4828
3805 4856
3805 4908
3806 4873
3806 4927
3807 4237
3807 4286
3807 4440
3807 4442
3807 4541
3807 4576
3807 4870
3807 4930
3808 4395
3808 4429
3808 4452
3808 4605
3809 3911
3809 3962
3809 3993
3809 4277
3809 4306
3809 4762
3809 4869
3810 3909
3810 4203
3810 4323
3810 4461
3810 4531
3810 4742
3810 4745
3811 4395
3812 4174
3812 4198
3812 4621
3812 4710
3813 3915
3813 3970
3813 4034
3813 4530
3813 4760
3813 4915
3814 4681
3815 3976
3815 4204
3815 4890
3816 3962
3816 4077
3816 4355
3816 4550
3816 4575
3816 4737
3816 4787
3816 4908
3817 3854
3817 3858
3817 3954
3817 4078
3817 4212
3817 4214
3817 4365
3817 4460
3817 4461
3817 4535
3817 4588
3817 4618
3817 4767
3817 4899
3817 4926
3818 3830
3818 4038
3818 4146
3818 4292
3818 4491
3818 4907
3819 4326
3819 4606
3819 4628
3819 4971
3820 3839
3820 3871
3820 4010
3820 4702
3820 4856
3820 4930
3821 4007
3821 4140
3821 4966
3822 3880
3822 3885
3822 4411
3822 4423
3823 3884
3823 4170
3823 4716
3824 3881
3824 3937
3824 4079
3824 4093
3824 4154
3824 4287
3824 4307
3824 4334
3824 4417
3824 4557
3824 4617
3824 4736
3824 4746
3824 4888
3825 4127
3825 4863
3825 4932
3826 3996
3826 4317
3827 3829
3827 4213
3827 4236
3827 4290
3827 4316
3827 4362
3827 4507
3827 4691
3827 4756
3828 3848
3828 3929
3828 4094
3828 4158
3828 4198
3828 4246
3828 4348
3828 4509
3828 4512
3828 4754
3829 4841
3830 3884
3830 4152
3830 4162
3830 4466
3830 4624
3831 3874
3831 3970
3831 3971
3831 4298
3831 4312
3831 4912
3832 4215
3832 4612
3832 4997
3833 3917
3833 3925
3833 4253
3833 4674
3833 4749
3833 4770
3834 4009
3834 4118
3834 4323
3834 4342
3834 4496
3834 4547
3834 4558
3835 4173
3835 4327
3835 4659
3836 4237
3837 4264
3837 4366
3837 4392
3837 4753
3838 4397
3838 4549
3838 4583
3838 4612
3838 4662
3839 3894
3839 3994
3839 4049
3839 4060
3839 4133
3839 4225
3839 4332
3839 4343
3839 4598
3840 4754
3840 4841
3841 4176
3841 4292
3841 4400
3841 4634
3842 3970
3842 4206
3842 4289
3842 4547
3843 4078
3843 4386
3843 4577
3843 4719
3843 4806
3844 3963
3844 4230
3844 4237
3844 4368
3844 4416
3844 4728
3844 4732
3844 4747
3844 4827
3845 4219
3845 4258
3845 4501
3845 4521
3845 4756
3846 4319
3846 4517
3846 4534
3846 4612
3847 3889
3847 3910
3847 4113
3847 4169
3847 4782
3848 3908
3848 4846
3849 3850
3849 3858
3849 4085
3849 4318
3849 4417
3849 4453
3849 4455
3849 4595
3849 4615
3849 4695
3849 4901
3850 3878
3850 4067
3850 4222
3850 4229
3850 4250
3850 4323
3850 4351
3850 4416
3850 4417
3850 4670
3851 3884
3851 3927
3851 3957
3851 3979
3851 3984
3851 3999
3851 4055
3851 4117
3851 4143
3851 4237
3851 4267
3851 4302
3851 4388
3851 4498
3851 4572
3851 4592
3851 4694
3851 4857
3851 4962
3851 4999
3852 4227
3852 4270
3852 4678
3852 4754
3852 4981
3853 4035
3853 4071
3853 4568
3853 4612
3853 4704
3853 4750
3853 4905
3854 4068
3854 4183
3854 4258
3854 4275
3854 4303
3854 4402
3854 4734
3854 4831
3854 4845
3854 4864
3854 4926
3854 4987
3855 4059
3855 4119
3855 4483
3856 3886
3856 3949
3856 4244
3856 4372
3857 4240
3857 4440
3857 4459
3857 4665
3858 4071
3858 4394
3859 4464
3859 4565
3859 4716
3859 4722
3859 4730
3860 4887
3861 4560
3861 4815
3862 3944
3862 4201
3862 4307
3862 4446
3862 4488
3862 4583
3862 4747
3862 4844
3863 3970
3863 4348
3863 4474
3863 4869
3863 4992
3864 4035
3864 4252
3864 4672
3864 4854
3864 4872
3864 4984
3865 3897
3865 4242
3865 4280
3865 4456
3865 4621
3866 4071
3866 4088
3866 4163
3866 4225
3866 4261
3866 4392
3867 3884
3867 4183
3867 4322
3867 4330
3867 4337
3867 4371
3867 4553
3867 4916
3867 4942
3867 4947
3868 4492
3868 4713
3869 4243
3869 4291
3869 4408
3869 4974
3870 3872
3870 3924
3870 4493
3870 4520
3870 4647
3870 4980
3871 4051
3871 4356
3871 4881
3871 4909
3872 4035
3872 4318
3872 4347
3872 4496
3872 4759
3872 4782
3873 4037
3873 4527
3873 4711
3873 4821
3873 4899
3874 4041
3874 4131
3874 4234
3874 4525
3874 4612
3875 4325
3875 4334
3875 4651
3875 4762
3876 4178
3876 4191
3876 4272
3876 4505
3876 4693
3876 4710
3876 4802
3876 4844
3877 3948
3877 4122
3877 4230
3877 4529
3877 4609
3877 4769
3877 4815
3877 4874
3878 4053
3878 4143
3878 4214
3878 4288
3878 4595
3878 4889
3878 4898
3879 4533
3879 4582
3880 3936
3880 4155
3880 4296
3880 4409
3880 4421
3880 4500
3880 4657
3880 4708
3880 4730
3880 4810
3880 4888
3880 4963
3881 4064
3881 4189
3881 4196
3881 4280
3881 4571
3881 4573
3881 4941
3882 3933
3882 4235
3882 4722
3883 4446
3883 4489
3883 4766
3883 4841
3884 3921
3884 4252
3884 4288
3884 4318
3884 4535
3884 4804
3884 4908
3885 4020
3885 4131
3885 4584
3885 4885
3886 4298
3886 4493
3886 4502
3886 4507
3886 4512
3886 4680
3886 4749
3886 4860
3887 4108
3887 4150
3887 4223
3887 4365
3887 4442
3887 4445
3887 4590
3887 4689
3887 4740
3887 4842
3887 4853
3887 4966
3888 4006
3888 4307
3888 4372
3888 4919
3889 4317
3889 4524
3889 4686
3889 4748
3890 4532
3890 4560
3891 4077
3891 4128
3891 4327
3892 3984
3892 4101
3892 4183
3892 4308
3892 4578
3892 4685
3892 4754
3892 4756
3892 4911
3893 4713
3893 4978
3894 4317
3894 4350
3895 4806
3896 4534
3896 4749
3897 4007
3897 4161
3897 4236
3897 4321
3897 4541
3897 4612
3897 4621
3897 4757
3897 4803
3898 4180
3898 4644
3898 4785
3898 4875
3898 4919
3899 4808
3899 4866
3899 4869
3899 4870
3900 4270
3900 4448
3900 4786
3900 4996
3901 4243
3901 4361
3901 4740
3901 4930
3902 3940
3902 4168
3902 4361
3902 4713
3902 4721
3903 4758
3904 4535
3904 4800
3905 3938
3905 4091
3905 4387
3905 4766
3905 4818
3905 4888
3905 4899
3905 4949
3906 4615
3906 4878
3907 4451
3907 4482
3908 4066
3908 4262
3908 4508
3908 4740
3908 4956
3909 4047
3909 4192
3909 4470
3909 4622
3909 4678
3909 4715
3909 4947
3910 4606
3910 4928
3910 4966
3911 3947
3911 4171
3911 4350
3911 4351
3911 4522
3911 4742
3911 4873
3912 4122
3912 4510
3912 4557
3912 4633
3912 4777
3912 4800
3913 3929
3913 4040
3913 4150
3913 4254
3913 4405
3913 4561
3913 4570
3913 4610
3913 4639
3913 4653
3914 4102
3915 3986
3915 4010
3915 4030
3915 4079
3915 4105
3915 4145
3915 4190
3915 4230
3915 4236
3915 4266
3915 4325
3915 4343
3915 4420
3915 4466
3915 4506
3915 4548
3915 4619
3915 4761
3915 4816
3915 4936
3915 4953
3915 4973
3916 4548
3916 4567
3916 4598
3917 3950
3917 4569
3917 4594
3917 4595
3917 4823
3918 4406
3918 4547
3918 4672
3918 4733
3918 4869
3919 3947
3919 3953
3919 4401
3919 4619
3920 4004
3920 4136
3920 4231
3920 4469
3920 4641
3920 4777
3920 4854
3921 4579
3921 4605
3921 4695
3921 4930
3922 4140
3922 4257
3922 4272
3922 4632
3923 4736
3923 4827
3924 3936
3924 4157
3924 4212
3924 4436
3924 4503
3924 4577
3924 4759
3925 4123
3925 4670
3925 4890
3926 4137
3926 4637
3926 4977
3927 4004
3927 4014
3927 4070
3927 4137
3927 4742
3927 4898
3928 3959
3928 4258
3928 4418
3928 4493
3928 4573
3929 4184
3929 4230
3929 4296
3929 4694
3929 4928
3930 4178
3930 4747
3931 4172
3931 4826
3931 4911
3932 4096
3932 4097
3932 4255
3932 4355
3932 4393
3932 4550
3932 4632
3932 4666
3932 4746
3932 4748
3932 4770
3933 3964
3933 4251
3933 4292
3933 4568
3933 4670
3933 4691
3933 4800
3933 4896
3934 4594
3935 4122
3935 4291
3935 4401
3935 4872
3936 3942
3936 4231
3936 4250
3936 4754
3936 4758
3937 4194
3937 4312
3937 4697
3937 4777
3937 4914
3937 4915
3938 3944
3938 4021
3938 4275
3938 4346
3938 4987
3939 4119
3939 4186
3939 4431
3939 4440
3939 4599
3939 4700
3939 4807
3940 4388
3940 4737
3940 4740
3940 4881
3940 4901
3940 4942
3941 4076
3941 4429
3941 4669
3941 4690
3942 4318
3942 4462
3942 4695
3942 4704
3944 3984
3944 4009
3944 4269
3944 4278
3944 4387
3944 4454
3944 4562
3944 4628
3944 4691
3944 4732
3945 4228
3945 4237
3945 4315
3945 4952
3946 3970
3946 4130
3946 4158
3946 4936
3947 3951
3947 4277
3947 4373
3947 4397
3947 4443
3948 3967
3948 4199
3948 4462
3949 3984
3949 4070
3949 4178
3949 4289
3949 4831
3950 3970
3950 4262
3950 4467
3950 4863
3951 3965
3951 4013
3951 4095
3951 4422
3951 4451
3952 4322
3952 4489
3952 4524
3953 4168
3953 4185
3953 4243
3953 4748
3953 4888
3954 3955
3954 4228
3954 4310
3954 4462
3954 4600
3954 4625
3954 4747
3954 4792
3954 4894
3955 4412
3955 4494
3955 4612
3956 4021
3956 4039
3956 4071
3956 4351
3956 4913
3956 4966
3957 4127
3957 4514
3957 4550
3957 4557
3958 4036
3958 4162
3958 4204
3958 4233
3958 4323
3958 4439
3958 4477
3958 4537
3958 4780
3958 4855
3959 4615
3959 4723
3959 4763
3959 4889
3960 4186
3960 4261
3960 4330
3960 4559
3961 4237
3961 4489
3961 4521
3961 4659
3962 4164
3962 4213
3962 4800
3963 4004
3963 4253
3963 4332
3963 4478
3963 4644
3963 4724
3963 4785
3964 4187
3964 4291
3964 4312
3964 4726
3964 4754
3964 4857
3965 4027
3965 4213
3965 4330
3967 4185
3967 4203
3967 4228
3967 4275
3967 4301
3967 4666
3967 4987
3968 4071
3968 4222
3968 4364
3968 4553
3968 4659
3968 4881
3968 4954
3969 4482
3969 4618
3969 4830
3969 4889
3970 3977
3970 4208
3970 4364
3970 4389
3970 4654
3970 4760
3970 4880
3970 4915
3970 4932
3971 4375
3971 4707
3972 4004
3972 4438
3972 4645
3972 4865
3972 4975
3973 3991
3973 4011
3973 4028
3973 4035
3973 4262
3973 4493
3973 4751
3973 4850
3973 4950
3973 4984
3974 4136
3974 4524
3974 4767
3974 4821
3974 4936
3975 4266
3975 4271
3975 4369
3976 4062
3976 4076
3976 4098
3976 4110
3976 4143
3976 4402
3976 4743
3977 4323
3977 4594
3977 4713
3977 4729
3977 4747
3978 4018
3978 4162
3978 4250
3978 4606
3978 4720
3978 4748
3978 4766
3979 3982
3979 4261
3979 4566
3979 4620
3980 4036
3980 4070
3980 4113
3980 4134
3980 4231
3980 4394
3980 4407
3980 4522
3980 4774
3980 4870
3981 4018
3981 4353
3981 4507
3981 4537
3981 4563
3981 4756
3981 4760
3981 4834
3982 4146
3982 4153
3982 4243
3983 4496
3984 4265
3984 4602
3984 4611
3984 4613
3984 4729
3984 4749
3984 4764
3984 4831
3985 4129
3985 4750
3985 4833
3985 4929
3986 4068
3986 4088
3986 4234
3986 4284
3986 4450
3986 4530
3986 4557
3986 4869
3987 4291
3987 4828
3987 4877
3988 3994
3988 4150
3988 4573
3988 4612
3988 4929
3989 4030
3989 4080
3989 4085
3989 4451
3989 4925
3990 4171
3990 4243
3990 4657
3990 4749
3990 4856
3991 4489
3991 4494
3991 4777
3992 4156
3992 4174
3992 4271
3992 4780
3992 4793
3993 4040
3993 4186
3993 4308
3993 4359
3993 4512
3993 4523
3993 4934
3994 4136
3994 4232
3994 4307
3994 4351
3994 4430
3994 4466
3994 4573
3994 4598
3994 4602
3994 4638
3994 4678
3994 4877
3994 4895
3994 4901
3994 4951
3995 4030
3995 4142
3995 4229
3995 4493
3996 4323
3996 4456
3996 4491
3997 4015
3997 4071
3997 4121
3997 4618
3997 4803
3997 4832
3998 4068
3998 4309
3998 4340
3998 4618
3998 4742
3998 4785
3999 4269
3999 4302
3999 4484
3999 4757
4000 4095
4000 4658
4000 4672
4000 4742
4000 4828
4000 4973
4001 4540
4001 4923
4002 4170
4002 4403
4002 4507
4003 4194
4003 4232
4003 4324
4003 4522
4004 4220
4004 4279
4004 4625
4004 4639
4004 4945
4004 4964
4005 4075
4005 4721
4005 4963
4006 4149
4006 4241
4006 4388
4006 4517
4006 4625
4006 4823
4006 4871
4006 4930
4006 4973
4007 4150
4007 4196
4007 4402
4008 4305
4008 4388
4008 4485
4008 4646
4008 4740
4008 4748
4008 4986
4009 4034
4009 4053
4009 4127
4009 4498
4009 4741
4010 4078
4010 4340
4010 4377
4010 4400
4011 4256
4011 4482
4011 4612
4011 4762
4012 4434
4012 4535
4012 4568
4012 4653
4012 4854
4013 4224
4013 4329
4013 4433
4013 4832
4014 4112
4014 4127
4014 4140
4014 4176
4014 4372
4014 4464
4014 4679
4014 4929
4015 4187
4015 4231
4015 4297
4015 4342
4015 4538
4015 4793
4016 4214
4016 4215
4016 4405
4016 4467
4017 4566
4017 4850
4017 4992
4017 4999
4018 4066
4018 4464
4019 4068
4019 4103
4019 4532
4019 4594
4020 4443
4020 4762
4021 4121
4021 4573
4021 4683
4021 4846
4021 4921
4022 4821
4023 4311
4023 4475
4023 4786
4023 4888
4024 4071
4024 4201
4024 4235
4024 4551
4024 4604
4024 4880
4024 4929
4025 4213
4025 4234
4025 4391
4025 4886
4025 4901
4026 4127
4026 4136
4026 4266
4026 4760
4027 4400
4027 4594
4027 4911
4028 4264
4028 4354
4028 4533
4028 4598
4028 4769
4029 4266
4029 4738
4029 4906
4030 4197
4030 4452
4030 4514
4030 4637
4030 4854
4031 4977
4031 4995
4032 4150
4032 4365
4032 4770
4032 4877
4033 4060
4033 4125
4033 4302
4033 4345
4033 4390
4034 4206
4034 4284
4034 4318
4034 4888
4035 4400
4035 4553
4035 4643
4035 4675
4035 4754
4035 4810
4035 4825
4035 4863
4035 4911
4035 4951
4036 4082
4036 4405
4036 4785
4036 4828
4037 4228
4037 4456
4037 4598
4037 4800
4037 4916
4037 4989
4038 4185
4038 4433
4038 4491
4038 4498
4038 4942
4039 4048
4039 4059
4039 4075
4039 4082
4039 4213
4039 4264
4039 4475
4039 4513
4039 4588
4039 4589
4040 4141
4040 4281
4040 4444
4040 4704
4041 4375
4041 4675
4041 4754
4042 4335
4042 4608
4043 4971
4044 4617
4044 4747
4044 4886
4044 4988
4045 4077
4045 4105
4045 4479
4046 4080
4046 4145
4046 4219
4046 4295
4046 4598
4046 4795
4046 4967
4047 4350
4048 4238
4048 4245
4048 4691
4048 4730
4048 4749
4048 4886
4048 4897
4048 4923
4049 4093
4049 4116
4049 4464
4049 4489
4049 4505
4049 4612
4049 4739
4049 4842
4049 4883
4050 4138
4050 4285
4050 4325
4050 4432
4050 4506
4050 4526
4050 4553
4050 4771
4051 4060
4051 4072
4051 4237
4051 4309
4051 4338
4051 4431
4051 4849
4052 4199
4053 4254
4053 4301
4053 4666
4053 4846
4054 4071
4054 4446
4054 4450
4055 4435
4055 4496
4055 4544
4055 4625
4055 4967
4056 4206
4056 4237
4056 4626
4056 4813
4056 4865
4057 4223
4057 4327
4057 4468
4057 4740
4057 4803
4057 4841
4058 4189
4059 4071
4059 4510
4059 4867
4059 4910
4060 4533
4060 4639
4060 4653
4060 4882
4061 4213
4061 4265
4061 4716
4062 4467
4063 4491
4063 4639
4063 4925
4063 4956
4064 4301
4064 4387
4064 4641
4064 4780
4065 4218
4065 4251
4065 4496
4065 4590
4065 4886
4066 4128
4066 4146
4066 4494
4066 4691
4067 4168
4067 4325
4067 4616
4067 4754
4067 4896
4068 4182
4068 4192
4068 4206
4068 4239
4068 4265
4068 4274
4068 4372
4068 4497
4068 4593
4068 4674
4068 4687
4068 4755
4068 4850
4068 4853
4068 4956
4068 4995
4069 4449
4070 4160
4070 4313
4070 4335
4070 4414
4070 4447
4070 4526
4070 4560
4070 4608
4070 4890
4070 4961
4070 4968
4071 4081
4071 4087
4071 4117
4071 4165
4071 4168
4071 4182
4071 4272
4071 4393
4071 4407
4071 4493
4071 4514
4071 4733
4071 4739
4071 4831
4071 4882
4072 4264
4072 4337
4073 4330
4073 4552
4073 4911
4074 4497
4074 4571
4074 4749
4074 4785
4074 4797
4074 4838
4075 4372
4075 4427
4075 4455
4075 4960
4076 4168
4076 4701
4076 4722
4076 4964
4077 4097
4077 4110
4077 4257
4077 4356
4077 4365
4077 4413
4077 4440
4077 4622
4077 4623
4077 4645
4077 4692
4077 4810
4077 4819
4077 4858
4077 4862
4077 4867
4077 4872
4077 4971
4077 4999
4078 4238
4078 4305
4078 4379
4078 4568
4078 4581
4078 4730
4078 4889
4078 4912
4078 4959
4079 4583
4079 4595
4080 4183
4080 4416
4080 4444
4080 4632
4080 4733
4080 4830
4080 4865
4081 4191
4081 4198
4081 4988
4082 4188
4082 4569
4082 4644
4082 4808
4082 4870
4082 4898
4083 4372
4083 4388
4083 4612
4083 4853
4083 4992
4084 4691
4084 4732
4084 4896
4085 4152
4085 4328
4085 4531
4085 4668
4085 4763
4085 4805
4086 4429
4087 4213
4087 4376
4087 4431
4088 4440
4088 4696
4089 4483
4089 4489
4089 4740
4090 4460
4090 4746
4090 4991
4091 4256
4091 4428
4092 4369
4092 4754
4092 4838
4092 4889
4093 4666
4094 4565
4094 4654
4094 4744
4094 4980
4095 4193
4095 4375
4095 4432
4095 4653
4096 4277
4096 4663
4096 4756
4097 4163
4097 4595
4097 4628
4098 4099
4098 4389
4098 4436
4098 4862
4098 4882
4098 4973
4099 4388
4099 4452
4099 4868
4100 4213
4100 4285
4100 4680
4101 4331
4101 4339
4102 4190
4102 4201
4102 4295
4102 4738
4103 4213
4103 4274
4103 4351
4103 4541
4104 4114
4104 4785
4105 4308
4105 4394
4105 4848
4106 4511
4106 4599
4106 4793
4106 4860
4106 4868
4107 4159
4107 4394
4107 4458
4107 4465
4107 4614
4107 4922
4108 4127
4108 4267
4108 4541
4108 4975
4109 4351
4109 4357
4109 4633
4109 4741
4109 4781
4109 4804
4110 4263
4110 4571
4110 4606
4110 4642
4110 4911
4111 4145
4111 4539
4111 4542
4111 4706
4111 4910
4113 4278
4113 4534
4113 4663
4114 4186
4114 4341
4115 4831
4115 4980
4116 4150
4116 4281
4116 4480
4116 4888
4117 4441
4117 4621
4117 4789
4117 4974
4118 4369
4118 4569
4118 4632
4118 4761
4118 4805
4118 4838
4118 4972
4119 4237
4119 4400
4119 4433
4119 4510
4119 4548
4119 4554
4119 4561
4119 4563
4119 4618
4119 4627
4119 4669
4119 4742
4119 4761
4119 4768
4119 4849
4119 4879
4119 4892
4120 4393
4120 4578
4120 4583
4120 4644
4121 4138
4121 4292
4121 4296
4121 4848
4121 4947
4121 4984
4121 4995
4122 4142
4122 4464
4122 4864
4123 4270
4123 4316
4123 4359
4123 4371
4123 4922
4124 4213
4124 4393
4124 4477
4124 4828
4125 4565
4125 4748
4125 4762
4126 4546
4126 4862
4127 4150
4127 4177
4127 4383
4127 4499
4127 4694
4127 4883
4128 4734
4128 4796
4128 4829
4128 4931
4128 4950
4129 4211
4129 4358
4129 4703
4129 4781
4129 4940
4131 4177
4131 4205
4131 4258
4131 4280
4131 4632
4131 4718
4132 4460
4132 4563
4132 4889
4133 4185
4133 4731
4133 4742
4134 4232
4134 4620
4135 4213
4135 4336
4135 4445
4136 4276
4136 4784
4136 4864
4137 4405
4137 4585
4137 4722
4137 4881
4137 4943
4138 4155
4138 4216
4138 4515
4138 4770
4138 4780
4139 4610
4140 4237
4140 4487
4140 4828
4140 4843
4140 4850
4140 4896
4140 4922
4140 4925
4140 4982
4141 4226
4141 4350
4141 4725
4141 4763
4141 4772
4142 4190
4142 4533
4142 4588
4142 4910
4142 4965
4143 4454
4143 4633
4143 4751
4143 4901
4143 4908
4144 4632
4145 4183
4145 4475
4145 4779
4145 4995
4146 4206
4146 4327
4146 4546
4146 4807
4146 4888
4146 4927
4146 4937
4147 4243
4147 4307
4148 4420
4148 4921
4149 4729
4150 4159
4150 4277
4150 4738
4150 4815
4150 4862
4151 4442
4151 4489
4151 4655
4151 4700
4152 4405
4152 4514
4152 4653
4152 4785
4152 4896
4153 4243
4153 4358
4153 4597
4154 4507
4154 4573
4154 4992
4155 4371
4155 4798
4155 4976
4156 4325
4156 4509
4156 4616
4156 4726
4156 4805
4156 4948
4157 4381
4157 4576
4157 4796
4158 4432
4158 4663
4158 4832
4159 4220
4159 4640
4159 4920
4159 4980
4160 4257
4160 4485
4160 4784
4161 4846
4162 4320
4162 4470
4162 4673
4162 4889
4163 4409
4163 4420
4163 4480
4163 4744
4163 4880
4163 4916
4164 4284
4164 4482
4164 4493
4164 4553
4164 4643
4164 4644
4165 4623
4165 4656
4166 4761
4166 4889
4166 4950
4166 4976
4167 4563
4167 4780
4167 4841
4167 4916
4168 4846
4169 4753
4170 4312
4171 4491
4172 4520
4172 4641
4173 4410
4173 4454
4173 4928
4174 4320
4174 4464
4174 4598
4174 4672
4174 4909
4175 4335
4175 4611
4175 4764
4176 4671
4176 4806
4176 4892
4176 4959
4177 4341
4177 4748
4177 4901
4177 4974
4178 4199
4178 4302
4178 4422
4178 4506
4178 4665
4178 4683
4178 4754
4178 4756
4178 4767
4179 4391
4179 4504
4179 4519
4179 4553
4179 4740
4179 4749
4179 4930
4180 4359
4180 4394
4181 4257
4181 4290
4181 4376
4181 4498
4183 4225
4183 4418
4183 4430
4183 4444
4183 4726
4183 4849
4184 4200
4184 4207
4184 4646
4185 4253
4185 4394
4185 4595
4186 4310
4186 4372
4186 4422
4186 4916
4186 4938
4186 4987
4187 4590
4187 4746
4187 4779
4188 4290
4188 4502
4188 4536
4188 4969
4189 4213
4189 4478
4189 4992
4190 4267
4190 4578
4190 4746
4190 4852
4191 4239
4191 4747
4192 4245
4192 4288
4192 4457
4192 4665
4192 4881
4192 4929
4192 4984
4193 4239
4193 4273
4194 4213
4194 4514
4195 4199
4195 4497
4195 4510
4195 4567
4195 4606
4196 4267
4196 4273
4196 4465
4196 4505
4196 4522
4196 4537
4196 4623
4196 4819
4197 4234
4197 4269
4197 4363
4197 4421
4198 4351
4198 4498
4198 4865
4199 4406
4199 4612
4199 4849
4199 4985
4200 4336
4200 4729
4200 4967
4201 4294
4201 4301
4201 4334
4201 4612
4201 4987
4202 4226
4202 4660
4202 4901
4203 4237
4204 4264
4204 4882
4205 4470
4205 4486
4205 4612
4205 4672
4205 4737
4205 4976
4206 4241
4206 4429
4206 4578
4206 4712
4206 4725
4206 4736
4206 4813
4206 4889
4206 4939
4207 4353
4207 4511
4207 4685
4208 4424
4208 4523
4209 4256
4209 4723
4209 4725
4209 4963
4210 4275
4210 4695
4211 4481
4211 4849
4212 4542
4212 4802
4212 4872
4213 4280
4213 4281
4213 4309
4213 4455
4213 4456
4213 4498
4213 4589
4213 4678
4213 4812
4213 4847
4213 4991
4214 4577
4214 4591
4214 4742
4215 4315
4215 4601
4215 4611
4215 4639
4216 4283
4216 4429
4216 4620
4217 4302
4217 4486
4217 4576
4217 4696
4217 4717
4218 4445
4218 4670
4218 4738
4218 4973
4218 4977
4219 4247
4219 4526
4219 4858
4219 4922
4220 4562
4221 4451
4221 4813
4221 4852
4222 4578
4222 4599
4222 4919
4223 4556
4224 4342
4224 4717
4224 4758
4225 4312
4225 4490
4225 4782
4225 4945
4226 4256
4226 4270
4226 4438
4226 4598
4226 4630
4226 4750
4227 4457
4227 4463
4227 4870
4228 4273
4228 4358
4228 4365
4228 4471
4228 4631
4228 4645
4228 4677
4228 4691
4228 4764
4228 4862
4228 4890
4228 4936
4229 4318
4229 4529
4229 4594
4229 4910
4230 4604
4230 4973
4231 4500
4231 4568
4231 4639
4232 4301
4232 4693
4232 4708
4232 4981
4233 4515
4233 4594
4233 4844
4234 4304
4234 4335
4234 4409
4234 4474
4234 4713
4234 4747
4234 4870
4234 4924
4234 4949
4234 4958
4235 4240
4235 4313
4235 4448
4235 4896
4236 4458
4237 4315
4237 4463
4237 4619
4237 4625
4237 4713
4237 4747
4237 4788
4237 4812
4237 4814
4237 4923
4238 4843
4239 4496
4239 4523
4239 4554
4239 4602
4239 4648
4239 4790
4239 4909
4240 4317
4240 4649
4241 4428
4241 4638
4241 4663
4242 4520
4242 4632
4242 4748
4242 4827
4242 4841
4243 4328
4243 4342
4243 4722
4243 4840
4244 4335
4244 4664
4245 4252
4245 4489
4245 4759
4245 4978
4246 4436
4246 4747
4247 4952
4248 4314
4248 4471
4248 4571
4248 4632
4248 4722
4248 4785
4249 4338
4249 4370
4250 4266
4250 4384
4250 4501
4250 4502
4250 4573
4250 4741
4250 4758
4251 4887
4252 4338
4252 4467
4252 4827
4253 4426
4253 4478
4253 4762
4254 4305
4254 4464
4254 4499
4254 4964
4255 4284
4255 4424
4255 4456
4255 4639
4255 4896
4256 4258
4256 4270
4256 4321
4256 4360
4256 4610
4256 4636
4256 4908
4256 4922
4256 4983
4256 4992
4256 4999
4257 4290
4257 4294
4257 4806
4257 4925
4257 4981
4258 4309
4258 4380
4258 4922
4259 4532
4259 4704
4259 4840
4259 4895
4260 4270
4260 4682
4260 4831
4260 4882
4260 4888
4261 4499
4261 4518
4261 4564
4261 4615
4261 4703
4261 4808
4261 4857
4261 4937
4262 4323
4262 4863
4263 4274
4263 4291
4263 4690
4263 4705
4263 4835
4263 4860
4264 4276
4264 4322
4264 4457
4264 4568
4264 4619
4264 4732
4264 4777
4264 4909
4264 4919
4264 4993
4265 4489
4265 4786
4265 4839
4265 4880
4265 4911
4266 4287
4266 4364
4266 4370
4266 4380
4266 4476
4266 4528
4266 4540
4266 4557
4266 4617
4266 4734
4266 4771
4266 4834
4266 4992
4267 4760
4268 4733
4269 4628
4270 4365
4270 4475
4270 4681
4270 4682
4270 4834
4270 4917
4271 4710
4271 4711
4271 4730
4272 4344
4272 4464
4272 4565
4272 4815
4272 4862
4273 4780
4274 4538
4274 4848
4275 4519
4275 4790
4275 4798
4275 4880
4275 4908
4276 4367
4277 4313
4277 4474
4277 4557
4277 4594
4277 4612
4278 4339
4278 4486
4278 4590
4278 4643
4279 4375
4279 4647
4279 4689
4279 4724
4280 4290
4280 4347
4280 4729
4280 4767
4280 4911
4281 4341
4281 4556
4281 4747
4281 4772
4281 4785
4282 4576
4282 4612
4282 4653
4283 4335
4283 4359
4284 4446
4284 4797
4284 4817
4285 4438
4285 4906
4285 4931
4286 4747
4287 4681
4287 4767
4288 4699
4288 4925
4289 4367
4290 4316
4290 4520
4290 4557
4290 4638
4290 4791
4291 4595
4291 4720
4291 4745
4291 4885
4291 4950
4291 4957
4292 4396
4292 4580
4292 4587
4292 4735
4293 4999
4294 4318
4294 4359
4294 4445
4294 4607
4294 4880
4294 4890
4294 4969
4295 4760
4295 4848
4296 4375
4296 4391
4296 4754
4297 4363
4297 4507
4297 4573
4298 4744
4298 4973
4299 4791
4300 4383
4300 4827
4300 4858
4300 4872
4301 4716
4301 4976
4302 4598
4302 4637
4302 4886
4303 4387
4303 4419
4303 4522
4303 4578
4303 4683
4303 4742
4303 4743
4303 4816
4305 4418
4306 4364
4306 4431
4306 4468
4307 4342
4307 4641
4307 4692
4307 4742
4307 4939
4308 4407
4308 4755
4308 4889
4309 4670
4309 4908
4309 4944
4309 4980
4310 4371
4310 4480
4310 4661
4310 4709
4310 4761
4311 4540
4311 4554
4311 4609
4311 4632
4311 4792
4311 4815
4311 4821
4312 4343
4312 4415
4312 4695
4312 4759
4312 4977
4313 4565
4313 4852
4313 4882
4313 4931
4314 4732
4315 4639
4315 4862
4316 4467
4316 4747
4317 4335
4317 4398
4317 4446
4317 4448
4317 4513
4317 4743
4317 4786
4317 4882
4317 4969
4318 4329
4318 4896
4319 4422
4319 4452
4320 4608
4320 4655
4320 4776
4321 4327
4321 4478
4321 4604
4323 4645
4323 4682
4323 4949
4324 4346
4324 4860
4325 4733
4325 4838
4325 4880
4325 4924
4325 4957
4326 4727
4327 4382
4327 4464
4327 4481
4327 4491
4327 4781
4327 4787
4327 4888
4327 4940
4328 4542
4328 4772
4329 4342
4329 4484
4329 4496
4329 4833
4330 4336
4330 4500
4330 4957
4331 4503
4331 4580
4331 4874
4332 4406
4332 4430
4332 4696
4332 4765
4332 4898
4333 4377
4333 4807
4334 4510
4334 4670
4334 4877
4335 4985
4336 4394
4336 4645
4337 4453
4338 4462
4339 4561
4339 4837
4340 4521
4340 4555
4340 4857
4341 4427
4341 4466
4341 4594
4342 4390
4342 4523
4342 4755
4342 4814
4343 4777
4343 4841
4343 4975
4344 4461
4344 4567
4344 4672
4344 4886
4345 4546
4345 4881
4346 4490
4346 4578
4346 4608
4346 4612
4346 4627
4346 4661
4346 4885
4346 4961
4347 4551
4347 4640
4348 4371
4348 4429
4348 4737
4349 4421
4349 4486
4349 4647
4349 4683
4349 4714
4350 4510
4350 4568
4350 4747
4350 4762
4350 4888
4351 4395
4351 4490
4351 4511
4351 4527
4351 4632
4351 4672
4351 4680
4351 4864
4351 4932
4352 4456
4352 4506
4353 4419
4353 4690
4353 4785
4354 4462
4354 4732
4354 4889
4355 4360
4355 4544
4355 4707
4355 4790
4355 4817
4356 4557
4357 4582
4357 4728
4357 4914
4357 4972
4358 4605
4359 4512
4359 4605
4359 4618
4359 4779
4360 4406
4360 4639
4361 4456
4361 4473
4361 4692
4361 4702
4361 4721
4361 4809
4361 4847
4362 4676
4362 4747
4362 4950
4363 4754
4364 4436
4364 4537
4364 4731
4365 4750
4366 4410
4366 4590
4366 4664
4366 4743
4366 4971
4366 4974
4367 4547
4367 4658
4368 4537
4368 4706
4369 4477
4369 4482
4369 4509
4369 4589
4369 4607
4369 4752
4369 4757
4370 4624
4370 4934
4371 4486
4371 4504
4372 4430
4372 4573
4373 4400
4373 4524
4373 4723
4373 4788
4373 4810
4374 4377
4374 4739
4374 4993
4375 4459
4375 4514
4375 4643
4375 4899
4376 4967
4377 4772
4377 4793
4377 4888
4378 4408
4378 4594
4379 4507
4379 4656
4379 4771
4380 4481
4380 4855
4380 4889
4381 4874
4382 4421
4382 4464
4382 4650
4384 4690
4385 4621
4386 4653
4386 4755
4386 4770
4386 4880
4386 4889
4386 4907
4387 4546
4387 4637
4387 4746
4387 4835
4387 4898
4388 4470
4388 4483
4388 4537
4388 4747
4388 4760
4389 4505
4389 4537
4389 4935
4390 4629
4390 4729
4390 4809
4391 4422
4391 4623
4391 4779
4391 4836
4391 4888
4392 4626
4392 4769
4393 4678
4393 4801
4393 4977
4393 4982
4394 4496
4394 4536
4394 4568
4394 4594
4394 4926
4395 4578
4395 4983
4396 4788
4397 4506
4397 4782
4398 4464
4398 4594
4398 4816
4398 4883
4399 4584
4399 4850
4400 4413
4400 4547
4400 4596
4400 4617
4400 4655
4400 4940
4400 4973
4401 4550
4401 4896
4402 4538
4402 4717
4402 4719
4403 4506
4403 4672
4404 4826
4404 4877
4405 4464
4405 4650
4405 4729
4405 4926
4405 4955
4407 4489
4407 4520
4407 4930
4407 4994
4409 4603
4412 4490
4412 4867
4412 4889
4414 4740
4414 4778
4414 4892
4415 4450
4415 4509
4416 4479
4417 4571
4417 4705
4417 4757
4418 4704
4418 4995
4419 4514
4419 4673
4420 4469
4420 4607
4420 4608
4420 4749
4420 4896
4421 4441
4421 4503
4421 4564
4421 4598
4421 4804
4421 4932
4422 4437
4422 4492
4422 4841
4423 4696
4423 4919
4424 4488
4424 4642
4424 4652
4424 4662
4424 4686
4424 4827
4424 4926
4426 4459
4426 4888
4427 4496
4427 4849
4429 4459
4429 4563
4429 4708
4429 4973
4430 4737
4431 4669
4431 4906
4432 4522
4432 4571
4432 4618
4432 4661
4432 4822
4432 4830
4432 4933
4433 4862
4434 4779
4435 4840
4436 4615
4436 4967
4437 4544
4438 4975
4439 4652
4439 4882
4441 4827
4441 4858
4441 4988
4441 4996
4441 4999
4442 4501
4442 4581
4442 4896
4442 4935
4443 4921
4444 4973
4445 4496
4445 4658
4445 4735
4446 4590
4446 4606
4446 4612
4447 4604
4447 4994
4449 4555
4450 4791
4450 4913
4450 4931
4451 4646
4452 4622
4452 4645
4452 4683
4452 4767
4452 4847
4453 4717
4453 4821
4453 4888
4454 4496
4455 4757
4455 4882
4456 4485
4456 4507
4456 4523
4456 4646
4456 4713
4456 4751
4456 4957
4457 4517
4457 4665
4457 4680
4457 4754
4457 4800
4458 4713
4458 4841
4459 4524
4459 4547
4459 4779
4460 4729
4461 4676
4461 4833
4463 4982
4464 4489
4464 4819
4464 4835
4464 4891
4465 4582
4465 4746
4465 4925
4465 4977
4466 4473
4466 4882
4467 4487
4467 4652
4467 4846
4468 4677
4469 4954
4470 4522
4471 4490
4471 4934
4472 4518
4472 4567
4472 4573
4472 4577
4472 4595
4472 4663
4472 4668
4473 4529
4473 4572
4473 4650
4474 4490
4474 4975
4475 4486
4475 4665
4475 4749
4475 4815
4476 4484
4476 4670
4476 4892
4477 4748
4477 4798
4477 4981
4477 4999
4478 4666
4480 4688
4480 4889
4480 4911
4481 4547
4481 4711
4482 4644
4482 4735
4482 4755
4482 4933
4483 4755
4483 4773
4483 4998
4484 4566
4484 4789
4484 4911
4485 4682
4486 4612
4486 4629
4486 4642
4486 4691
4486 4724
4486 4828
4486 4925
4487 4526
4488 4762
4489 4508
4489 4534
4489 4541
4489 4573
4489 4646
4489 4659
4489 4680
4489 4797
4489 4892
4489 4905
4489 4924
4490 4600
4490 4617
4490 4877
4490 4899
4490 4904
4490 4907
4492 4615
4492 4780
4492 4806
4493 4499
4493 4761
4493 4843
4495 4729
4495 4771
4496 4713
4496 4717
4496 4885
4496 4908
4496 4975
4497 4561
4498 4661
4498 4745
4498 4781
4498 4841
4499 4587
4499 4699
4499 4894
4500 4656
4500 4743
4500 4785
4501 4621
4501 4895
4502 4520
4502 4611
4502 4713
4502 4740
4502 4921
4503 4852
4504 4519
4504 4747
4504 4848
4505 4650
4505 4681
4505 4682
4505 4771
4505 4793
4505 4869
4506 4843
4506 4916
4506 4945
4507 4549
4507 4597
4507 4658
4507 4672
4507 4705
4507 4728
4507 4779
4507 4791
4507 4834
4507 4894
4507 4895
4508 4617
4508 4973
4509 4589
4509 4841
4509 4880
4510 4516
4510 4719
4510 4722
4510 4774
4510 4972
4511 4573
4512 4617
4512 4880
4513 4896
4514 4631
4514 4634
4514 4744
4514 4775
4514 4793
4514 4864
4515 4623
4515 4651
4515 4691
4516 4976
4517 4670
4517 4976
4518 4525
4519 4532
4519 4732
4519 4739
4519 4887
4519 4964
4520 4537
4520 4729
4520 4761
4520 4825
4520 4888
4520 4990
4522 4674
4522 4775
4522 4870
4522 4978
4523 4659
4523 4770
4523 4918
4523 4930
4523 4942
4524 4577
4524 4640
4524 4721
4524 4767
4524 4776
4524 4866
4524 4961
4524 4978
4526 4897
4526 4907
4527 4598
4527 4606
4527 4777
4528 4632
4528 4653
4528 4684
4528 4703
4529 4537
4529 4547
4529 4693
4529 4765
4529 4866
4531 4594
4531 4992
4532 4751
4532 4797
4532 4850
4532 4990
4533 4709
4533 4772
4534 4569
4534 4916
4535 4670
4535 4946
4536 4687
4536 4894
4537 4598
4537 4729
4537 4760
4537 4888
4537 4939
4538 4863
4538 4941
4539 4729
4540 4773
4540 4940
4541 4580
4541 4687
4541 4841
4541 4948
4541 4950
4542 4841
4542 4920
4543 4749
4544 4835
4544 4876
4545 4779
4546 4936
4547 4613
4547 4632
4547 4751
4547 4856
4548 4670
4548 4785
4548 4993
4549 4684
4549 4831
4550 4709
4551 4786
4551 4908
4553 4896
4553 4898
4554 4573
4554 4738
4554 4983
4555 4976
4557 4595
4557 4639
4557 4872
4557 4941
4558 4565
4558 4632
4558 4684
4558 4887
4558 4905
4558 4927
4558 4957
4559 4816
4559 4852
4560 4567
4560 4918
4560 4999
4561 4600
4561 4646
4563 4760
4563 4846
4563 4948
4564 4973
4565 4830
4565 4880
4566 4600
4566 4959
4567 4658
4567 4708
4567 4722
4568 4645
4569 4606
4569 4639
4570 4623
4570 4785
4571 4692
4571 4714
4571 4807
4572 4661
4572 4788
4573 4633
4573 4665
4573 4842
4573 4864
4573 4925
4574 4886
4574 4889
4575 4742
4575 4889
4576 4711
4576 4840
4576 4862
4577 4940
4578 4889
4579 4732
4579 4785
4580 4754
4580 4911
4580 4953
4581 4683
4581 4788
4581 4996
4582 4621
4582 4669
4583 4628
4583 4652
4583 4686
4583 4688
4583 4747
4584 4690
4585 4595
4585 4804
4585 4814
4585 4922
4586 4870
4587 4785
4588 4643
4588 4705
4589 4607
4589 4888
4589 4904
4590 4779
4591 4862
4591 4967
4592 4803
4592 4936
4593 4709
4593 4725
4594 4802
4594 4952
4594 4987
4595 4608
4595 4658
4595 4718
4595 4720
4595 4728
4595 4730
4595 4739
4595 4835
4595 4927
4595 4984
4596 4953
4597 4634
4597 4846
4598 4756
4598 4812
4598 4950
4599 4743
4600 4901
4601 4637
4602 4824
4603 4685
4603 4874
4604 4620
4604 4670
4604 4710
4604 4970
4605 4683
4605 4698
4606 4780
4606 4950
4607 4743
4607 4783
4607 4890
4608 4717
4609 4701
4609 4967
4610 4823
4611 4625
4611 4643
4611 4670
4611 4851
4611 4896
4612 4854
4612 4895
4612 4966
4613 4765
4613 4873
4613 4926
4613 4964
4614 4713
4615 4623
4615 4702
4615 4731
4615 4736
4615 4822
4616 4740
4616 4778
4616 4935
4617 4670
4618 4818
4618 4922
4619 4827
4620 4659
4620 4670
4620 4711
4620 4713
4621 4913
4622 4782
4625 4785
4625 4925
4626 4911
4627 4980
4629 4765
4629 4991
4630 4908
4630 4976
4631 4788
4631 4896
4632 4649
4632 4770
4632 4822
4632 4935
4632 4955
4632 4964
4632 4976
4633 4800
4633 4810
4633 4880
4633 4919
4635 4680
4635 4791
4635 4968
4636 4749
4637 4900
4638 4658
4638 4786
4638 4847
4638 4863
4638 4877
4639 4675
4639 4725
4639 4773
4639 4895
4640 4744
4640 4876
4641 4699
4641 4895
4641 4999
4642 4721
4642 4735
4643 4940
4644 4645
4644 4868
4645 4832
4646 4680
4647 4664
4647 4767
4647 4823
4647 4870
4647 4888
4647 4904
4648 4653
4648 4888
4648 4973
4649 4736
4649 4817
4650 4652
4650 4691
4650 4729
4650 4750
4650 4850
4650 4939
4652 4780
4652 4989
4653 4685
4653 4710
4653 4818
4654 4703
4654 4815
4655 4956
4656 4729
4657 4695
4658 4878
4659 4748
4660 4687
4661 4796
4662 4940
4663 4810
4665 4863
4668 4760
4668 4833
4668 4951
4669 4887
4669 4902
4670 4706
4670 4943
4670 4950
4671 4760
4672 4784
4672 4827
4672 4910
4672 4990
4673 4760
4674 4885
4675 4887
4676 4878
4678 4789
4682 4750
4682 4753
4683 4686
4684 4877
4684 4915
4685 4757
4686 4716
4686 4770
4686 4784
4686 4823
4688 4863
4689 4857
4690 4733
4690 4890
4691 4697
4691 4783
4691 4894
4694 4708
4694 4798
4696 4761
4696 4837
4696 4957
4698 4906
4700 4723
4700 4750
4700 4867
4700 4911
4700 4994
4701 4744
4701 4764
4702 4974
4702 4978
4703 4709
4703 4789
4704 4803
4704 4946
4705 4888
4706 4869
4706 4877
4707 4999
4708 4738
4708 4800
4708 4885
4709 4742
4709 4785
4709 4864
4710 4713
4711 4803
4711 4872
4711 4876
4711 4913
4711 4981
4712 4899
4713 4794
4713 4917
4714 4763
4715 4804
4715 4810
4716 4769
4716 4841
4716 4938
4716 4975
4717 4721
4717 4741
4717 4940
4719 4957
4720 4751
4721 4923
4722 4742
4722 4762
4722 4811
4722 4995
4723 4738
4723 4781
4723 4805
4723 4954
4726 4813
4726 4946
4728 4788
4729 4776
4729 4826
4729 4911
4729 4914
4729 4990
4730 4746
4730 4750
4730 4826
4730 4865
4730 4873
4731 4962
4732 4951
4732 4986
4733 4859
4736 4799
4737 4762
4737 4919
4739 4785
4739 4916
4740 4746
4740 4961
4741 4805
4742 4765
4742 4961
4742 4966
4742 4983
4743 4831
4743 4884
4744 4985
4745 4896
4746 4872
4747 4896
4747 4925
4748 4831
4748 4835
4748 4837
4748 4933
4748 4951
4748 4993
4749 4967
4749 4972
4750 4831
4750 4882
4750 4906
4751 4772
4751 4863
4751 4951
4751 4972
4754 4758
4754 4762
4754 4769
4754 4952
4755 4858
4756 4880
4756 4928
4756 4980
4757 4918
4757 4961
4758 4765
4758 4778
4758 4791
4758 4905
4759 4865
4760 4791
4760 4874
4760 4883
4760 4941
4761 4789
4762 4813
4762 4861
4762 4947
4764 4846
4764 4888
4765 4815
4765 4857
4765 4870
4765 4876
4765 4959
4766 4855
4767 4897
4769 4954
4771 4803
4772 4779
4772 4799
4772 4800
4772 4807
4773 4947
4773 4958
4773 4974
4774 4951
4778 4806
4778 4889
4779 4903
4780 4839
4781 4908
4784 4910
4785 4844
4785 4861
4785 4884
4785 4901
4785 4981
4786 4830
4786 4834
4787 4862
4788 4852
4788 4993
4789 4896
4789 4902
4789 4957
4790 4856
4794 4903
4794 4936
4795 4896
4796 4976
4797 4820
4799 4957
4800 4839
4800 4885
4800 4927
4802 4827
4803 4835
4804 4851
4804 4879
4804 4915
4805 4810
4805 4988
4805 4993
4806 4824
4807 4881
4807 4883
4807 4911
4808 4848
4809 4931
4811 4901
4812 4870
4814 4997
4815 4898
4820 4932
4821 4962
4823 4841
4823 4896
4823 4918
4823 4956
4826 4937
4828 4880
4829 4851
4830 4901
4831 4923
4831 4956
4831 4969
4832 4940
4833 4883
4833 4911
4833 4979
4835 4841
4835 4973
4836 4912
4836 4976
4840 4963
4842 4953
4844 4963
4846 4983
4848 4879
4849 4911
4849 4917
4849 4983
4852 4879
4853 4895
4853 4976
4854 4887
4855 4904
4856 4870
4861 4911
4861 4980
4864 4914
4870 4935
4870 4973
4872 4884
4874 4907
4874 4951
4876 4893
4877 4932
4880 4901
4880 4965
4886 4973
4887 4964
4889 4895
4889 4917
4890 4996
4891 4976
4894 4945
4896 4977
4897 4978
4898 4995
4900 4923
4901 4955
4905 4951
4906 4911
4907 4909
4908 4931
4911 4969
4912 4964
4920 4959
4935 4980
4938 4996
4940 4995
4941 4992
4944 4950
4957 4976
4970 4993
4977 4978
