0 6
0 12
0 41
0 75
0 122
0 170
0 194
0 203
0 233
0 244
0 312
0 403
0 437
0 453
0 471
0 518
0 559
0 627
0 638
0 669
0 674
0 678
0 680
0 738
0 757
0 764
0 778
0 932
1 17
1 118
1 233
1 238
1 258
1 369
1 398
1 421
1 525
1 553
1 583
1 683
1 750
1 757
1 764
1 831
1 932
1 937
1 950
1 998
2 42
2 46
2 48
2 66
2 84
2 110
2 133
2 200
2 205
2 271
2 292
2 306
2 453
2 495
2 523
2 542
2 559
2 567
2 661
2 693
2 800
2 925
2 935
3 6
3 34
3 62
3 143
3 183
3 188
3 255
3 277
3 322
3 358
3 372
3 377
3 385
3 403
3 409
3 418
3 425
3 475
3 480
3 523
3 526
3 537
3 541
3 552
3 553
3 604
3 618
3 662
3 727
3 734
3 758
3 773
3 774
3 824
3 841
3 888
3 902
3 931
3 958
4 34
4 46
4 54
4 65
4 114
4 227
4 236
4 240
4 312
4 343
4 503
4 537
4 546
4 562
4 586
4 597
4 746
4 811
4 819
4 865
4 953
4 960
4 991
5 6
5 72
5 160
5 178
5 250
5 276
5 322
5 339
5 384
5 386
5 403
5 443
5 489
5 501
5 551
5 558
5 683
5 712
5 715
5 726
5 863
5 875
5 919
5 922
6 21
6 37
6 145
6 148
6 177
6 181
6 183
6 236
6 254
6 267
6 269
6 309
6 353
6 363
6 410
6 446
6 487
6 508
6 511
6 604
6 631
6 636
6 722
6 735
6 757
6 834
6 840
6 851
6 923
6 937
6 966
6 999
7 49
7 79
7 182
7 204
7 224
7 275
7 291
7 369
7 394
7 423
7 442
7 501
7 523
7 648
7 730
7 733
7 739
7 757
7 784
7 801
7 865
7 925
7 958
8 30
8 49
8 112
8 162
8 169
8 172
8 199
8 203
8 223
8 245
8 264
8 311
8 370
8 422
8 429
8 524
8 536
8 595
8 604
8 622
8 637
8 640
8 695
8 705
8 716
8 729
8 764
8 796
8 797
8 808
8 854
8 929
8 956
8 983
9 11
9 67
9 124
9 162
9 314
9 330
9 355
9 423
9 460
9 471
9 480
9 562
9 653
9 897
9 924
9 949
10 69
10 145
10 147
10 157
10 236
10 285
10 286
10 369
10 476
10 482
10 517
10 552
10 772
10 818
11 150
11 218
11 290
11 387
11 399
11 428
11 451
11 463
11 476
11 486
11 530
11 536
11 540
11 597
11 618
11 649
11 650
11 656
11 744
11 809
11 900
11 963
12 24
12 45
12 55
12 64
12 70
12 89
12 105
12 118
12 123
12 149
12 150
12 151
12 162
12 164
12 167
12 181
12 183
12 189
12 191
12 213
12 220
12 227
12 234
12 244
12 245
12 250
12 253
12 257
12 259
12 285
12 328
12 337
12 343
12 357
12 361
12 413
12 415
12 469
12 483
12 500
12 509
12 524
12 536
12 578
12 599
12 604
12 631
12 667
12 685
12 689
12 694
12 701
12 737
12 750
12 781
12 797
12 812
12 823
12 838
12 845
12 889
12 917
12 923
12 937
12 955
12 956
13 19
13 42
13 87
13 109
13 149
13 151
13 166
13 208
13 213
13 292
13 310
13 357
13 362
13 369
13 372
13 402
13 453
13 469
13 481
13 504
13 535
13 588
13 639
13 644
13 654
13 695
13 712
13 749
13 763
13 783
13 831
13 838
13 853
13 906
13 915
13 964
13 965
13 972
14 38
14 186
14 256
14 267
14 441
14 520
14 630
14 652
14 697
14 783
14 825
14 848
14 976
15 38
15 84
15 295
15 352
15 429
15 436
15 475
15 559
15 567
15 595
15 627
15 675
15 695
15 775
15 804
15 828
15 845
15 874
16 84
16 109
16 115
16 153
16 170
16 178
16 202
16 205
16 393
16 623
16 648
16 671
16 682
16 696
16 736
16 920
16 998
17 19
17 24
17 38
17 41
17 48
17 68
17 69
17 81
17 92
17 120
17 188
17 193
17 196
17 201
17 222
17 234
17 237
17 277
17 297
17 320
17 323
17 325
17 340
17 360
17 370
17 379
17 382
17 383
17 395
17 402
17 418
17 423
17 430
17 451
17 452
17 482
17 521
17 522
17 548
17 616
17 626
17 633
17 647
17 656
17 691
17 700
17 722
17 742
17 750
17 780
17 790
17 796
17 805
17 814
17 846
17 876
17 879
17 928
17 932
17 958
17 959
17 988
18 33
18 121
18 161
18 238
18 271
18 366
18 423
18 505
18 531
18 534
18 630
18 639
18 671
18 773
18 813
18 896
18 965
18 966
19 142
19 202
19 213
19 231
19 341
19 402
19 411
19 422
19 425
19 447
19 477
19 501
19 552
19 595
19 715
19 764
19 829
19 832
20 152
20 170
20 231
20 237
20 250
20 333
20 419
20 426
20 478
20 485
20 489
20 620
20 642
20 679
20 741
20 761
20 773
20 882
20 909
20 911
20 965
21 64
21 233
21 315
21 502
21 564
21 573
21 688
21 702
21 790
21 887
21 927
21 940
22 28
22 30
22 39
22 59
22 98
22 101
22 168
22 248
22 282
22 328
22 334
22 360
22 465
22 530
22 537
22 556
22 617
22 707
22 725
22 736
22 738
22 783
22 818
22 900
22 921
22 926
23 39
23 132
23 159
23 161
23 191
23 272
23 276
23 308
23 309
23 346
23 406
23 446
23 453
23 465
23 489
23 520
23 549
23 643
23 645
23 711
23 718
23 846
23 864
23 889
23 891
23 911
23 933
23 947
23 985
24 64
24 72
24 96
24 145
24 152
24 186
24 192
24 200
24 205
24 208
24 248
24 251
24 256
24 259
24 279
24 282
24 283
24 306
24 360
24 371
24 385
24 435
24 436
24 439
24 468
24 471
24 489
24 559
24 574
24 590
24 592
24 598
24 692
24 768
24 775
24 779
24 817
24 820
24 853
24 861
24 898
24 910
24 913
24 979
25 45
25 157
25 197
25 198
25 249
25 258
25 286
25 346
25 358
25 363
25 389
25 477
25 494
25 515
25 525
25 902
26 145
26 146
26 151
26 161
26 166
26 168
26 225
26 226
26 239
26 246
26 287
26 331
26 340
26 342
26 387
26 487
26 490
26 514
26 522
26 534
26 609
26 658
26 699
26 701
26 909
26 911
26 975
26 992
27 31
27 38
27 104
27 129
27 152
27 158
27 170
27 228
27 267
27 278
27 345
27 350
27 355
27 362
27 380
27 384
27 413
27 454
27 522
27 589
27 624
27 770
27 790
27 838
27 906
27 949
27 980
28 54
28 78
28 102
28 115
28 149
28 161
28 196
28 270
28 283
28 318
28 344
28 469
28 479
28 594
28 694
28 742
28 815
28 954
28 996
29 52
29 56
29 69
29 244
29 320
29 331
29 332
29 468
29 492
29 612
29 624
29 631
29 653
29 656
29 719
29 862
29 863
29 923
29 944
30 102
30 185
30 254
30 261
30 279
30 381
30 477
30 489
30 528
30 597
30 632
30 651
30 653
30 655
30 688
30 738
30 747
30 766
30 824
31 77
31 107
31 140
31 340
31 447
31 500
31 507
31 552
31 555
31 579
31 636
31 644
31 672
31 740
31 748
31 825
31 914
31 945
31 987
32 38
32 92
32 187
32 312
32 427
32 461
32 468
32 507
32 553
32 622
32 723
32 868
32 885
32 968
32 975
33 47
33 157
33 266
33 324
33 353
33 386
33 479
33 487
33 526
33 617
33 748
33 761
33 907
33 995
34 47
34 59
34 62
34 67
34 105
34 145
34 172
34 190
34 235
34 241
34 246
34 310
34 313
34 335
34 387
34 444
34 481
34 487
34 526
34 566
34 598
34 633
34 643
34 661
34 703
34 709
34 710
34 798
34 812
34 842
34 879
34 891
34 901
34 925
34 951
34 956
34 996
35 86
35 187
35 216
35 220
35 237
35 276
35 309
35 330
35 385
35 472
35 511
35 623
35 667
35 678
35 689
35 726
35 762
35 803
35 867
35 868
35 886
35 965
36 66
36 78
36 88
36 127
36 152
36 203
36 319
36 399
36 467
36 511
36 529
36 543
36 555
36 559
36 569
36 591
36 652
36 653
36 658
36 786
36 850
36 926
36 974
37 47
37 102
37 121
37 145
37 196
37 224
37 293
37 456
37 463
37 471
37 483
37 491
37 498
37 531
37 584
37 597
37 598
37 614
37 642
37 701
37 714
37 769
37 772
37 923
37 954
37 976
38 68
38 72
38 83
38 85
38 105
38 124
38 143
38 186
38 277
38 286
38 309
38 419
38 423
38 453
38 493
38 496
38 498
38 528
38 530
38 540
38 569
38 600
38 634
38 701
38 712
38 746
38 758
38 771
38 824
38 842
38 874
38 885
38 929
38 965
38 967
38 975
38 981
39 67
39 97
39 249
39 273
39 287
39 312
39 348
39 354
39 360
39 377
39 381
39 398
39 422
39 447
39 458
39 535
39 552
39 578
39 605
39 638
39 688
39 725
39 795
39 845
39 855
39 954
39 974
40 55
40 64
40 72
40 103
40 169
40 191
40 202
40 227
40 237
40 249
40 274
40 312
40 364
40 405
40 443
40 467
40 482
40 486
40 502
40 503
40 517
40 555
40 570
40 573
40 621
40 623
40 625
40 631
40 718
40 727
40 734
40 744
40 805
40 851
40 873
40 878
40 893
40 915
40 923
41 58
41 59
41 133
41 169
41 182
41 230
41 280
41 299
41 310
41 317
41 327
41 403
41 411
41 434
41 477
41 560
41 676
41 689
41 749
41 764
41 835
41 880
41 907
41 932
41 965
41 982
42 64
42 72
42 108
42 170
42 205
42 208
42 223
42 338
42 383
42 390
42 426
42 458
42 486
42 511
42 519
42 526
42 570
42 631
42 670
42 673
42 681
42 707
42 727
42 826
42 840
42 842
43 69
43 138
43 152
43 166
43 169
43 201
43 202
43 245
43 264
43 400
43 426
43 453
43 455
43 486
43 495
43 658
43 688
43 698
43 839
43 934
43 988
44 176
44 225
44 231
44 291
44 384
44 550
44 551
44 564
44 627
44 637
44 653
44 818
45 81
45 185
45 246
45 261
45 292
45 418
45 492
45 499
45 504
45 546
45 594
45 645
45 714
45 894
45 981
46 150
46 177
46 196
46 201
46 254
46 268
46 276
46 294
46 386
46 462
46 464
46 528
46 529
46 565
46 604
46 701
46 714
46 780
46 806
46 842
46 892
46 953
46 971
46 991
47 170
47 178
47 193
47 210
47 301
47 355
47 361
47 449
47 486
47 519
47 541
47 623
47 662
47 742
47 855
47 875
47 877
48 73
48 84
48 120
48 192
48 203
48 230
48 347
48 430
48 446
48 510
48 570
48 628
48 643
48 645
48 736
48 749
48 755
48 788
48 843
48 865
48 878
48 899
48 915
48 954
49 187
49 215
49 219
49 271
49 293
49 389
49 432
49 436
49 485
49 524
49 613
49 650
49 723
49 768
49 807
49 831
49 864
49 930
49 974
50 205
50 244
50 304
50 348
50 459
50 595
50 622
50 642
50 657
50 750
50 769
50 775
50 808
50 899
50 958
50 975
51 53
51 122
51 167
51 192
51 334
51 342
51 369
51 392
51 433
51 510
51 527
51 590
51 610
51 705
51 823
51 855
51 888
51 899
52 54
52 56
52 69
52 75
52 79
52 117
52 144
52 166
52 189
52 220
52 231
52 236
52 269
52 276
52 303
52 327
52 339
52 341
52 392
52 419
52 429
52 443
52 460
52 472
52 490
52 494
52 498
52 527
52 537
52 552
52 559
52 601
52 603
52 612
52 626
52 636
52 640
52 643
52 666
52 739
52 758
52 761
52 810
52 828
52 830
52 834
52 859
52 870
52 890
52 903
52 915
52 930
52 965
52 990
53 187
53 219
53 221
53 252
53 276
53 277
53 291
53 307
53 355
53 376
53 436
53 479
53 560
53 595
53 642
53 644
53 651
53 903
53 905
54 98
54 115
54 191
54 245
54 248
54 271
54 437
54 459
54 472
54 477
54 492
54 559
54 567
54 577
54 688
54 706
54 709
54 795
54 796
54 874
54 926
54 952
55 74
55 84
55 93
55 107
55 195
55 225
55 243
55 247
55 329
55 355
55 371
55 411
55 419
55 486
55 513
55 550
55 612
55 622
55 693
55 701
55 709
55 712
55 727
55 805
55 820
55 835
55 836
55 857
55 862
55 905
55 945
55 966
55 980
56 61
56 79
56 96
56 245
56 276
56 280
56 388
56 554
56 569
56 603
56 610
56 628
56 631
56 660
56 674
56 686
56 780
56 840
56 861
56 863
56 946
56 966
56 975
56 977
57 205
57 228
57 455
57 473
57 488
57 512
57 514
57 517
57 598
57 765
57 825
57 869
57 898
57 915
57 974
58 66
58 254
58 385
58 510
58 581
58 689
58 701
58 826
58 836
58 864
58 934
58 967
59 76
59 83
59 106
59 111
59 144
59 248
59 410
59 432
59 453
59 479
59 528
59 541
59 556
59 571
59 576
59 613
59 618
59 632
59 660
59 669
59 732
59 798
59 809
59 845
59 876
59 905
59 984
59 988
59 993
60 106
60 110
60 132
60 175
60 194
60 204
60 238
60 293
60 312
60 314
60 345
60 350
60 371
60 382
60 433
60 480
60 487
60 544
60 552
60 572
60 578
60 628
60 682
60 715
60 723
60 782
60 885
60 921
60 924
60 938
60 949
60 998
61 153
61 169
61 227
61 228
61 236
61 275
61 292
61 309
61 364
61 381
61 392
61 407
61 440
61 446
61 472
61 568
61 579
61 699
61 821
61 896
61 986
62 65
62 82
62 83
62 119
62 124
62 133
62 138
62 143
62 152
62 280
62 304
62 348
62 387
62 438
62 445
62 494
62 519
62 538
62 559
62 578
62 585
62 592
62 596
62 598
62 651
62 684
62 695
62 696
62 701
62 720
62 730
62 734
62 780
62 800
62 810
62 857
62 862
62 868
62 890
62 892
62 894
62 957
62 983
62 986
62 992
63 119
63 228
63 410
63 476
63 521
63 604
63 622
63 648
63 660
63 770
63 880
64 78
64 92
64 204
64 263
64 307
64 321
64 330
64 353
64 433
64 438
64 547
64 554
64 559
64 607
64 630
64 643
64 703
64 713
64 715
64 749
64 761
64 802
64 816
64 836
64 838
64 893
64 915
65 82
65 84
65 88
65 112
65 123
65 171
65 177
65 228
65 307
65 327
65 328
65 349
65 361
65 411
65 425
65 474
65 486
65 514
65 518
65 525
65 536
65 679
65 712
65 766
65 845
65 911
65 915
65 988
66 98
66 123
66 154
66 193
66 195
66 253
66 262
66 285
66 302
66 320
66 340
66 347
66 392
66 435
66 453
66 469
66 493
66 495
66 505
66 515
66 540
66 562
66 575
66 642
66 688
66 692
66 693
66 751
66 757
66 795
66 818
66 825
66 827
66 866
66 879
66 883
66 886
66 889
66 894
66 903
66 919
66 962
66 974
67 172
67 185
67 228
67 315
67 355
67 369
67 432
67 480
67 483
67 623
67 628
67 644
67 770
67 890
67 907
67 941
67 995
68 164
68 169
68 484
68 526
68 569
68 575
68 631
68 686
68 838
68 898
68 937
68 975
69 97
69 124
69 128
69 152
69 190
69 249
69 269
69 274
69 288
69 331
69 334
69 337
69 346
69 348
69 375
69 383
69 413
69 414
69 415
69 461
69 463
69 503
69 511
69 521
69 560
69 601
69 609
69 634
69 642
69 645
69 649
69 659
69 688
69 700
69 713
69 759
69 866
69 909
69 984
69 997
70 72
70 87
70 159
70 202
70 206
70 228
70 393
70 416
70 483
70 550
70 559
70 563
70 607
70 664
70 687
70 776
70 779
70 818
70 825
70 945
70 978
71 186
71 213
71 269
71 314
71 410
71 431
71 572
71 586
71 653
71 735
71 778
71 815
71 818
71 838
71 935
71 996
72 79
72 80
72 97
72 108
72 113
72 132
72 145
72 162
72 200
72 201
72 211
72 214
72 244
72 251
72 264
72 277
72 339
72 345
72 391
72 408
72 421
72 474
72 483
72 550
72 558
72 571
72 592
72 630
72 642
72 644
72 649
72 671
72 741
72 746
72 796
72 831
72 889
72 911
72 920
72 933
72 952
72 958
72 962
72 965
72 967
72 977
72 982
72 987
73 165
73 201
73 260
73 270
73 331
73 332
73 505
73 578
73 608
73 698
73 708
73 788
73 793
73 893
73 909
73 969
74 103
74 111
74 126
74 153
74 167
74 170
74 276
74 338
74 482
74 510
74 580
74 615
74 622
74 684
74 792
74 815
74 884
74 894
74 924
75 203
75 269
75 353
75 372
75 380
75 386
75 465
75 536
75 665
75 719
75 752
75 786
75 788
75 853
75 874
75 895
75 941
75 983
76 169
76 186
76 484
76 633
76 648
76 652
76 673
76 712
76 743
76 807
76 809
76 824
76 831
76 848
76 864
76 939
76 970
77 150
77 178
77 237
77 260
77 278
77 358
77 362
77 421
77 451
77 501
77 528
77 648
77 653
77 658
77 774
77 790
77 830
77 904
78 124
78 169
78 178
78 192
78 392
78 423
78 435
78 497
78 527
78 545
78 548
78 574
78 643
78 689
78 742
78 804
78 958
78 974
79 100
79 105
79 109
79 125
79 129
79 140
79 152
79 155
79 198
79 202
79 217
79 218
79 235
79 243
79 250
79 289
79 307
79 316
79 324
79 331
79 363
79 369
79 442
79 449
79 450
79 471
79 489
79 501
79 505
79 530
79 531
79 537
79 581
79 593
79 597
79 601
79 638
79 648
79 666
79 673
79 675
79 741
79 750
79 762
79 833
79 841
79 851
79 871
79 888
79 896
79 898
79 920
79 927
79 954
79 964
79 996
79 998
80 133
80 236
80 265
80 310
80 381
80 468
80 474
80 527
80 644
80 706
80 736
80 925
80 940
81 130
81 135
81 175
81 194
81 258
81 261
81 282
81 400
81 462
81 510
81 545
81 631
81 668
81 698
81 818
81 819
81 878
81 890
81 937
82 85
82 89
82 150
82 176
82 182
82 252
82 323
82 360
82 363
82 423
82 463
82 473
82 655
82 781
82 879
82 887
82 965
83 93
83 123
83 126
83 149
83 162
83 174
83 187
83 210
83 276
83 277
83 326
83 356
83 432
83 481
83 538
83 631
83 686
83 716
83 718
83 739
83 832
83 848
83 859
83 873
83 904
83 944
83 955
83 967
83 978
83 998
84 115
84 130
84 157
84 169
84 172
84 221
84 223
84 246
84 305
84 350
84 372
84 378
84 383
84 403
84 416
84 436
84 440
84 495
84 503
84 509
84 647
84 670
84 716
84 737
84 739
84 756
84 817
84 824
84 828
84 847
84 896
84 951
84 982
84 996
85 139
85 167
85 170
85 176
85 336
85 380
85 474
85 484
85 527
85 573
85 658
85 715
85 761
85 790
85 970
86 114
86 193
86 195
86 215
86 246
86 279
86 447
86 477
86 484
86 517
86 585
86 598
86 784
86 876
86 893
86 895
86 924
87 118
87 150
87 228
87 248
87 326
87 339
87 415
87 478
87 521
87 527
87 530
87 539
87 636
87 643
87 840
87 859
87 912
87 965
87 995
88 128
88 204
88 274
88 281
88 286
88 290
88 315
88 321
88 322
88 380
88 386
88 399
88 420
88 422
88 431
88 446
88 453
88 465
88 486
88 487
88 514
88 524
88 573
88 598
88 612
88 617
88 629
88 644
88 649
88 660
88 732
88 746
88 815
88 820
88 909
88 910
88 915
88 969
88 991
88 997
89 115
89 126
89 167
89 183
89 215
89 231
89 237
89 313
89 380
89 385
89 387
89 395
89 437
89 442
89 468
89 533
89 559
89 586
89 634
89 665
89 704
89 781
89 790
89 839
89 864
89 880
89 912
89 985
90 212
90 255
90 306
90 310
90 317
90 340
90 363
90 385
90 389
90 463
90 599
90 627
90 631
90 737
90 756
90 822
90 837
90 870
90 883
90 929
91 129
91 140
91 168
91 236
91 507
91 542
91 567
91 666
91 727
91 770
91 837
91 855
91 916
91 975
92 120
92 142
92 196
92 202
92 231
92 263
92 285
92 288
92 363
92 427
92 455
92 482
92 499
92 549
92 570
92 596
92 597
92 682
92 724
92 742
92 744
92 764
92 775
92 796
92 818
92 835
92 851
92 991
93 94
93 197
93 220
93 270
93 304
93 317
93 446
93 483
93 495
93 507
93 781
93 980
93 982
94 141
94 228
94 259
94 277
94 278
94 307
94 337
94 339
94 342
94 347
94 355
94 457
94 472
94 502
94 523
94 552
94 583
94 636
94 667
94 697
94 754
94 785
94 813
94 851
94 920
94 929
94 934
95 150
95 186
95 207
95 228
95 238
95 289
95 322
95 419
95 433
95 525
95 622
95 679
95 730
95 746
95 783
95 810
95 995
96 197
96 201
96 360
96 372
96 446
96 562
96 572
96 574
96 662
96 678
96 688
96 743
96 825
96 843
96 865
96 883
96 912
96 985
97 107
97 248
97 316
97 340
97 363
97 381
97 561
97 670
97 769
97 826
97 859
97 875
97 895
97 948
97 970
97 975
97 982
98 127
98 246
98 316
98 318
98 453
98 461
98 470
98 500
98 512
98 535
98 600
98 606
98 615
98 644
98 726
98 825
98 853
98 968
98 994
98 998
99 117
99 253
99 355
99 404
99 428
99 487
99 649
99 824
99 861
99 870
99 924
99 950
99 975
100 194
100 210
100 230
100 291
100 300
100 322
100 332
100 559
100 560
100 588
100 631
100 747
100 788
100 843
100 853
100 973
101 120
101 225
101 280
101 363
101 561
101 585
101 648
101 655
101 670
101 727
101 826
101 847
101 868
101 958
101 974
102 107
102 114
102 115
102 127
102 169
102 219
102 221
102 237
102 363
102 447
102 508
102 518
102 557
102 560
102 574
102 631
102 643
102 693
102 702
102 845
102 862
102 893
102 913
102 924
102 962
102 984
102 985
102 998
103 174
103 191
103 192
103 196
103 228
103 232
103 245
103 280
103 347
103 355
103 369
103 386
103 389
103 396
103 478
103 483
103 618
103 672
103 685
103 731
103 738
103 744
103 795
103 832
103 836
103 839
103 907
103 915
103 931
103 945
103 966
103 985
104 124
104 178
104 236
104 295
104 326
104 338
104 366
104 389
104 406
104 474
104 477
104 479
104 663
104 678
104 695
104 858
104 863
104 877
104 879
104 900
104 976
105 107
105 110
105 152
105 168
105 176
105 195
105 225
105 232
105 236
105 248
105 319
105 342
105 351
105 354
105 375
105 406
105 422
105 428
105 443
105 444
105 511
105 524
105 527
105 541
105 545
105 551
105 553
105 604
105 622
105 654
105 715
105 766
105 794
105 800
105 803
105 805
105 807
105 835
105 873
105 974
106 263
106 389
106 406
106 428
106 497
106 530
106 541
106 555
106 580
106 586
106 682
106 807
106 857
106 870
106 899
106 965
106 997
107 113
107 140
107 156
107 162
107 187
107 228
107 347
107 363
107 456
107 486
107 572
107 601
107 632
107 696
107 727
107 789
107 886
107 953
107 971
107 982
107 986
108 220
108 275
108 314
108 423
108 434
108 475
108 568
108 643
108 681
108 750
108 864
108 938
108 944
108 956
108 958
108 970
108 996
109 113
109 177
109 178
109 205
109 210
109 231
109 237
109 300
109 346
109 360
109 363
109 383
109 400
109 457
109 625
109 644
109 658
109 678
109 685
109 689
109 783
109 874
109 891
109 895
109 924
109 927
109 970
109 991
110 114
110 136
110 154
110 180
110 189
110 192
110 208
110 239
110 328
110 341
110 354
110 448
110 468
110 478
110 493
110 657
110 678
110 754
110 764
110 781
110 785
110 821
110 829
110 849
110 853
110 859
110 895
110 922
110 937
110 960
110 999
111 151
111 169
111 258
111 278
111 288
111 312
111 358
111 581
111 703
111 709
111 760
111 774
111 781
111 830
111 856
111 971
111 983
112 169
112 245
112 261
112 286
112 291
112 368
112 377
112 416
112 420
112 438
112 461
112 478
112 489
112 495
112 510
112 515
112 553
112 619
112 654
112 711
112 730
112 818
112 835
112 895
112 915
112 965
112 967
112 975
113 195
113 211
113 291
113 312
113 397
113 452
113 472
113 481
113 484
113 505
113 654
113 948
113 958
114 129
114 180
114 242
114 337
114 380
114 571
114 700
114 738
114 840
114 858
114 954
115 207
115 304
115 397
115 497
115 545
115 574
115 623
115 645
115 653
115 670
115 701
115 749
115 781
115 853
115 919
115 985
115 998
116 136
116 144
116 168
116 198
116 225
116 242
116 398
116 469
116 495
116 505
116 514
116 663
116 732
116 737
116 776
116 777
116 869
116 918
116 934
116 941
116 957
116 967
116 995
117 121
117 132
117 145
117 169
117 174
117 183
117 202
117 204
117 222
117 245
117 309
117 312
117 321
117 373
117 402
117 404
117 411
117 443
117 461
117 538
117 588
117 623
117 717
117 748
117 810
117 840
117 861
117 930
117 960
118 123
118 124
118 169
118 170
118 176
118 188
118 239
118 263
118 282
118 331
118 346
118 407
118 440
118 446
118 480
118 547
118 636
118 643
118 658
118 721
118 772
118 803
118 821
118 825
118 855
118 901
118 937
118 965
118 975
118 997
119 143
119 161
119 170
119 177
119 214
119 251
119 271
119 329
119 333
119 478
119 496
119 566
119 582
119 652
119 660
119 692
119 705
119 745
119 749
119 757
119 783
119 790
119 795
119 818
119 960
120 133
120 144
120 232
120 246
120 262
120 289
120 345
120 347
120 375
120 397
120 414
120 422
120 426
120 446
120 447
120 456
120 484
120 518
120 539
120 550
120 701
120 745
120 819
120 866
120 872
120 897
120 922
121 197
121 201
121 369
121 387
121 388
121 408
121 438
121 490
121 568
121 589
121 649
121 719
121 730
121 783
121 873
121 974
121 998
122 228
122 258
122 363
122 364
122 368
122 394
122 496
122 518
122 614
122 636
122 686
122 692
122 700
122 815
122 835
122 869
122 875
122 967
122 970
123 352
123 471
123 492
123 550
123 623
123 631
123 640
123 783
124 136
124 163
124 236
124 322
124 355
124 403
124 433
124 446
124 497
124 521
124 522
124 565
124 686
124 688
124 689
124 727
124 738
124 739
124 912
124 934
124 948
124 990
125 171
125 188
125 205
125 359
125 390
125 397
125 464
125 477
125 534
125 568
125 771
125 825
125 827
125 834
125 863
125 884
125 893
125 973
126 131
126 210
126 315
126 349
126 448
126 453
126 486
126 515
126 522
126 533
126 534
126 548
126 636
126 704
126 708
126 753
126 774
126 813
126 824
126 851
126 855
126 961
127 134
127 152
127 362
127 386
127 411
127 436
127 464
127 489
127 543
127 622
127 657
127 830
127 876
127 974
128 162
128 223
128 230
128 249
128 285
128 288
128 491
128 543
128 568
128 589
128 594
128 631
128 640
128 767
128 798
128 818
128 825
128 931
128 970
129 131
129 181
129 261
129 285
129 306
129 322
129 343
129 349
129 359
129 395
129 482
129 546
129 557
129 681
129 701
129 709
129 724
129 733
129 762
129 774
129 779
129 791
129 847
129 848
129 912
129 997
130 148
130 158
130 160
130 235
130 281
130 341
130 487
130 491
130 535
130 545
130 622
130 640
130 711
130 721
130 823
130 840
130 845
130 853
130 894
130 930
131 153
131 182
131 203
131 236
131 245
131 306
131 335
131 354
131 413
131 477
131 486
131 493
131 589
131 658
131 670
131 770
131 821
131 834
131 869
131 879
131 916
131 940
131 959
131 996
131 998
132 134
132 192
132 193
132 204
132 210
132 223
132 288
132 323
132 384
132 451
132 524
132 604
132 629
132 689
132 748
132 751
132 789
132 818
132 897
132 967
132 976
132 989
132 997
133 218
133 267
133 276
133 317
133 400
133 430
133 478
133 491
133 497
133 542
133 561
133 669
133 732
133 793
133 825
133 952
133 990
134 170
134 182
134 227
134 237
134 294
134 326
134 328
134 358
134 395
134 453
134 543
134 544
134 547
134 744
134 951
134 996
135 165
135 198
135 204
135 227
135 229
135 253
135 259
135 271
135 304
135 318
135 338
135 341
135 383
135 385
135 399
135 432
135 492
135 528
135 535
135 539
135 548
135 560
135 569
135 574
135 584
135 652
135 735
135 742
135 746
135 748
135 763
135 823
135 827
135 846
135 851
135 858
135 884
135 900
135 975
136 150
136 158
136 187
136 236
136 266
136 304
136 315
136 352
136 454
136 462
136 492
136 501
136 523
136 561
136 579
136 594
136 604
136 615
136 643
136 649
136 654
136 668
136 679
136 688
136 728
136 758
136 781
136 783
136 823
136 874
136 899
136 908
136 915
136 936
136 940
136 989
136 995
137 152
137 164
137 202
137 205
137 232
137 339
137 415
137 444
137 445
137 537
137 585
137 625
137 683
137 802
137 819
137 858
137 877
137 879
137 883
137 923
137 935
138 182
138 206
138 346
138 356
138 370
138 494
138 551
138 582
138 585
138 787
138 840
138 847
138 896
138 951
138 967
138 999
139 166
139 185
139 237
139 261
139 347
139 386
139 487
139 497
139 622
139 640
139 681
139 722
139 749
139 864
139 875
139 880
139 905
139 928
139 953
140 146
140 189
140 197
140 245
140 318
140 464
140 484
140 523
140 627
140 648
140 716
140 795
140 809
140 825
141 181
141 294
141 309
141 369
141 448
141 536
141 643
141 778
141 848
141 851
141 958
141 965
141 990
141 992
142 187
142 269
142 291
142 314
142 397
142 415
142 440
142 468
142 488
142 495
142 526
142 538
142 541
142 550
142 567
142 643
142 717
142 748
142 765
142 818
142 819
142 825
142 863
142 865
142 934
142 973
143 186
143 216
143 228
143 235
143 255
143 281
143 284
143 297
143 299
143 316
143 335
143 340
143 361
143 440
143 447
143 478
143 481
143 490
143 525
143 541
143 568
143 572
143 574
143 578
143 594
143 611
143 623
143 654
143 659
143 667
143 675
143 679
143 681
143 689
143 692
143 704
143 715
143 724
143 753
143 772
143 797
143 798
143 821
143 831
143 854
143 877
143 901
143 908
143 916
143 922
143 951
143 962
143 968
143 971
143 975
143 980
143 982
144 151
144 193
144 276
144 284
144 503
144 549
144 617
144 620
144 627
144 832
144 845
144 854
144 870
144 943
144 970
145 146
145 151
145 170
145 315
145 317
145 324
145 362
145 363
145 364
145 380
145 383
145 388
145 456
145 516
145 542
145 552
145 616
145 617
145 618
145 777
145 781
145 824
145 860
145 951
145 981
146 147
146 231
146 237
146 239
146 240
146 255
146 265
146 385
146 395
146 409
146 459
146 486
146 547
146 555
146 606
146 623
146 626
146 628
146 631
146 643
146 722
146 729
146 804
146 812
146 841
146 849
146 859
146 867
146 914
147 152
147 202
147 251
147 303
147 316
147 318
147 428
147 470
147 530
147 541
147 728
147 792
147 815
147 837
147 868
147 910
148 210
148 228
148 302
148 369
148 428
148 484
148 584
148 620
148 624
148 648
148 676
148 679
148 716
148 720
148 736
148 809
148 828
148 864
148 886
148 929
149 167
149 187
149 191
149 302
149 307
149 343
149 446
149 465
149 529
149 567
149 689
149 774
149 805
149 838
149 861
149 897
149 973
149 991
149 996
150 169
150 195
150 200
150 223
150 225
150 228
150 235
150 239
150 257
150 267
150 269
150 271
150 361
150 369
150 400
150 403
150 404
150 416
150 511
150 516
150 556
150 567
150 574
150 580
150 635
150 643
150 644
150 676
150 689
150 694
150 727
150 729
150 758
150 783
150 803
150 836
150 846
150 874
150 909
150 964
150 982
151 191
151 207
151 313
151 351
151 362
151 384
151 388
151 476
151 541
151 593
151 622
151 631
151 635
151 636
151 689
151 709
151 773
151 775
151 825
151 840
151 879
151 930
151 965
152 171
152 186
152 190
152 242
152 244
152 268
152 272
152 277
152 311
152 333
152 340
152 351
152 360
152 379
152 441
152 495
152 509
152 520
152 550
152 576
152 628
152 633
152 708
152 723
152 764
152 772
152 821
152 844
152 859
152 874
152 987
153 154
153 158
153 167
153 195
153 225
153 275
153 292
153 301
153 333
153 335
153 365
153 395
153 469
153 516
153 606
153 627
153 631
153 657
153 684
153 883
153 893
153 974
153 987
154 169
154 189
154 210
154 218
154 383
154 530
154 631
154 648
154 681
154 737
154 807
154 832
154 907
154 933
154 937
154 945
154 974
155 170
155 175
155 186
155 197
155 206
155 251
155 275
155 388
155 448
155 455
155 517
155 538
155 611
155 623
155 636
155 654
155 730
155 759
155 811
155 826
155 960
156 282
156 344
156 348
156 349
156 396
156 397
156 477
156 486
156 587
156 597
156 608
156 614
156 634
156 695
156 698
156 721
156 864
156 885
157 197
157 207
157 236
157 374
157 386
157 423
157 425
157 469
157 620
157 645
157 662
157 692
157 719
157 770
157 810
157 815
157 837
157 970
157 987
158 162
158 234
158 240
158 248
158 265
158 310
158 322
158 387
158 435
158 452
158 456
158 461
158 464
158 469
158 571
158 606
158 632
158 648
158 722
158 727
158 788
158 795
158 808
158 884
158 894
158 919
158 967
158 979
158 999
159 201
159 271
159 289
159 397
159 550
159 581
159 591
159 598
159 618
159 774
159 809
159 813
159 873
159 874
160 225
160 228
160 326
160 334
160 359
160 436
160 480
160 673
160 691
160 719
160 755
160 777
160 787
160 885
160 925
160 940
160 957
161 190
161 460
161 502
161 736
161 741
161 791
161 830
162 175
162 214
162 318
162 326
162 358
162 363
162 372
162 379
162 385
162 420
162 428
162 435
162 476
162 481
162 483
162 486
162 548
162 562
162 608
162 631
162 646
162 679
162 721
162 779
162 794
162 822
162 847
162 867
162 955
163 192
163 215
163 275
163 355
163 505
163 509
163 541
163 571
163 588
163 599
163 617
163 621
163 632
163 663
163 697
163 708
163 835
163 855
163 859
163 935
163 973
164 308
164 326
164 380
164 413
164 437
164 439
164 477
164 493
164 587
164 619
164 674
164 848
164 886
165 170
165 236
165 307
165 416
165 424
165 429
165 479
165 546
165 559
165 584
165 604
165 606
165 611
165 636
165 661
165 668
165 692
165 702
165 791
165 848
165 948
165 983
165 988
166 167
166 271
166 277
166 329
166 356
166 473
166 484
166 489
166 613
166 638
166 648
166 663
166 737
166 842
166 852
166 899
166 970
166 981
167 170
167 174
167 188
167 260
167 278
167 324
167 340
167 344
167 408
167 480
167 488
167 515
167 545
167 566
167 592
167 606
167 617
167 624
167 635
167 651
167 666
167 696
167 732
167 740
167 757
167 774
167 789
167 797
167 821
167 826
167 845
167 849
167 855
167 872
167 874
167 877
167 905
167 915
167 918
167 937
167 979
168 174
168 181
168 237
168 257
168 271
168 301
168 323
168 332
168 344
168 369
168 381
168 412
168 432
168 474
168 476
168 519
168 526
168 530
168 571
168 585
168 657
168 699
168 778
168 794
168 796
168 831
168 859
168 884
168 954
169 178
169 179
169 197
169 202
169 212
169 218
169 221
169 245
169 259
169 268
169 275
169 294
169 312
169 323
169 327
169 351
169 366
169 368
169 491
169 492
169 497
169 510
169 515
169 519
169 523
169 538
169 551
169 576
169 583
169 588
169 606
169 623
169 645
169 651
169 657
169 661
169 672
169 710
169 715
169 738
169 771
169 787
169 835
169 842
169 844
169 861
169 898
169 901
169 937
169 984
169 988
169 990
169 998
170 177
170 178
170 184
170 194
170 208
170 213
170 221
170 253
170 259
170 276
170 284
170 292
170 316
170 326
170 333
170 334
170 335
170 341
170 343
170 361
170 362
170 367
170 380
170 382
170 391
170 419
170 423
170 427
170 436
170 446
170 451
170 457
170 482
170 491
170 503
170 516
170 532
170 555
170 600
170 602
170 623
170 642
170 654
170 657
170 665
170 672
170 684
170 685
170 714
170 740
170 756
170 781
170 784
170 791
170 809
170 820
170 826
170 828
170 833
170 845
170 860
170 861
170 866
170 870
170 885
170 921
170 929
170 946
170 975
171 202
171 280
171 328
171 427
171 515
171 635
171 763
171 809
171 981
171 987
172 200
172 210
172 307
172 377
172 606
172 711
172 726
172 977
173 205
173 212
173 266
173 492
173 632
173 655
173 669
173 692
173 757
173 838
173 848
173 880
173 887
174 228
174 248
174 291
174 328
174 347
174 359
174 447
174 501
174 517
174 645
174 886
174 955
175 215
175 219
175 229
175 269
175 358
175 375
175 395
175 414
175 419
175 426
175 436
175 526
175 560
175 613
175 623
175 656
175 772
175 802
175 806
175 820
175 832
175 843
175 848
175 925
175 965
176 182
176 221
176 341
176 394
176 397
176 418
176 434
176 456
176 476
176 576
176 621
176 718
176 774
176 833
176 835
176 839
176 859
177 180
177 196
177 205
177 247
177 254
177 304
177 305
177 319
177 386
177 454
177 465
177 481
177 548
177 562
177 598
177 637
177 658
177 669
177 742
177 743
177 772
177 776
177 803
177 823
177 825
177 855
177 952
178 181
178 182
178 185
178 207
178 215
178 284
178 289
178 291
178 297
178 337
178 362
178 402
178 413
178 434
178 438
178 542
178 550
178 582
178 597
178 606
178 611
178 613
178 619
178 623
178 630
178 631
178 691
178 692
178 698
178 721
178 810
178 815
178 847
179 180
179 376
179 463
179 563
179 645
179 683
179 732
179 848
179 865
179 868
180 216
180 266
180 277
180 288
180 291
180 305
180 326
180 349
180 434
180 471
180 484
180 561
180 623
180 626
180 638
180 642
180 652
180 689
180 690
180 697
180 721
180 735
180 813
180 864
180 870
180 875
180 934
180 951
180 988
181 185
181 231
181 252
181 270
181 283
181 295
181 307
181 361
181 363
181 445
181 484
181 502
181 547
181 571
181 634
181 734
181 748
181 791
181 855
181 879
181 950
181 958
181 989
182 259
182 270
182 307
182 312
182 332
182 345
182 369
182 423
182 524
182 565
182 574
182 601
182 686
182 705
182 748
182 775
182 791
182 826
182 916
182 934
182 958
183 209
183 240
183 305
183 341
183 423
183 429
183 456
183 517
183 540
183 550
183 606
183 632
183 649
183 658
183 663
183 693
183 704
183 716
183 748
183 843
183 918
183 920
183 936
183 946
183 947
183 959
183 969
183 987
184 202
184 206
184 208
184 229
184 254
184 282
184 355
184 393
184 404
184 410
184 484
184 590
184 600
184 622
184 643
184 688
184 710
184 714
184 730
184 759
184 830
184 858
184 957
184 964
184 969
184 990
185 215
185 245
185 266
185 379
185 410
185 459
185 503
185 656
185 666
185 696
185 708
185 772
185 776
185 779
185 818
185 937
185 975
186 223
186 252
186 260
186 333
186 355
186 373
186 375
186 378
186 424
186 430
186 476
186 577
186 622
186 648
186 663
186 715
186 737
186 761
186 783
186 838
186 887
186 897
186 942
186 946
186 979
187 259
187 295
187 329
187 356
187 488
187 576
187 596
187 648
187 698
187 701
187 713
187 761
187 781
187 783
187 919
187 939
187 963
187 996
187 998
188 226
188 258
188 321
188 335
188 380
188 402
188 403
188 470
188 499
188 520
188 613
188 775
188 776
188 820
188 872
188 905
188 978
189 219
189 276
189 307
189 314
189 339
189 376
189 416
189 473
189 517
189 593
189 639
189 649
189 727
189 745
189 808
189 875
189 911
189 915
189 962
189 976
190 245
190 254
190 322
190 401
190 521
190 535
190 652
190 669
190 685
190 897
190 998
191 269
191 386
191 393
191 397
191 432
191 447
191 460
191 476
191 549
191 606
191 682
191 688
191 720
191 756
191 787
191 792
191 825
191 834
191 851
191 939
191 943
192 268
192 405
192 574
192 635
192 637
192 754
192 761
192 785
192 787
192 809
192 838
192 887
192 895
192 937
192 972
193 202
193 215
193 228
193 309
193 317
193 341
193 366
193 433
193 538
193 561
193 571
193 636
193 701
193 832
193 847
193 955
194 273
194 286
194 295
194 343
194 377
194 386
194 453
194 537
194 559
194 586
194 588
194 590
194 643
194 698
194 730
194 775
194 808
194 823
194 846
194 935
194 966
194 991
195 201
195 258
195 270
195 271
195 368
195 428
195 462
195 480
195 508
195 526
195 561
195 592
195 611
195 645
195 650
195 691
195 693
195 710
195 744
195 758
195 875
195 903
195 929
195 935
195 939
195 986
196 197
196 239
196 258
196 260
196 280
196 372
196 393
196 457
196 489
196 527
196 533
196 580
196 659
196 712
196 775
196 846
196 853
196 863
196 880
196 895
196 908
196 941
196 962
197 277
197 592
197 606
197 680
197 681
197 683
197 713
197 737
197 757
197 784
197 859
197 874
197 985
197 986
198 232
198 245
198 325
198 462
198 528
198 617
198 648
198 680
198 761
198 780
198 784
198 802
198 829
198 848
198 884
199 202
199 228
199 251
199 276
199 277
199 366
199 474
199 614
199 734
199 792
199 943
200 231
200 245
200 392
200 394
200 399
200 533
200 534
200 788
200 824
200 885
200 948
200 955
201 211
201 237
201 255
201 330
201 338
201 350
201 379
201 382
201 389
201 394
201 397
201 412
201 415
201 420
201 423
201 456
201 475
201 479
201 480
201 490
201 543
201 555
201 577
201 588
201 592
201 593
201 639
201 654
201 674
201 678
201 699
201 708
201 721
201 727
201 780
201 784
201 801
201 826
201 859
201 865
201 913
201 933
201 935
201 974
201 985
201 987
202 251
202 275
202 302
202 306
202 327
202 329
202 353
202 408
202 412
202 439
202 453
202 457
202 463
202 472
202 482
202 517
202 541
202 553
202 603
202 623
202 661
202 681
202 724
202 744
202 756
202 764
202 782
202 802
202 818
202 906
202 924
202 946
202 968
202 974
202 982
202 985
203 212
203 258
203 276
203 277
203 312
203 342
203 354
203 374
203 436
203 456
203 519
203 623
203 681
203 717
203 727
203 731
203 855
203 893
203 906
203 914
203 998
204 219
204 231
204 241
204 245
204 300
204 350
204 377
204 440
204 472
204 520
204 534
204 536
204 595
204 611
204 713
204 791
204 865
204 887
204 908
204 929
204 932
204 954
204 965
204 980
204 992
204 998
205 235
205 299
205 337
205 499
205 532
205 572
205 610
205 612
205 620
205 627
205 630
205 645
205 672
205 691
205 698
205 701
205 725
205 745
205 749
205 776
205 843
205 854
205 927
205 935
205 946
205 979
206 227
206 249
206 292
206 299
206 358
206 362
206 364
206 380
206 411
206 566
206 594
206 638
206 651
206 680
206 708
206 716
206 744
206 845
206 881
206 915
206 936
206 940
206 949
206 981
206 989
206 992
206 993
207 208
207 244
207 348
207 372
207 414
207 421
207 559
207 585
207 636
207 935
207 965
208 238
208 248
208 307
208 313
208 321
208 329
208 365
208 405
208 463
208 541
208 592
208 693
208 697
208 832
209 215
209 226
209 277
209 315
209 343
209 357
209 362
209 446
209 448
209 466
209 501
209 636
209 671
209 848
209 903
209 908
209 923
209 938
209 948
209 955
209 995
210 236
210 524
210 552
210 559
210 577
210 623
210 677
210 681
210 846
210 895
210 963
211 217
211 279
211 444
211 453
211 478
211 623
211 723
211 761
211 818
211 880
211 898
211 978
211 995
212 322
212 334
212 359
212 364
212 391
212 447
212 456
212 577
212 600
212 635
212 668
212 681
212 705
212 758
212 789
212 814
212 879
212 933
212 980
213 287
213 333
213 342
213 347
213 370
213 421
213 441
213 451
213 516
213 517
213 625
213 680
213 698
213 775
213 782
213 889
213 890
213 894
213 928
213 965
214 234
214 335
214 431
214 478
214 479
214 537
214 604
214 749
215 243
215 259
215 279
215 286
215 317
215 321
215 340
215 381
215 399
215 423
215 579
215 588
215 590
215 666
215 683
215 690
215 692
215 707
215 714
215 772
215 776
215 792
215 802
215 879
215 937
215 999
216 238
216 278
216 329
216 477
216 488
216 631
216 680
216 711
216 721
216 726
216 936
217 277
217 362
217 457
217 519
217 592
217 650
217 653
217 683
217 702
217 952
217 990
218 360
218 362
218 431
218 577
218 745
218 764
218 804
218 805
218 808
218 955
219 235
219 244
219 245
219 250
219 259
219 277
219 280
219 305
219 310
219 329
219 386
219 396
219 401
219 416
219 501
219 546
219 550
219 559
219 568
219 572
219 608
219 692
219 716
219 741
219 793
219 893
219 981
219 988
220 273
220 318
220 486
220 531
220 536
220 551
220 563
220 629
220 679
220 716
220 725
220 801
220 811
220 896
220 965
220 986
221 230
221 251
221 276
221 294
221 353
221 380
221 405
221 423
221 456
221 529
221 534
221 643
221 653
221 720
221 740
221 775
221 802
221 866
221 990
222 231
222 369
222 430
222 431
222 455
222 541
222 559
222 682
222 748
222 818
222 875
222 882
222 915
222 918
223 253
223 304
223 347
223 394
223 401
223 438
223 454
223 565
223 610
223 615
223 646
223 669
223 705
223 748
223 851
223 874
223 895
223 970
223 973
223 982
223 988
224 291
224 464
224 482
224 484
224 624
224 627
224 780
224 825
224 826
224 832
224 893
224 965
224 972
224 975
225 236
225 260
225 271
225 284
225 309
225 310
225 355
225 371
225 436
225 463
225 502
225 509
225 527
225 545
225 574
225 614
225 636
225 658
225 665
225 670
225 671
225 682
225 688
225 715
225 806
225 830
225 870
225 885
225 904
225 952
225 986
226 314
226 354
226 521
226 636
226 721
226 723
226 729
226 848
226 894
226 935
227 237
227 245
227 248
227 285
227 374
227 440
227 489
227 522
227 535
227 627
227 657
227 682
227 771
227 825
227 876
227 919
228 237
228 241
228 261
228 269
228 313
228 326
228 353
228 365
228 373
228 380
228 447
228 458
228 484
228 495
228 500
228 503
228 522
228 529
228 547
228 562
228 574
228 582
228 615
228 618
228 621
228 638
228 645
228 661
228 665
228 701
228 707
228 773
228 788
228 793
228 797
228 819
228 836
228 837
228 855
228 857
228 870
228 888
228 889
228 893
228 895
228 917
228 918
228 922
228 933
228 937
228 999
229 230
229 253
229 371
229 403
229 412
229 523
229 536
229 639
229 653
229 676
229 757
229 771
229 852
229 880
229 903
229 910
230 254
230 284
230 292
230 307
230 325
230 333
230 342
230 377
230 423
230 434
230 498
230 674
230 756
230 766
230 825
230 852
230 996
231 356
231 374
231 377
231 517
231 541
231 584
231 606
231 611
231 663
231 670
231 781
232 269
232 315
232 566
232 643
232 838
232 901
232 973
233 245
233 293
233 336
233 340
233 341
233 370
233 373
233 387
233 397
233 422
233 423
233 469
233 559
233 574
233 598
233 635
233 636
233 645
233 705
233 835
233 859
233 959
233 965
233 975
233 998
234 326
234 355
234 421
234 464
234 665
234 741
234 796
234 863
234 871
234 906
234 990
235 316
235 460
235 487
235 592
235 605
235 610
235 635
235 781
235 859
235 877
235 893
235 965
236 241
236 244
236 256
236 267
236 274
236 288
236 326
236 335
236 347
236 363
236 418
236 447
236 457
236 488
236 492
236 495
236 512
236 518
236 539
236 544
236 557
236 562
236 581
236 626
236 637
236 650
236 708
236 709
236 724
236 788
236 791
236 836
236 846
236 875
236 881
236 971
236 976
237 252
237 270
237 282
237 307
237 311
237 327
237 349
237 394
237 410
237 413
237 418
237 420
237 435
237 473
237 474
237 477
237 485
237 489
237 493
237 534
237 607
237 672
237 686
237 688
237 708
237 711
237 714
237 715
237 725
237 809
237 826
237 835
237 874
237 902
237 924
237 932
237 946
237 948
237 967
237 978
237 994
237 997
238 279
238 321
238 380
238 391
238 398
238 445
238 470
238 513
238 529
238 654
238 716
238 745
238 828
238 847
238 853
238 938
238 982
239 344
239 458
239 518
239 541
239 705
239 810
239 899
239 941
240 382
240 469
240 476
240 690
240 704
240 721
240 723
240 809
240 855
240 943
240 963
240 983
240 998
241 305
241 380
241 559
241 637
241 712
241 731
241 761
241 845
241 861
241 895
241 910
241 921
241 923
241 958
242 245
242 270
242 286
242 319
242 390
242 449
242 463
242 468
242 485
242 611
242 642
242 646
242 705
242 706
242 800
242 809
242 817
242 825
242 860
242 864
243 251
243 269
243 324
243 358
243 428
243 436
243 486
243 489
243 491
243 626
243 636
243 694
243 695
243 806
244 245
244 254
244 281
244 289
244 299
244 314
244 402
244 404
244 418
244 427
244 443
244 463
244 559
244 648
244 663
244 679
244 781
244 958
244 984
245 269
245 276
245 279
245 293
245 297
245 310
245 312
245 347
245 351
245 354
245 355
245 363
245 376
245 378
245 379
245 385
245 466
245 471
245 472
245 473
245 479
245 484
245 486
245 487
245 507
245 510
245 512
245 519
245 523
245 534
245 550
245 551
245 578
245 589
245 595
245 599
245 620
245 645
245 650
245 667
245 675
245 683
245 684
245 704
245 711
245 716
245 719
245 725
245 729
245 731
245 763
245 764
245 769
245 771
245 775
245 790
245 793
245 824
245 845
245 846
245 877
245 881
245 909
245 946
245 962
245 985
245 990
245 997
246 300
246 414
246 428
246 435
246 513
246 549
246 632
246 671
246 720
246 764
246 858
246 888
246 933
247 271
247 322
247 330
247 366
247 537
247 643
247 663
247 675
247 784
247 864
247 866
247 892
248 250
248 259
248 262
248 289
248 336
248 360
248 382
248 429
248 441
248 446
248 461
248 482
248 517
248 536
248 544
248 625
248 647
248 653
248 669
248 690
248 739
248 748
248 761
248 827
248 829
248 838
248 852
248 884
248 924
248 940
248 965
248 989
248 996
248 998
249 294
249 381
249 396
249 542
249 557
249 582
249 620
249 636
249 715
249 769
249 825
249 918
249 923
249 967
250 275
250 312
250 372
250 375
250 392
250 406
250 407
250 416
250 464
250 504
250 519
250 676
250 715
250 732
250 828
250 844
250 848
250 868
250 931
250 955
251 329
251 363
251 376
251 480
251 489
251 509
251 604
251 642
251 812
251 818
251 864
251 887
251 925
251 948
251 995
252 261
252 277
252 278
252 321
252 325
252 342
252 372
252 478
252 530
252 559
252 573
252 602
252 639
252 645
252 738
253 271
253 294
253 327
253 370
253 384
253 472
253 484
253 529
253 557
253 596
253 622
253 628
253 666
253 682
253 708
253 730
253 802
253 833
253 882
253 925
253 966
253 986
254 334
254 351
254 371
254 380
254 396
254 447
254 538
254 606
254 643
254 645
254 650
254 713
254 721
254 732
254 750
254 803
254 855
254 874
254 921
254 986
255 286
255 355
255 461
255 575
255 601
255 667
255 708
255 770
255 781
255 874
255 899
255 949
255 959
255 975
256 293
256 307
256 412
256 479
256 508
256 511
256 540
256 543
256 592
256 798
256 874
256 987
256 997
257 328
257 337
257 373
257 393
257 414
257 415
257 428
257 582
257 611
257 644
257 661
257 739
257 777
257 800
257 832
257 840
257 862
257 873
257 886
257 910
257 929
257 953
257 974
258 268
258 311
258 390
258 395
258 431
258 446
258 502
258 528
258 577
258 618
258 658
258 757
258 877
258 898
258 947
258 972
258 987
259 279
259 283
259 303
259 307
259 333
259 384
259 385
259 498
259 584
259 585
259 682
259 739
259 760
259 813
259 825
259 838
259 910
259 917
259 922
259 958
259 967
260 322
260 339
260 369
260 486
260 527
260 648
260 687
260 818
260 864
260 895
260 985
261 269
261 277
261 307
261 357
261 410
261 623
261 639
261 659
261 674
261 693
261 721
261 763
261 944
261 970
261 974
262 290
262 464
262 530
262 623
262 676
262 841
262 900
262 912
262 928
262 940
262 965
263 277
263 315
263 386
263 443
263 451
263 488
263 627
263 637
263 668
263 895
263 971
263 984
264 291
264 347
264 380
264 531
264 559
264 648
264 821
264 905
264 938
264 953
264 982
265 266
265 314
265 355
265 509
265 518
265 530
265 541
265 566
265 580
265 581
265 688
265 977
266 295
266 318
266 329
266 462
266 511
266 545
266 569
266 592
266 621
266 644
266 650
266 655
266 656
266 658
266 716
266 735
266 768
266 809
266 836
266 845
266 855
266 887
266 899
266 931
266 955
266 974
267 348
267 559
267 660
267 720
267 806
267 909
267 975
267 984
268 291
268 363
268 380
268 424
268 580
268 607
268 675
268 765
268 874
268 885
269 314
269 402
269 407
269 431
269 486
269 517
269 540
269 580
269 639
269 661
269 688
269 701
269 727
269 754
269 785
269 942
269 965
269 969
269 972
269 974
269 987
269 992
270 369
270 497
270 535
270 594
270 655
270 761
270 825
270 884
271 272
271 274
271 280
271 346
271 406
271 525
271 567
271 591
271 603
271 622
271 651
271 675
271 689
271 704
271 705
271 732
271 738
271 739
271 746
271 772
271 785
271 792
271 841
271 880
271 881
271 918
271 933
271 952
271 954
271 957
271 969
271 981
271 995
272 350
272 394
272 412
272 423
272 506
272 528
272 535
272 536
272 600
272 622
272 657
272 779
272 788
272 810
272 897
272 915
272 934
272 935
272 982
273 291
273 314
273 346
273 355
273 362
273 447
273 483
273 574
273 682
273 689
273 798
273 965
274 277
274 432
274 446
274 454
274 466
274 471
274 563
274 595
274 607
274 623
274 647
274 683
274 800
274 940
274 970
274 995
275 283
275 291
275 364
275 498
275 544
275 707
275 715
275 744
275 789
276 286
276 300
276 307
276 313
276 330
276 454
276 489
276 580
276 619
276 637
276 642
276 667
276 682
276 764
276 812
276 826
276 876
276 894
276 932
276 952
276 961
276 997
277 299
277 317
277 321
277 339
277 342
277 355
277 367
277 373
277 384
277 435
277 437
277 441
277 456
277 470
277 508
277 519
277 551
277 555
277 565
277 588
277 595
277 621
277 622
277 630
277 633
277 648
277 665
277 673
277 683
277 708
277 759
277 763
277 771
277 822
277 833
277 837
277 859
277 867
277 874
277 902
277 903
277 957
278 348
278 349
278 457
278 468
278 475
278 570
278 754
278 795
278 800
278 905
278 987
279 303
279 399
279 454
279 456
279 517
279 530
279 573
279 575
279 583
279 589
279 598
279 614
279 622
279 623
279 699
279 700
279 712
279 730
279 735
279 741
279 750
279 800
279 858
279 866
279 868
279 898
279 959
279 965
279 982
280 294
280 384
280 396
280 397
280 445
280 492
280 529
280 574
280 587
280 613
280 629
280 651
280 708
280 743
280 895
281 291
281 307
281 355
281 504
281 523
281 525
281 826
281 972
281 973
282 290
282 300
282 307
282 423
282 475
282 505
282 539
282 587
282 655
282 680
282 700
282 711
282 759
282 778
282 851
282 896
282 925
283 312
283 314
283 325
283 355
283 477
283 528
283 580
283 864
283 887
283 894
283 895
283 986
284 414
284 428
284 466
284 683
284 713
284 739
284 786
284 926
284 947
285 332
285 602
285 698
285 792
286 289
286 294
286 370
286 451
286 553
286 586
286 622
286 631
286 648
286 740
286 771
286 905
286 948
287 294
287 317
287 335
287 341
287 343
287 346
287 389
287 392
287 397
287 483
287 538
287 539
287 558
287 653
287 708
287 739
287 744
287 770
287 810
287 837
287 893
287 912
287 942
287 954
287 970
288 351
288 382
288 423
288 462
288 472
288 483
288 485
288 514
288 530
288 657
288 686
288 859
288 874
288 896
288 921
289 291
289 305
289 327
289 342
289 353
289 438
289 452
289 463
289 475
289 494
289 510
289 526
289 532
289 559
289 566
289 603
289 620
289 635
289 643
289 670
289 685
289 704
289 726
289 730
289 878
289 895
289 953
289 976
290 358
290 370
290 542
290 621
290 681
290 684
290 838
290 858
290 958
290 988
291 293
291 369
291 372
291 379
291 380
291 384
291 411
291 421
291 443
291 470
291 473
291 479
291 483
291 499
291 505
291 517
291 522
291 524
291 532
291 536
291 553
291 563
291 567
291 570
291 574
291 600
291 625
291 626
291 630
291 638
291 644
291 646
291 651
291 660
291 667
291 678
291 681
291 694
291 695
291 715
291 725
291 790
291 792
291 793
291 794
291 801
291 816
291 848
291 854
291 872
291 889
291 893
291 899
291 903
291 905
291 934
291 936
291 940
291 959
291 970
291 982
292 399
292 415
292 422
292 446
292 477
292 510
292 523
292 524
292 599
292 613
292 625
292 658
292 663
292 713
292 727
292 733
292 760
292 786
292 798
292 867
292 975
292 982
292 994
293 331
293 354
293 362
293 403
293 468
293 501
293 506
293 514
293 525
293 560
293 575
293 689
293 699
293 710
293 717
293 775
293 785
293 809
293 826
293 949
293 974
293 980
293 998
294 295
294 302
294 368
294 374
294 376
294 385
294 409
294 444
294 462
294 496
294 525
294 566
294 573
294 580
294 584
294 613
294 623
294 642
294 648
294 667
294 704
294 746
294 815
294 866
294 882
294 899
294 920
294 928
294 985
294 992
295 306
295 433
295 545
295 633
295 640
295 648
295 673
295 702
295 737
295 741
295 863
295 887
295 955
295 965
295 995
296 318
296 447
296 456
296 520
296 576
296 584
296 604
296 874
296 887
296 914
296 937
296 974
296 992
297 315
297 393
297 402
297 439
297 545
297 632
297 701
297 711
297 788
297 796
297 826
297 848
297 863
297 963
297 983
297 991
297 999
298 335
298 449
298 472
298 486
298 561
298 581
298 667
298 671
298 674
298 705
298 718
298 767
298 801
298 827
298 866
298 942
298 943
298 965
299 352
299 363
299 372
299 422
299 477
299 488
299 569
299 623
299 627
299 689
299 736
299 747
299 836
299 851
299 858
299 864
299 866
299 895
299 926
300 310
300 347
300 383
300 400
300 429
300 452
300 492
300 515
300 519
300 524
300 613
300 619
300 795
300 880
300 956
300 998
301 330
301 460
301 484
301 679
301 721
301 846
301 863
301 906
301 959
302 306
302 397
302 400
302 510
302 618
302 663
302 708
302 754
302 828
302 832
302 895
302 908
302 912
302 929
302 959
303 310
303 315
303 327
303 361
303 472
303 635
303 688
303 792
303 857
303 940
303 948
304 424
304 427
304 471
304 670
304 771
304 781
304 845
305 355
305 418
305 451
305 476
305 591
305 606
305 653
305 716
305 721
305 724
305 787
305 803
305 828
305 879
305 975
305 996
306 464
306 577
306 586
306 653
306 825
306 841
306 923
307 327
307 348
307 410
307 480
307 504
307 519
307 536
307 594
307 623
307 682
307 692
307 730
307 754
307 758
307 818
307 825
307 869
307 945
307 982
307 983
308 402
308 420
308 473
308 486
308 552
308 697
308 868
308 900
308 910
309 354
309 385
309 425
309 431
309 530
309 622
309 624
309 632
309 695
309 708
309 715
309 722
309 728
309 764
309 777
309 853
309 874
309 879
309 893
309 907
309 952
309 981
310 353
310 356
310 399
310 483
310 510
310 540
310 567
310 628
310 775
310 817
310 935
311 340
311 341
311 354
311 482
311 559
311 580
311 617
311 636
311 641
311 661
311 688
311 743
311 797
311 800
311 826
311 915
311 927
311 977
311 995
312 342
312 391
312 392
312 435
312 468
312 493
312 546
312 575
312 580
312 587
312 620
312 627
312 662
312 705
312 724
312 793
312 832
312 845
312 868
312 893
312 932
312 947
312 948
312 958
312 998
313 341
313 348
313 375
313 416
313 514
313 523
313 620
313 665
313 669
313 807
313 875
313 935
313 958
314 331
314 341
314 353
314 374
314 383
314 415
314 469
314 479
314 549
314 554
314 558
314 563
314 588
314 592
314 608
314 707
314 740
314 770
314 819
314 845
314 870
314 935
314 959
315 330
315 376
315 380
315 383
315 435
315 456
315 464
315 534
315 584
315 653
315 680
315 689
315 691
315 736
315 741
315 742
315 764
315 800
315 808
315 809
315 823
315 841
315 894
315 941
315 963
315 988
316 335
316 428
316 513
316 528
316 554
316 635
316 758
316 769
316 983
317 388
317 436
317 439
317 468
317 484
317 486
317 487
317 545
317 655
317 707
317 768
317 787
317 793
317 808
317 842
317 881
317 895
317 908
317 911
317 931
317 933
317 936
317 947
317 967
317 968
317 975
318 340
318 381
318 413
318 423
318 431
318 452
318 467
318 469
318 492
318 499
318 500
318 505
318 513
318 566
318 644
318 730
318 732
318 734
318 753
318 805
318 807
318 826
318 837
318 852
318 884
318 898
318 916
318 921
318 968
318 986
318 993
319 325
319 576
319 590
319 666
319 755
319 818
319 879
319 935
319 975
320 331
320 373
320 476
320 516
320 556
320 636
320 648
320 752
320 818
320 933
321 339
321 397
321 490
321 552
321 568
321 575
321 586
321 623
321 648
321 666
321 670
321 713
321 802
321 825
321 833
321 925
321 960
321 982
322 329
322 332
322 371
322 385
322 393
322 442
322 443
322 445
322 451
322 456
322 486
322 505
322 527
322 571
322 583
322 592
322 605
322 607
322 639
322 658
322 686
322 688
322 690
322 723
322 755
322 764
322 781
322 794
322 806
322 821
322 823
322 876
322 925
322 930
322 931
322 977
322 983
322 986
322 989
323 410
323 418
323 453
323 473
323 527
323 622
323 624
323 636
323 723
323 811
323 825
323 855
323 857
324 380
324 397
324 433
324 483
324 545
324 578
324 606
324 638
324 692
324 750
324 755
324 853
325 377
325 419
325 663
325 724
325 727
325 784
325 857
326 354
326 377
326 462
326 479
326 493
326 696
326 727
326 751
326 845
326 863
326 867
326 885
326 891
326 904
326 949
327 372
327 402
327 557
327 565
327 579
327 596
327 757
327 781
327 805
327 855
327 878
327 938
328 423
328 427
328 430
328 464
328 513
328 515
328 524
328 535
328 540
328 566
328 697
328 730
328 764
328 800
328 817
328 854
328 921
328 928
328 948
328 994
329 488
329 496
329 541
329 560
329 593
329 605
329 631
329 661
329 680
329 705
329 717
329 816
329 822
329 838
329 844
329 874
329 967
330 364
330 416
330 486
330 530
330 609
330 624
330 658
330 732
330 912
330 915
330 923
330 945
330 951
330 984
330 986
331 487
331 541
331 571
331 580
331 599
331 633
331 646
331 681
331 736
331 764
331 821
331 853
331 916
331 920
331 983
332 354
332 397
332 475
332 571
332 623
332 682
332 687
332 956
332 957
333 383
333 425
333 429
333 462
333 486
333 528
333 540
333 551
333 569
333 626
333 630
333 680
333 681
333 772
333 948
333 973
334 421
334 427
334 499
334 523
334 534
334 585
334 636
334 680
334 788
334 883
334 887
335 409
335 480
335 496
335 563
335 589
335 698
335 721
335 790
335 810
335 839
335 874
335 889
335 895
335 945
335 965
336 386
336 602
336 664
336 705
336 810
336 820
336 863
336 928
336 931
337 347
337 435
337 484
337 499
337 552
337 590
337 603
337 653
337 915
338 360
338 412
338 431
338 477
338 624
338 669
338 787
338 793
338 898
338 957
338 982
339 345
339 363
339 380
339 477
339 525
339 526
339 592
339 594
339 606
339 623
339 647
339 784
339 828
339 844
339 866
339 906
339 907
339 945
339 952
339 971
339 985
340 353
340 410
340 433
340 492
340 512
340 519
340 540
340 560
340 581
340 632
340 647
340 664
340 690
340 734
340 790
340 807
340 809
340 823
340 849
340 850
340 894
340 915
340 920
340 950
340 975
340 996
341 361
341 381
341 425
341 476
341 539
341 552
341 606
341 618
341 659
341 773
341 828
341 903
341 945
341 947
341 960
341 965
342 380
342 453
342 484
342 504
342 519
342 523
342 559
342 573
342 576
342 631
342 642
342 677
342 740
342 786
342 805
342 847
342 878
342 986
343 484
343 487
343 501
343 556
343 568
343 658
343 775
343 791
343 928
344 366
344 479
344 512
344 541
344 584
344 678
344 679
344 721
344 755
344 758
344 762
344 796
344 821
344 857
344 870
344 911
344 947
345 432
345 478
345 502
345 561
345 591
345 622
345 684
345 699
345 736
345 855
346 364
346 392
346 402
346 434
346 450
346 457
346 542
346 569
346 575
346 628
346 743
346 749
346 812
346 814
346 848
346 862
346 880
346 946
346 965
347 369
347 380
347 428
347 439
347 448
347 453
347 474
347 482
347 486
347 500
347 614
347 772
347 793
347 801
347 826
347 890
347 912
347 979
347 985
348 501
348 507
348 559
348 628
348 652
348 689
348 743
348 808
348 825
348 872
348 880
348 929
348 958
349 386
349 410
349 428
349 476
349 746
349 883
349 975
350 457
350 484
350 550
350 559
350 598
350 619
350 648
350 690
350 700
350 813
350 885
350 892
350 902
350 973
350 981
351 628
351 795
351 798
351 965
352 386
352 459
352 512
352 561
352 582
352 648
352 825
352 913
352 928
352 973
353 539
353 576
353 584
353 658
353 700
353 758
353 770
353 825
353 832
353 887
353 915
353 931
353 945
353 951
354 362
354 369
354 489
354 612
354 667
354 676
354 713
354 750
354 755
354 764
354 778
354 825
354 945
354 986
355 393
355 398
355 410
355 473
355 477
355 491
355 492
355 494
355 500
355 524
355 532
355 533
355 537
355 544
355 550
355 557
355 559
355 564
355 565
355 575
355 585
355 601
355 603
355 611
355 617
355 626
355 629
355 639
355 649
355 655
355 659
355 662
355 672
355 684
355 690
355 715
355 723
355 752
355 761
355 767
355 785
355 801
355 816
355 821
355 826
355 827
355 844
355 863
355 865
355 906
355 913
355 916
355 928
355 935
355 944
355 951
355 956
355 971
355 995
356 362
356 380
356 586
356 594
356 613
356 648
356 863
356 895
356 923
356 947
356 981
357 369
357 465
357 472
357 657
357 714
357 922
357 945
357 982
357 992
358 379
358 488
358 605
358 606
358 623
358 639
358 645
358 956
359 369
359 410
359 424
359 432
359 435
359 461
359 475
359 484
359 520
359 564
359 632
359 680
359 697
359 771
359 901
360 424
360 483
360 501
360 576
360 579
360 609
360 870
360 917
360 936
360 975
361 380
361 399
361 400
361 415
361 487
361 503
361 592
361 650
361 664
361 689
361 774
361 827
361 876
361 887
361 958
361 979
362 435
362 438
362 447
362 507
362 511
362 557
362 567
362 631
362 637
362 640
362 732
362 735
362 770
362 772
362 784
362 809
362 813
362 827
362 866
362 874
362 888
362 965
363 415
363 420
363 457
363 476
363 483
363 547
363 570
363 575
363 576
363 651
363 660
363 662
363 680
363 696
363 702
363 719
363 746
363 785
363 787
363 837
363 849
363 850
363 862
363 922
363 955
363 956
364 414
364 506
364 531
364 609
364 799
365 530
365 541
365 552
365 634
365 681
365 838
365 964
365 976
366 374
366 381
366 391
366 506
366 541
366 554
366 630
366 649
366 699
366 718
366 720
366 809
366 849
366 850
366 895
366 995
367 418
367 474
367 498
367 645
367 717
367 755
367 825
367 852
367 862
367 914
367 925
367 938
367 950
368 382
368 383
368 503
368 513
368 598
368 605
368 680
368 689
368 696
368 721
368 761
368 773
368 791
368 842
368 886
368 918
368 953
368 964
368 967
368 969
368 975
368 995
369 380
369 407
369 511
369 551
369 556
369 579
369 599
369 610
369 621
369 625
369 648
369 664
369 688
369 690
369 719
369 722
369 729
369 753
369 783
369 784
369 789
369 807
369 835
369 859
369 867
369 932
369 955
369 962
369 966
369 974
369 981
369 995
370 484
370 527
370 533
370 542
370 588
370 696
370 794
370 874
370 961
371 513
371 524
371 576
371 653
371 667
371 730
371 865
371 975
372 373
372 412
372 427
372 456
372 465
372 486
372 496
372 505
372 542
372 548
372 587
372 638
372 640
372 648
372 670
372 675
372 678
372 691
372 727
372 788
372 798
372 809
372 820
372 845
372 861
372 863
372 879
372 887
372 917
372 941
372 942
372 963
372 973
373 422
373 428
373 578
373 587
373 703
373 775
373 879
374 396
374 401
374 423
374 445
374 489
374 558
374 561
374 564
374 607
374 632
374 874
374 878
374 898
375 463
375 510
375 553
375 559
375 609
375 680
375 685
375 687
375 719
375 796
375 797
375 808
375 812
375 864
375 971
376 527
376 554
376 563
376 574
376 601
376 683
376 708
376 714
376 717
376 773
376 798
376 815
377 381
377 382
377 410
377 484
377 512
377 559
377 604
377 648
377 669
377 675
377 688
377 744
377 758
377 771
377 802
377 827
377 883
377 890
377 898
377 944
377 952
377 956
377 988
378 463
378 479
378 531
378 536
378 540
378 631
378 636
378 727
378 783
378 826
378 967
379 388
379 488
379 559
379 574
379 621
379 701
379 736
379 887
379 972
379 974
380 388
380 410
380 440
380 441
380 448
380 461
380 492
380 510
380 551
380 564
380 574
380 582
380 586
380 618
380 632
380 640
380 643
380 647
380 703
380 711
380 754
380 818
380 821
380 854
380 866
380 871
380 890
380 896
380 907
380 910
380 937
380 974
380 975
381 391
381 505
381 541
381 561
381 589
381 603
381 619
381 665
381 678
381 711
381 732
381 737
381 758
381 787
381 826
381 848
381 889
381 915
381 927
381 945
382 409
382 410
382 594
382 622
382 697
382 721
382 735
382 791
382 798
382 915
383 410
383 451
383 520
383 643
383 762
383 875
383 896
383 902
383 918
383 933
384 462
384 602
384 747
384 773
384 781
384 810
384 835
384 985
385 400
385 456
385 476
385 531
385 592
385 681
385 706
385 751
385 784
385 837
385 869
385 870
385 888
385 980
385 981
386 392
386 398
386 430
386 446
386 452
386 456
386 459
386 477
386 489
386 491
386 493
386 497
386 518
386 536
386 580
386 588
386 614
386 622
386 623
386 646
386 652
386 658
386 748
386 788
386 792
386 801
386 826
386 832
386 834
386 880
386 883
386 904
386 909
386 915
386 924
386 948
386 958
386 977
386 984
387 522
387 583
387 586
387 619
387 621
387 642
387 674
387 695
387 726
387 760
387 825
387 844
387 913
387 926
387 933
387 986
388 392
388 470
388 543
388 591
388 744
388 784
388 912
389 403
389 424
389 433
389 586
389 598
389 640
389 665
389 674
389 733
389 807
390 486
390 487
390 617
390 630
390 681
390 748
390 767
390 798
390 832
390 874
390 973
390 983
391 456
391 592
391 597
391 848
391 864
392 431
392 451
392 460
392 463
392 553
392 606
392 685
392 704
392 705
392 731
392 790
392 796
392 806
392 872
392 931
392 980
393 416
393 530
393 577
393 601
393 638
393 645
393 656
393 758
393 825
393 837
393 859
393 907
393 984
394 648
394 749
394 796
394 807
394 826
394 863
394 864
394 886
394 894
394 987
394 998
395 444
395 495
395 531
395 573
395 646
395 649
395 675
395 759
396 447
396 448
396 550
396 555
396 557
396 559
396 627
396 636
396 640
396 753
396 932
396 975
397 434
397 435
397 469
397 492
397 505
397 529
397 575
397 582
397 594
397 616
397 618
397 631
397 641
397 648
397 709
397 723
397 734
397 749
397 789
397 845
397 947
397 972
397 977
397 995
398 484
398 585
398 647
398 664
398 679
398 789
398 798
398 842
398 893
398 955
398 964
398 992
399 471
399 488
399 546
399 612
399 658
399 880
400 405
400 443
400 506
400 608
400 665
400 681
400 729
400 732
400 803
400 926
400 974
400 975
401 429
401 452
401 540
401 571
401 655
401 705
401 721
401 732
401 749
401 759
401 792
401 816
401 821
401 841
401 875
401 999
402 441
402 447
402 469
402 473
402 554
402 577
402 599
402 615
402 649
402 745
402 757
402 787
402 821
402 874
402 893
402 900
402 917
402 949
403 410
403 513
403 602
403 630
403 731
403 866
403 929
403 973
404 453
404 457
404 469
404 648
404 674
404 733
404 808
404 885
404 915
404 965
405 477
405 489
405 559
405 563
405 631
405 639
405 824
405 838
405 841
406 436
406 610
406 636
406 672
406 696
406 730
406 748
406 761
406 790
406 791
406 895
406 942
406 975
406 982
406 988
407 490
407 600
407 608
407 646
407 653
407 672
407 789
407 843
407 874
407 887
407 958
407 987
408 534
408 540
408 689
408 695
408 841
408 859
408 864
408 895
408 947
408 955
409 455
409 466
409 517
409 518
409 526
409 535
409 554
409 559
409 585
409 620
409 627
409 727
409 829
409 842
409 848
409 872
409 876
409 893
409 940
409 965
409 966
410 436
410 442
410 458
410 502
410 505
410 530
410 570
410 634
410 636
410 646
410 653
410 670
410 672
410 699
410 707
410 739
410 759
410 780
410 783
410 798
410 807
410 811
410 825
410 852
410 864
410 919
410 921
410 982
410 991
411 465
411 487
411 543
411 562
411 595
411 643
411 760
411 800
411 866
411 927
411 956
411 975
412 453
412 559
412 765
412 848
412 861
412 965
413 419
413 670
413 676
413 694
413 712
413 748
413 823
413 943
414 503
414 518
414 539
414 550
414 601
414 674
414 703
414 717
414 745
414 751
414 784
414 800
414 841
414 842
414 845
414 853
414 913
414 963
414 965
415 489
415 547
415 620
415 623
415 631
415 723
415 746
415 770
415 824
415 828
415 877
416 477
416 482
416 517
416 526
416 569
416 636
416 685
416 764
416 824
416 871
416 963
417 473
417 540
417 563
417 583
417 631
417 636
417 670
417 732
417 749
417 845
417 875
417 896
417 955
417 998
418 421
418 422
418 429
418 516
418 574
418 630
418 663
418 669
418 686
418 818
418 838
418 915
419 429
419 430
419 434
419 442
419 448
419 591
419 630
419 700
419 710
419 719
419 723
419 728
419 752
419 774
419 778
419 826
419 830
419 831
419 847
419 852
419 857
419 903
419 936
419 952
419 995
420 489
420 497
420 548
420 603
420 637
420 670
420 741
420 798
420 856
420 860
420 874
420 882
420 912
420 923
420 926
420 955
420 965
420 982
420 984
420 996
421 423
421 465
421 623
421 629
421 650
421 675
421 701
421 730
421 766
421 903
421 932
421 943
421 983
421 984
422 494
422 507
422 541
422 542
422 559
422 582
422 623
422 648
422 670
422 690
422 758
422 816
422 818
422 864
422 865
423 523
423 558
423 559
423 604
423 623
423 635
423 667
423 706
423 712
423 721
423 755
423 758
423 797
423 826
423 874
423 922
423 997
424 497
424 585
424 605
424 649
424 653
424 655
424 677
424 688
424 761
424 818
424 865
425 426
425 431
425 485
425 524
425 815
425 915
425 916
425 925
425 928
425 956
425 998
426 442
426 486
426 500
426 591
426 622
426 631
426 642
426 730
426 811
426 840
426 871
426 915
427 473
427 488
427 563
427 609
427 660
427 738
427 845
427 848
427 864
427 919
427 961
427 984
428 432
428 447
428 467
428 471
428 560
428 581
428 585
428 598
428 631
428 663
428 701
428 710
428 735
428 790
428 797
428 808
428 865
428 893
428 897
428 919
428 928
428 939
428 955
428 964
429 453
429 483
429 488
429 489
429 493
429 526
429 630
429 779
429 929
429 934
429 986
429 991
430 436
430 478
430 546
430 568
430 605
430 749
430 754
430 781
430 795
430 834
430 895
430 984
430 998
431 436
431 437
431 444
431 514
431 526
431 585
431 612
431 625
431 672
431 701
431 737
431 795
431 804
431 868
431 883
431 965
431 996
432 499
432 530
432 564
432 567
432 746
432 969
433 439
433 469
433 553
433 573
433 648
433 655
433 670
433 705
433 721
433 737
433 754
433 796
433 837
433 846
433 847
433 855
433 859
433 941
433 960
433 966
433 998
434 530
434 548
434 606
434 607
434 631
434 647
434 654
434 660
434 687
434 701
434 704
434 750
434 755
434 775
434 808
434 831
434 849
434 915
435 444
435 445
435 463
435 543
435 563
435 571
435 579
435 591
435 596
435 651
435 723
435 797
435 874
435 893
435 895
435 899
435 992
436 507
436 515
436 557
436 562
436 584
436 593
436 628
436 648
436 679
436 695
436 712
436 780
436 800
436 853
436 856
436 921
436 961
436 974
437 453
437 642
437 662
437 730
437 757
437 762
437 800
437 895
438 471
438 505
438 585
438 622
438 629
438 764
438 831
438 861
438 871
438 965
438 999
439 459
439 464
439 471
439 673
439 704
439 748
439 962
440 524
440 582
440 611
440 641
440 860
440 895
440 949
440 987
441 489
441 536
441 621
441 648
441 698
441 788
441 823
442 550
442 576
442 625
442 640
442 778
442 924
442 984
443 488
443 491
443 540
443 569
443 570
443 609
443 631
443 646
443 680
443 753
443 804
443 820
443 871
443 987
444 511
444 542
444 713
444 765
444 818
444 863
444 915
444 955
444 975
444 996
445 531
445 540
445 637
445 679
445 817
445 831
445 932
445 980
446 471
446 500
446 519
446 627
446 645
446 789
446 802
446 826
446 875
446 890
446 893
446 915
446 927
446 935
446 948
447 449
447 510
447 519
447 563
447 599
447 616
447 622
447 623
447 648
447 649
447 663
447 674
447 698
447 808
447 825
447 902
447 912
447 992
448 487
448 523
448 524
448 529
448 535
448 539
448 542
448 591
448 724
448 728
448 729
448 742
448 794
448 796
448 819
448 821
448 846
448 864
448 865
448 927
448 978
449 519
449 535
449 584
449 744
449 858
449 971
449 992
450 632
450 693
450 748
450 849
450 893
450 897
450 918
450 923
450 937
450 958
450 984
451 584
451 740
451 780
451 788
451 848
451 923
451 955
451 983
451 984
452 670
452 701
452 774
452 830
452 845
452 870
452 956
453 476
453 483
453 486
453 514
453 574
453 577
453 587
453 593
453 632
453 639
453 650
453 701
453 775
453 853
453 912
453 929
453 955
453 973
453 998
454 464
454 528
454 545
454 552
454 617
454 631
454 649
454 657
454 670
454 733
454 809
454 815
454 817
454 865
454 911
454 912
454 949
455 486
455 535
455 559
455 653
455 721
455 727
455 746
455 801
455 849
455 967
456 550
456 559
456 560
456 565
456 568
456 570
456 612
456 725
456 738
456 743
456 744
456 757
456 809
456 859
456 950
457 539
457 631
457 636
457 675
457 716
457 765
457 869
457 970
457 986
458 464
458 479
458 484
458 552
458 560
458 637
458 666
458 743
458 823
458 853
458 879
458 953
459 484
459 502
459 568
459 569
459 579
459 607
459 617
459 623
459 660
459 712
459 737
459 880
459 982
459 983
460 498
460 553
460 565
460 694
460 740
460 845
460 885
460 897
460 944
460 980
461 559
461 618
461 622
461 705
461 744
461 837
461 889
461 984
461 995
462 486
462 623
462 629
462 646
462 661
462 663
462 671
462 683
462 689
462 748
462 819
462 862
463 468
463 497
463 500
463 513
463 514
463 530
463 559
463 589
463 614
463 631
463 679
463 690
463 703
463 773
463 777
463 838
463 856
463 866
463 895
463 906
463 985
464 479
464 528
464 663
464 664
464 755
464 782
464 798
464 853
464 906
464 922
464 924
464 973
465 493
465 514
465 539
465 752
465 796
465 805
465 838
465 865
465 926
466 524
466 525
466 645
466 761
466 826
466 852
466 984
466 998
467 483
467 514
467 623
467 653
467 675
467 794
467 810
467 975
467 988
468 483
468 531
468 548
468 577
468 579
468 603
468 606
468 614
468 698
468 701
468 709
468 735
468 769
468 795
468 840
468 845
468 851
468 879
468 998
469 481
469 487
469 499
469 500
469 511
469 541
469 546
469 577
469 598
469 663
469 693
469 712
469 755
469 767
469 918
469 987
469 992
470 539
470 656
470 663
470 893
470 949
471 510
471 533
471 598
471 613
471 680
471 799
471 812
471 818
471 825
471 935
471 962
471 971
471 973
471 992
472 479
472 500
472 522
472 556
472 568
472 615
472 623
472 669
472 670
472 722
472 829
472 862
472 875
472 909
472 943
473 633
473 681
473 713
473 785
473 859
473 985
474 501
474 620
474 659
474 695
474 697
474 736
474 747
474 804
474 834
474 869
474 877
474 965
475 504
475 511
475 543
475 596
475 639
475 659
475 673
475 676
475 784
475 825
475 851
475 872
475 879
475 900
475 901
475 905
475 917
475 951
475 958
476 480
476 501
476 628
476 651
476 740
476 760
476 788
476 818
476 832
476 845
476 882
476 887
476 905
477 479
477 498
477 532
477 570
477 574
477 575
477 590
477 612
477 620
477 626
477 642
477 664
477 683
477 720
477 766
477 775
477 793
477 803
477 807
477 857
477 872
477 875
477 880
477 892
478 489
478 620
478 623
478 634
478 636
478 854
478 887
478 956
478 998
479 525
479 597
479 710
479 725
479 729
479 753
479 781
479 801
479 806
479 817
479 947
479 987
480 486
480 499
480 518
480 563
480 583
480 662
480 671
480 680
480 683
480 701
480 717
480 747
480 809
480 813
480 923
481 487
481 513
481 620
481 627
481 631
481 806
481 859
481 920
482 499
482 555
482 571
482 624
482 643
482 688
482 706
482 742
482 767
482 770
482 809
482 828
482 832
482 874
482 936
482 968
483 487
483 495
483 503
483 559
483 570
483 574
483 614
483 651
483 679
483 727
483 736
483 792
483 796
483 937
483 958
483 990
483 997
483 998
484 486
484 540
484 717
484 773
484 814
484 821
484 822
484 833
484 852
484 881
484 915
484 936
484 998
485 492
485 576
485 582
485 661
485 825
485 845
485 887
486 505
486 521
486 532
486 535
486 541
486 545
486 570
486 660
486 673
486 674
486 697
486 698
486 701
486 720
486 721
486 745
486 755
486 794
486 838
486 848
486 875
486 888
486 913
486 916
486 938
486 939
486 948
486 966
486 967
486 976
486 981
486 982
486 987
487 522
487 716
487 721
487 829
487 908
487 936
488 541
488 544
488 651
488 701
488 723
488 735
488 765
488 847
488 876
488 886
488 889
488 918
488 923
488 949
489 517
489 523
489 574
489 598
489 599
489 606
489 636
489 653
489 654
489 682
489 685
489 686
489 712
489 716
489 731
489 805
489 814
489 820
489 848
489 892
489 930
489 941
489 958
489 966
489 985
490 505
490 638
490 669
490 747
490 810
490 813
490 880
490 933
490 986
490 996
491 502
491 560
491 631
491 921
492 534
492 539
492 636
492 638
492 745
492 777
492 868
492 948
492 956
493 501
493 517
493 591
493 592
493 606
493 631
493 675
493 742
493 817
493 929
494 538
494 621
494 653
494 705
494 818
494 923
495 497
495 600
495 616
495 623
495 744
495 752
495 762
495 831
495 849
495 859
495 898
495 920
495 956
495 973
496 528
496 546
496 584
496 622
496 623
496 803
496 820
496 863
496 878
497 683
497 762
497 800
497 826
497 862
497 936
497 982
498 566
498 647
498 796
498 823
498 947
498 955
498 966
499 562
499 574
499 730
499 745
499 761
499 872
499 999
500 587
500 591
500 701
500 840
501 584
501 631
501 966
501 988
502 546
502 549
502 572
502 622
502 659
502 679
502 719
502 746
502 864
503 604
503 716
503 721
503 755
503 796
503 917
504 585
504 589
504 596
504 636
504 649
504 653
504 707
504 720
504 733
504 799
504 800
504 809
504 811
504 834
504 880
504 905
504 937
504 975
504 999
505 522
505 559
505 627
505 653
505 655
505 697
505 705
505 785
505 789
505 910
505 926
505 927
505 943
505 965
506 535
506 630
506 730
506 748
506 754
506 772
506 813
506 862
506 975
507 562
507 573
507 576
507 583
507 595
507 623
507 675
507 823
507 843
507 845
507 847
507 851
507 865
508 637
508 716
508 721
508 791
508 811
508 825
508 953
508 971
509 531
509 561
509 594
509 619
509 629
509 635
509 675
509 679
509 682
509 702
509 721
509 813
509 866
509 907
509 967
509 971
509 973
509 979
510 608
510 620
510 632
510 638
510 678
510 685
510 717
510 784
510 845
510 856
510 874
510 889
510 978
510 985
511 520
511 568
511 613
511 634
511 648
511 726
511 770
511 783
511 849
511 855
511 956
512 667
512 731
512 796
512 948
512 998
513 526
513 569
513 627
513 631
513 649
513 656
513 660
513 770
513 809
513 849
513 903
513 955
513 958
513 972
514 516
514 566
514 620
514 645
514 716
514 773
514 775
514 790
514 851
514 962
514 980
514 997
515 529
515 540
515 541
515 602
515 625
515 636
515 648
515 656
515 706
515 747
515 752
515 855
515 860
515 924
515 958
515 998
516 717
516 816
516 911
516 962
517 528
517 559
517 566
517 582
517 585
517 594
517 607
517 658
517 675
517 695
517 719
517 732
517 734
517 737
517 738
517 744
517 767
517 771
517 790
517 846
517 850
517 856
517 871
517 904
517 958
517 959
517 962
517 994
518 531
518 636
518 641
518 695
518 753
518 765
518 767
518 825
518 937
519 542
519 629
519 634
519 651
519 763
519 779
519 817
519 832
519 893
519 911
519 962
519 971
519 974
520 524
520 559
520 648
520 783
520 796
520 840
520 849
520 924
520 938
521 528
521 539
521 592
521 608
521 631
521 670
521 677
521 710
521 730
521 900
521 966
522 530
522 553
522 574
522 578
522 601
522 636
522 743
522 787
522 841
522 846
522 851
522 857
522 885
522 931
522 956
522 958
522 961
522 993
523 537
523 601
523 658
523 660
523 706
523 708
523 771
523 817
523 883
523 895
523 904
523 975
523 979
523 993
524 527
524 559
524 564
524 662
524 690
524 736
524 845
524 880
524 905
524 955
525 540
525 587
525 637
525 779
525 800
525 894
525 905
525 924
525 959
525 974
525 975
526 537
526 551
526 699
526 825
526 869
526 887
526 898
526 935
526 996
527 563
527 572
527 586
527 652
527 653
527 683
527 688
527 739
527 770
527 844
527 855
527 886
527 899
527 915
527 924
527 930
527 959
527 977
527 992
528 545
528 559
528 662
528 704
528 756
528 824
528 827
529 540
529 749
529 868
529 880
529 998
530 550
530 555
530 560
530 578
530 582
530 583
530 631
530 644
530 656
530 664
530 678
530 723
530 734
530 753
530 795
530 799
530 831
530 880
530 901
530 934
530 997
531 563
531 649
531 741
531 789
531 926
531 992
532 558
532 621
532 636
532 733
532 799
532 880
532 887
532 926
532 955
532 974
533 562
533 569
533 592
533 607
533 662
533 716
533 719
533 742
533 762
533 808
533 814
533 841
533 924
533 925
533 931
533 989
534 597
534 648
534 658
534 668
534 700
534 731
534 778
534 787
534 892
534 972
534 998
535 541
535 568
535 569
535 610
535 623
535 628
535 748
535 836
535 842
535 845
535 891
535 939
536 622
536 636
536 739
536 779
536 819
536 868
536 885
536 920
536 965
536 986
537 548
537 559
537 594
537 636
537 663
537 670
537 710
537 749
537 758
537 766
537 781
537 825
537 874
537 880
537 924
537 948
537 952
537 982
537 995
537 997
538 569
538 809
538 838
538 894
538 986
539 607
539 616
539 627
539 687
539 759
539 822
539 898
539 971
540 596
540 614
540 618
540 649
540 663
540 665
540 700
540 701
540 705
540 721
540 725
540 752
540 762
540 853
540 861
540 870
540 879
540 916
540 927
540 955
540 959
540 962
540 977
541 547
541 553
541 576
541 623
541 636
541 645
541 675
541 694
541 719
541 751
541 767
541 792
541 810
541 824
541 839
541 845
541 848
541 871
541 906
541 935
541 958
541 962
541 967
541 975
542 556
542 623
542 791
542 805
542 814
542 863
542 873
542 895
542 900
542 932
542 980
542 987
542 990
543 555
543 633
543 636
543 677
543 689
543 701
543 790
543 804
543 843
543 911
543 923
543 987
543 990
544 552
544 559
544 577
544 580
544 632
544 678
544 745
544 762
544 783
544 787
544 792
544 928
544 949
544 961
544 967
544 983
544 987
544 992
545 555
545 559
545 705
545 770
545 848
545 856
545 866
545 889
545 896
545 948
545 956
545 965
545 974
545 981
546 559
546 591
546 623
546 648
546 694
546 710
546 723
546 731
546 756
546 769
546 829
546 875
546 971
547 549
547 652
547 672
547 675
547 688
547 762
547 774
547 848
547 892
547 909
547 924
547 958
547 975
548 712
548 763
548 851
548 937
548 946
548 996
549 636
549 649
549 681
549 685
549 787
549 896
549 955
549 961
549 965
549 975
549 978
549 991
550 551
550 638
550 715
550 728
550 874
550 943
550 945
550 995
550 996
551 621
551 623
551 650
551 712
551 726
551 748
551 825
551 874
551 910
551 915
551 986
551 997
552 599
552 623
552 644
552 781
552 790
552 815
552 820
552 826
552 849
552 863
553 559
553 584
553 596
553 622
553 784
553 895
554 727
554 788
554 825
554 879
554 899
554 919
554 920
554 924
554 935
554 955
554 959
555 622
555 745
555 830
555 949
555 968
556 581
556 697
556 725
556 800
556 825
556 852
556 913
556 963
556 987
557 568
557 678
557 688
557 879
557 895
557 953
558 575
558 591
558 594
558 604
558 674
558 743
558 790
558 799
558 811
558 971
558 990
559 588
559 651
559 663
559 664
559 675
559 694
559 709
559 721
559 730
559 758
559 763
559 766
559 768
559 813
559 842
559 845
559 852
559 889
559 897
559 906
559 933
559 935
559 947
559 976
559 978
559 986
559 989
559 992
560 597
560 606
560 620
560 644
560 662
560 663
560 752
560 931
560 967
560 980
560 986
561 588
561 604
561 652
561 661
561 784
561 839
561 854
561 870
561 960
561 975
561 979
561 987
562 614
562 619
562 796
562 848
562 855
562 876
562 974
563 601
563 622
563 680
563 836
563 865
564 615
564 634
564 670
564 758
564 779
564 825
564 830
564 855
564 888
565 675
565 718
565 857
565 883
565 959
565 987
566 575
566 578
566 728
566 798
566 825
566 871
567 637
567 787
567 982
568 575
568 583
568 585
568 636
568 643
568 644
568 673
568 750
568 834
568 848
568 852
568 915
568 930
568 973
569 631
569 754
569 840
569 841
569 858
569 879
569 941
569 955
569 957
569 977
570 572
570 584
570 767
570 818
570 837
570 843
570 859
570 885
571 584
571 585
571 637
571 654
571 681
571 757
571 877
571 911
571 985
572 605
572 608
572 663
572 678
572 732
572 749
572 793
572 820
572 906
572 973
572 992
573 615
573 636
573 648
573 705
573 733
573 809
573 818
573 912
574 577
574 614
574 710
574 721
574 725
574 786
574 825
574 834
574 845
574 871
574 910
574 958
574 961
575 679
575 697
575 708
575 710
575 874
575 897
575 957
575 993
576 681
576 731
576 820
576 847
576 871
576 900
576 913
576 941
576 975
577 593
577 598
577 645
577 678
577 737
577 743
577 753
577 775
577 803
577 843
577 874
577 957
577 976
577 986
578 618
578 644
578 712
578 743
578 863
578 871
578 891
578 893
578 956
579 622
579 683
579 706
579 746
579 792
579 813
579 818
579 834
579 876
579 879
579 895
579 956
579 974
579 976
580 638
580 664
580 753
580 853
580 978
580 999
581 618
581 622
581 705
581 785
581 824
581 845
581 874
581 880
581 896
581 923
581 991
582 586
582 619
582 662
582 681
582 970
582 975
583 584
583 702
583 883
583 995
584 599
584 693
584 765
584 768
584 824
584 825
584 918
584 923
584 946
584 951
584 961
584 982
585 689
585 886
585 895
585 940
585 971
586 599
586 601
586 621
586 624
586 714
586 774
586 790
586 809
586 813
586 885
586 958
586 973
586 974
586 988
586 989
587 623
587 635
587 698
587 707
587 730
587 934
587 936
587 946
588 643
588 843
588 893
588 934
588 972
588 974
589 653
589 727
589 762
589 784
590 603
590 672
590 749
590 774
590 923
590 949
590 958
591 607
591 743
591 756
591 789
591 802
591 863
591 879
591 886
591 887
591 892
591 915
591 937
592 658
592 698
592 708
592 712
592 733
592 736
592 771
592 777
592 784
592 796
592 804
592 821
592 829
592 866
592 907
592 918
592 926
592 931
592 937
592 955
592 992
592 995
593 604
593 767
593 853
593 935
593 958
594 623
594 758
594 855
594 935
595 645
595 708
595 711
595 780
595 801
595 832
595 847
595 855
595 874
595 875
595 921
595 965
595 975
595 998
596 624
596 647
596 821
596 845
596 864
596 901
596 971
596 998
597 667
597 735
597 808
597 857
597 915
598 622
598 642
598 709
598 764
598 768
598 881
599 612
599 740
599 870
599 937
599 940
599 970
600 628
600 744
600 826
600 880
601 610
601 702
601 707
601 712
601 739
601 741
601 981
602 609
602 713
602 752
602 801
602 958
602 986
603 608
603 633
603 681
603 739
603 872
603 885
603 965
604 653
604 704
604 729
604 755
604 798
604 845
605 655
605 705
605 727
605 789
605 826
606 735
606 744
606 770
606 771
606 776
606 820
606 855
606 897
606 911
606 936
606 940
606 967
607 622
607 628
607 712
607 848
607 876
607 917
608 701
608 721
608 735
608 745
608 748
608 791
608 874
608 893
608 898
608 909
608 927
608 965
608 976
609 677
609 706
609 733
609 770
609 782
609 859
609 935
609 981
609 982
610 619
610 631
610 679
610 706
610 741
610 748
610 818
610 838
610 865
610 905
610 921
611 689
611 793
611 809
611 887
611 931
611 968
612 621
612 788
612 924
613 643
613 692
613 701
613 884
613 986
614 631
614 703
614 715
614 722
614 827
614 887
614 924
614 949
615 640
615 721
615 770
615 780
615 818
615 825
615 831
615 838
615 918
615 983
616 627
616 631
616 663
616 762
616 826
616 853
616 924
616 981
617 618
617 659
617 743
617 762
617 771
617 796
617 807
617 923
617 930
617 936
617 965
617 975
618 653
618 775
618 901
618 996
619 667
619 669
619 701
619 738
619 756
619 812
619 819
619 982
620 648
620 663
620 681
620 697
620 716
620 720
620 731
620 747
620 788
620 793
620 938
621 645
621 656
621 690
621 841
621 846
621 893
621 927
622 629
622 661
622 671
622 676
622 689
622 729
622 735
622 765
622 776
622 810
622 814
622 820
622 856
622 859
622 876
622 888
622 893
622 898
622 953
622 973
622 978
622 983
623 652
623 664
623 675
623 677
623 702
623 703
623 708
623 711
623 735
623 742
623 743
623 762
623 764
623 784
623 790
623 798
623 810
623 818
623 823
623 830
623 866
623 887
623 894
623 910
623 919
623 947
623 977
624 641
624 649
624 755
624 756
624 786
624 820
624 851
624 864
624 922
624 949
624 973
625 637
625 640
625 673
625 760
625 872
625 928
625 999
626 643
626 718
626 730
626 783
626 812
626 818
626 871
626 909
627 636
627 648
627 663
627 715
627 761
627 784
627 785
627 794
627 841
627 857
627 881
627 899
627 947
627 953
627 974
627 999
628 642
628 650
628 676
628 715
628 721
628 728
628 792
628 852
628 854
628 857
628 864
628 872
628 903
628 904
628 929
628 987
629 821
629 845
630 688
630 712
630 748
630 749
630 757
630 896
630 965
631 637
631 646
631 655
631 660
631 669
631 710
631 717
631 755
631 758
631 759
631 761
631 765
631 772
631 783
631 787
631 794
631 816
631 819
631 837
631 866
631 879
631 883
631 886
631 916
631 936
631 974
631 982
631 984
631 991
631 999
632 636
632 688
632 691
632 720
632 818
632 829
633 636
633 657
633 662
633 955
634 698
634 760
634 878
634 886
634 985
635 646
635 695
635 712
635 733
635 748
635 809
635 865
635 870
635 885
635 917
635 949
635 951
635 956
635 973
636 660
636 705
636 711
636 720
636 728
636 732
636 741
636 748
636 751
636 767
636 770
636 777
636 784
636 789
636 800
636 807
636 812
636 815
636 818
636 828
636 832
636 849
636 869
636 873
636 877
636 884
636 925
636 946
636 948
636 961
636 965
636 983
636 988
636 990
637 712
637 746
637 873
637 994
638 680
638 688
638 715
638 735
638 802
638 827
638 850
638 864
638 917
638 926
638 934
638 946
638 969
639 641
639 655
639 781
639 802
639 817
639 986
640 656
640 660
640 743
640 769
640 805
640 924
641 642
641 735
641 764
641 858
641 868
641 915
641 967
641 993
642 658
642 752
642 808
642 845
642 877
642 896
642 960
642 985
643 669
643 762
643 769
643 792
643 829
643 838
643 876
643 946
643 969
643 990
643 995
644 662
644 666
644 735
644 759
644 765
644 772
644 811
644 841
644 847
644 899
644 901
644 911
645 700
645 713
645 759
645 766
645 775
645 811
645 865
645 972
645 974
646 670
646 683
646 701
646 709
646 786
646 873
646 899
646 923
647 658
647 792
647 885
648 691
648 704
648 711
648 715
648 746
648 758
648 759
648 874
648 884
648 924
648 925
648 929
648 939
648 961
648 967
648 985
649 654
649 663
649 758
649 775
649 788
649 813
649 823
649 955
649 960
650 755
650 898
650 913
650 972
651 701
651 742
651 815
651 856
651 935
651 998
652 675
652 827
652 873
652 905
652 975
652 984
652 991
653 677
653 689
653 692
653 736
653 792
653 793
653 798
653 844
653 853
653 866
653 894
653 919
653 920
653 935
653 937
653 939
653 965
653 969
653 987
653 989
654 738
654 760
654 761
654 828
654 879
655 709
655 769
655 795
655 857
655 879
655 881
655 895
655 933
655 939
655 958
655 970
655 983
656 680
656 697
656 932
656 975
656 992
657 752
657 760
657 784
657 840
657 890
658 691
658 696
658 748
658 895
658 907
658 910
658 927
658 938
658 940
658 954
658 960
658 983
658 985
659 662
659 809
659 825
659 878
659 953
660 747
660 749
660 753
660 815
660 898
660 965
660 981
661 669
661 716
661 745
661 895
661 956
662 755
662 796
662 815
662 869
662 946
662 959
662 980
663 687
663 731
663 908
663 940
663 982
664 712
664 794
664 795
664 818
664 932
664 940
664 992
664 999
665 731
665 753
665 817
665 895
665 985
666 680
666 701
666 748
666 761
666 914
666 932
666 975
666 996
667 679
667 757
667 784
667 887
667 933
668 693
668 710
668 728
668 774
668 792
668 793
668 795
668 879
668 891
668 907
668 954
668 962
669 797
669 845
669 858
669 866
669 965
669 998
670 701
670 711
670 735
670 760
670 782
670 789
670 826
670 835
670 849
670 861
670 865
670 866
670 912
670 915
670 923
670 925
670 953
670 956
671 749
671 754
671 805
671 853
671 899
671 935
672 711
672 758
672 796
672 958
673 701
673 781
673 787
673 884
673 969
673 974
674 705
674 782
674 794
674 840
674 845
674 870
674 888
674 965
674 977
674 983
675 708
675 714
675 717
675 761
675 855
675 863
675 872
675 915
675 923
675 924
675 928
675 952
675 955
675 961
676 679
676 818
676 865
676 926
676 953
676 965
676 982
677 803
677 849
677 874
677 947
677 975
677 990
678 709
678 726
678 812
678 866
678 901
678 919
678 932
679 683
679 695
679 708
679 713
679 745
679 749
679 763
679 816
679 824
679 941
679 946
679 955
679 956
679 962
679 975
679 998
680 733
680 734
680 757
680 773
680 794
680 808
680 818
680 826
680 828
680 835
680 838
680 843
680 947
681 703
681 756
681 778
681 805
681 826
681 864
681 958
681 965
681 987
681 998
682 716
682 758
682 807
682 895
682 916
682 922
682 975
682 996
683 714
683 738
683 777
683 782
683 807
683 808
683 825
684 708
684 787
684 857
684 932
684 951
685 744
685 749
685 826
685 894
685 960
685 965
685 980
686 705
686 727
686 751
686 832
686 903
686 914
686 915
686 937
686 940
686 943
686 973
686 987
687 701
687 743
687 748
687 929
688 693
688 707
688 708
688 714
688 750
688 774
688 825
688 862
688 864
688 867
688 873
688 986
688 987
688 997
689 717
689 737
689 744
689 817
689 867
689 898
689 984
689 998
690 784
690 820
690 841
691 955
691 992
692 770
692 832
692 877
692 923
692 924
692 938
692 973
693 834
693 927
693 949
694 810
695 709
695 757
695 791
695 798
695 818
695 831
695 870
695 894
695 910
695 956
696 697
696 702
696 772
696 782
696 813
696 814
696 824
696 837
696 901
696 939
696 975
696 982
696 988
697 701
697 711
697 765
697 870
698 752
698 848
698 965
699 831
699 924
699 965
699 966
699 998
700 864
700 867
700 920
700 995
701 728
701 735
701 754
701 755
701 758
701 770
701 809
701 917
701 959
701 969
701 997
702 755
702 818
702 825
702 852
702 856
702 865
702 874
702 885
702 995
703 825
703 858
703 895
704 778
704 809
704 817
704 898
704 971
704 987
704 993
704 998
705 713
705 747
705 751
705 769
705 783
705 789
705 833
705 882
705 886
705 903
705 914
705 934
705 943
705 968
706 791
706 829
706 865
706 965
707 864
707 948
708 727
708 786
708 791
708 802
708 820
708 833
708 866
708 885
708 890
708 891
709 814
709 834
709 869
709 883
709 972
709 996
710 762
710 813
710 900
711 715
711 727
711 769
711 795
711 804
711 866
711 880
711 887
712 738
712 765
712 848
712 933
712 950
713 758
713 873
713 893
713 909
713 917
714 777
714 838
714 864
714 890
714 908
714 928
714 998
715 781
715 804
715 809
715 911
716 771
716 855
716 910
716 929
716 949
716 998
717 851
717 964
717 998
718 730
718 931
718 951
718 965
718 974
718 990
718 993
719 874
719 910
720 844
720 875
720 882
720 886
720 965
720 967
720 975
720 978
721 758
721 759
721 793
721 872
721 895
721 902
721 908
721 909
721 938
721 949
721 951
721 977
721 978
722 870
722 873
722 937
722 998
723 748
723 757
723 807
723 815
723 835
723 840
723 869
723 914
723 993
724 848
724 852
724 909
724 965
725 752
725 977
725 998
726 746
726 760
726 826
726 878
726 920
726 990
726 998
727 729
727 758
727 765
727 804
727 868
727 901
727 921
727 922
727 985
728 748
728 762
728 801
728 940
728 949
728 981
729 775
729 825
729 845
729 892
730 746
730 766
730 821
730 867
730 889
730 965
730 999
731 736
731 746
731 872
731 895
731 901
731 925
732 782
732 784
732 810
732 850
732 894
732 895
732 918
732 948
733 864
733 880
733 887
733 982
734 880
734 882
734 895
734 928
734 932
734 964
735 830
735 839
735 844
735 864
735 918
735 933
735 974
736 743
736 773
736 788
736 822
736 924
737 848
737 874
738 798
738 841
738 852
738 908
738 915
738 982
739 749
739 758
739 896
740 775
741 800
741 866
742 767
742 895
742 961
742 977
743 855
743 882
743 902
743 911
743 949
743 998
744 775
744 809
744 831
744 845
744 883
744 956
744 977
744 995
745 770
745 813
745 841
745 930
745 948
745 955
745 989
746 865
746 882
746 956
746 975
746 998
747 874
747 907
747 933
748 774
748 779
748 809
748 819
748 824
748 831
748 845
748 859
748 881
748 890
748 895
748 937
748 950
748 974
748 978
749 795
749 845
749 861
749 866
749 975
749 998
750 798
750 929
750 980
751 809
751 885
751 896
751 919
752 753
752 798
753 780
753 813
753 827
753 955
754 791
754 800
754 825
754 848
754 876
754 911
755 820
755 844
755 850
755 865
755 870
755 881
756 765
756 772
756 899
757 885
757 895
757 903
757 943
757 975
758 765
758 803
758 807
758 832
758 844
758 862
758 883
758 912
758 988
759 921
759 975
759 986
761 773
761 781
761 815
761 898
761 917
761 962
762 787
762 958
763 828
763 906
763 907
763 992
764 863
764 895
764 974
765 881
765 890
765 895
765 987
766 778
766 878
766 898
766 908
766 924
766 949
766 956
766 975
766 999
767 814
767 857
767 984
768 826
768 854
768 859
768 895
768 941
768 987
769 773
769 874
769 886
769 968
770 859
770 866
770 926
770 945
770 982
770 996
771 826
771 976
771 990
772 788
772 824
772 884
772 913
772 920
773 783
773 866
773 996
774 803
774 898
775 822
775 860
775 864
775 879
775 932
776 790
776 885
776 912
776 974
777 983
778 781
778 807
778 906
778 997
780 850
780 955
780 968
781 826
781 945
781 986
781 994
782 857
782 881
782 982
782 985
783 799
783 826
783 845
783 863
783 871
783 900
783 958
784 794
784 845
784 859
784 917
784 939
785 818
785 865
785 942
785 955
785 971
786 878
786 892
786 930
786 975
786 978
787 844
787 855
787 865
787 874
787 879
787 894
787 924
787 927
787 971
788 802
788 877
788 930
789 832
789 855
789 871
789 922
789 937
789 948
789 958
790 886
790 933
790 965
791 797
791 855
791 859
791 911
791 915
791 965
792 800
792 848
792 943
792 977
792 986
793 874
793 877
794 954
794 968
794 998
795 886
795 923
796 835
796 843
796 857
796 860
796 888
796 904
796 972
797 810
797 820
797 879
797 904
797 905
797 909
798 802
798 839
798 909
798 935
798 975
799 825
799 880
799 886
799 928
799 948
799 975
800 900
800 962
801 827
801 873
801 924
801 955
801 973
801 997
802 803
802 816
802 879
802 897
802 934
802 937
802 981
803 818
803 822
803 944
803 959
803 962
804 806
804 845
804 943
804 947
804 965
804 975
804 976
805 951
805 993
806 808
806 885
806 987
806 989
807 810
807 876
807 996
808 813
808 825
808 915
809 821
809 829
809 838
809 839
809 868
809 906
809 912
809 921
809 922
809 957
809 964
809 980
810 880
810 925
811 850
811 861
811 974
812 889
812 933
813 854
813 879
813 886
813 895
813 939
813 965
814 988
815 878
815 887
815 940
816 859
816 893
816 898
816 953
817 825
817 845
817 860
817 987
818 822
818 841
818 853
818 860
818 892
818 911
818 914
818 930
818 952
819 821
819 831
819 865
819 874
819 990
820 821
820 826
820 867
820 898
820 915
820 987
820 989
820 991
820 992
821 848
821 849
821 876
821 895
821 994
822 893
822 965
822 978
823 825
823 961
824 880
825 828
825 834
825 863
825 877
825 878
825 881
825 886
825 894
825 896
825 913
825 924
825 939
825 944
825 988
826 856
826 858
826 879
826 886
826 887
826 901
826 958
826 978
826 991
826 997
827 901
827 948
827 966
828 850
828 896
828 901
828 908
828 995
829 845
829 848
829 874
829 891
829 926
829 980
830 898
832 952
832 956
832 959
832 987
832 988
833 852
833 898
833 915
833 953
833 995
835 875
835 879
835 978
836 874
836 891
836 998
837 954
838 842
838 871
838 891
838 933
838 940
838 956
838 957
838 958
838 965
838 966
839 926
839 983
840 870
840 888
841 846
841 879
841 967
842 861
842 870
842 995
843 922
843 933
843 940
844 899
844 937
844 988
845 883
845 901
845 929
845 933
845 948
845 972
845 978
847 858
847 859
848 874
848 911
848 948
848 968
848 979
849 885
849 910
849 950
849 965
849 966
849 994
850 866
850 886
850 980
851 867
851 879
851 880
851 883
851 955
851 967
851 977
851 986
852 853
852 918
853 855
853 879
853 880
853 897
853 926
853 954
853 965
853 975
854 876
854 965
854 983
855 863
855 887
855 894
855 933
855 962
855 971
856 895
856 940
856 949
857 860
857 866
857 885
857 895
857 904
857 965
858 894
858 914
858 988
858 993
859 872
859 891
859 987
860 955
860 995
861 923
861 942
861 959
861 971
862 922
862 964
863 895
863 926
863 965
863 992
863 998
864 895
864 906
864 907
864 909
864 916
864 927
864 966
864 967
864 986
865 979
865 984
866 880
866 909
866 927
866 937
868 880
868 912
868 936
868 949
869 881
869 906
869 950
869 988
870 877
870 879
870 911
870 940
870 956
870 959
871 875
871 938
871 975
872 955
872 956
872 992
873 878
873 901
873 905
873 955
873 971
873 973
873 980
873 989
874 883
874 915
874 921
874 922
874 927
874 931
874 957
874 974
875 879
875 938
875 948
875 981
876 906
876 974
876 984
877 966
877 975
877 978
877 982
877 998
878 930
878 933
878 944
879 887
879 951
879 957
879 961
879 963
879 986
880 881
880 885
880 905
880 906
880 965
880 978
883 983
884 902
884 967
884 971
885 921
885 958
885 990
885 994
886 887
886 974
886 975
887 898
887 912
887 913
887 925
887 934
887 967
887 968
887 974
888 912
888 974
888 985
888 996
889 900
889 936
889 953
889 957
889 958
889 978
890 947
890 948
890 975
891 923
892 895
892 984
892 996
893 897
893 911
893 928
894 988
895 909
895 928
895 965
895 968
895 977
895 979
895 981
895 982
895 989
895 995
896 934
896 953
897 899
897 932
898 903
898 916
898 965
898 993
899 910
899 996
900 909
900 934
900 938
901 912
901 976
902 973
904 920
905 923
905 958
907 915
907 965
907 966
907 981
908 985
909 974
910 968
910 975
911 931
912 935
912 943
912 950
912 966
912 991
913 922
914 947
914 982
915 955
915 968
915 995
916 995
917 965
917 975
918 949
918 993
920 966
920 998
921 958
922 966
923 924
923 946
923 973
924 953
924 967
924 987
924 992
924 996
927 939
927 991
928 945
929 948
929 951
929 955
929 964
929 994
930 947
930 960
930 972
930 997
931 965
931 985
932 941
933 950
933 975
933 995
935 938
936 951
936 975
936 988
938 988
939 950
939 991
939 999
940 993
941 955
942 971
942 975
942 992
944 958
944 991
946 958
946 961
946 990
948 950
948 958
949 957
950 957
950 963
950 965
950 999
952 974
953 992
953 998
954 984
954 997
955 965
957 979
958 970
958 995
962 970
964 986
965 978
965 983
965 996
966 973
966 998
967 975
967 978
967 982
969 974
969 980
969 996
971 999
973 998
974 982
975 976
975 981
975 984
975 988
975 990
975 994
980 998
985 998
988 991
989 990
