0 37
0 72
0 107
0 125
0 164
0 219
0 377
0 380
0 435
0 578
0 586
0 641
0 647
0 688
0 764
0 797
0 918
1 13
1 16
1 35
1 45
1 87
1 160
1 206
1 313
1 350
1 403
1 468
1 481
1 534
1 766
1 840
1 857
1 889
1 923
2 114
2 138
2 145
2 259
2 309
2 566
2 581
2 620
2 633
2 717
2 760
2 769
2 880
2 896
2 956
3 16
3 23
3 65
3 105
3 114
3 137
3 144
3 151
3 166
3 168
3 223
3 267
3 285
3 287
3 299
3 352
3 370
3 382
3 392
3 394
3 416
3 421
3 564
3 654
3 667
3 676
3 678
3 782
3 861
3 862
3 886
3 929
3 970
4 25
4 58
4 79
4 82
4 83
4 85
4 117
4 124
4 139
4 183
4 208
4 289
4 296
4 331
4 342
4 403
4 410
4 422
4 460
4 481
4 503
4 517
4 520
4 531
4 635
4 709
4 717
4 790
4 792
4 823
4 826
4 836
4 852
4 860
4 957
5 75
5 230
5 262
5 323
5 368
5 496
5 510
5 570
5 574
5 582
5 618
5 636
5 723
5 725
5 807
5 867
5 901
6 110
6 187
6 189
6 226
6 404
6 425
6 459
6 477
6 509
6 568
6 685
6 708
6 747
6 770
6 791
6 847
6 852
6 875
6 949
6 982
7 121
7 147
7 211
7 265
7 274
7 327
7 458
7 468
7 477
7 499
7 524
7 554
7 556
7 585
7 625
7 627
7 637
7 674
7 739
7 745
7 771
7 784
7 785
7 804
7 821
7 899
7 902
7 961
8 49
8 50
8 59
8 189
8 190
8 212
8 224
8 287
8 350
8 354
8 411
8 516
8 597
8 603
8 684
8 690
8 698
8 708
8 726
8 741
8 761
8 818
8 830
8 854
8 915
8 921
8 957
8 979
9 30
9 72
9 104
9 115
9 118
9 119
9 160
9 261
9 342
9 408
9 489
9 537
9 592
9 622
9 662
9 740
9 755
9 756
9 792
9 842
9 844
9 866
9 984
10 71
10 112
10 210
10 228
10 361
10 373
10 497
10 560
10 594
10 629
10 634
10 684
10 730
10 746
10 859
10 981
10 996
11 17
11 18
11 19
11 233
11 277
11 373
11 552
11 601
11 605
11 606
11 657
11 686
11 812
11 819
11 828
11 903
11 993
12 21
12 47
12 70
12 166
12 177
12 219
12 271
12 272
12 313
12 460
12 538
12 540
12 567
12 572
12 629
12 709
12 720
12 734
12 776
12 813
12 814
12 833
12 910
12 926
12 965
12 969
13 101
13 103
13 150
13 191
13 194
13 296
13 337
13 342
13 355
13 372
13 450
13 458
13 468
13 504
13 527
13 535
13 586
13 782
13 801
13 851
14 21
14 23
14 78
14 113
14 140
14 179
14 203
14 368
14 392
14 405
14 407
14 462
14 524
14 645
14 673
14 683
14 782
14 861
14 862
14 929
14 942
14 944
14 952
14 954
15 247
15 260
15 327
15 520
15 554
15 595
15 735
15 743
15 769
15 779
15 787
15 893
15 960
16 23
16 103
16 113
16 151
16 175
16 179
16 208
16 256
16 296
16 300
16 394
16 407
16 616
16 654
16 704
16 782
16 861
16 881
16 913
16 919
16 929
16 963
17 144
17 193
17 258
17 290
17 319
17 400
17 439
17 601
17 651
17 657
17 776
17 788
17 800
17 947
18 41
18 129
18 141
18 221
18 258
18 319
18 373
18 510
18 552
18 562
18 786
18 812
18 903
18 945
18 949
18 993
19 128
19 155
19 258
19 444
19 480
19 492
19 552
19 553
19 572
19 589
19 592
19 601
19 605
19 717
19 795
19 800
19 812
19 945
19 989
19 993
20 66
20 150
20 158
20 264
20 269
20 303
20 375
20 412
20 416
20 474
20 572
20 660
20 663
20 725
20 769
20 781
20 808
20 822
20 829
20 871
20 952
21 61
21 133
21 235
21 300
21 309
21 459
21 491
21 661
21 675
21 699
21 723
21 736
21 776
21 797
21 807
21 810
21 811
21 843
21 871
21 906
21 987
22 41
22 104
22 206
22 234
22 333
22 377
22 423
22 450
22 455
22 525
22 565
22 575
22 579
22 586
22 674
22 693
22 829
22 884
22 928
22 948
23 50
23 103
23 236
23 304
23 610
23 654
23 687
23 782
23 814
23 861
23 887
23 943
24 43
24 167
24 173
24 216
24 287
24 325
24 327
24 349
24 403
24 411
24 418
24 466
24 550
24 643
24 701
24 732
24 762
24 823
24 890
24 894
24 900
25 45
25 183
25 208
25 255
25 331
25 439
25 460
25 517
25 611
25 675
25 730
25 769
25 826
25 852
25 910
25 952
26 98
26 101
26 159
26 195
26 262
26 313
26 316
26 322
26 369
26 376
26 378
26 409
26 414
26 501
26 514
26 579
26 581
26 681
26 730
26 773
26 783
26 788
26 804
27 107
27 258
27 398
27 414
27 456
27 457
27 552
27 560
27 601
27 617
27 647
27 800
27 812
27 878
27 903
27 945
27 989
28 41
28 50
28 53
28 72
28 90
28 95
28 147
28 202
28 231
28 295
28 296
28 378
28 407
28 692
28 703
28 717
28 747
28 762
28 796
28 805
28 821
28 876
28 940
28 968
28 990
29 78
29 171
29 187
29 189
29 329
29 523
29 543
29 566
29 570
29 696
29 770
29 811
29 915
29 928
29 967
29 970
29 978
30 115
30 135
30 138
30 197
30 252
30 259
30 277
30 284
30 334
30 343
30 345
30 357
30 502
30 575
30 612
30 707
30 725
30 766
30 808
30 866
30 880
31 36
31 47
31 83
31 101
31 103
31 151
31 180
31 230
31 428
31 450
31 476
31 478
31 563
31 598
31 716
31 789
31 865
31 910
32 64
32 75
32 100
32 133
32 147
32 205
32 243
32 282
32 293
32 315
32 327
32 348
32 463
32 515
32 543
32 545
32 569
32 598
32 610
32 646
32 674
32 713
32 724
32 727
32 729
32 794
32 834
32 835
32 842
32 845
32 850
32 876
32 894
32 914
32 933
33 76
33 130
33 199
33 207
33 208
33 239
33 240
33 270
33 276
33 395
33 406
33 436
33 443
33 492
33 699
33 702
33 705
33 743
33 752
33 758
33 808
33 810
34 70
34 104
34 161
34 219
34 242
34 291
34 447
34 449
34 538
34 540
34 638
34 663
34 666
34 778
34 813
34 814
34 833
34 926
34 950
35 111
35 140
35 159
35 164
35 173
35 176
35 300
35 324
35 369
35 378
35 393
35 395
35 461
35 466
35 504
35 528
35 529
35 532
35 539
35 564
35 690
35 716
35 897
35 991
36 94
36 153
36 203
36 253
36 271
36 327
36 340
36 407
36 420
36 443
36 470
36 628
36 696
36 703
36 778
36 780
36 784
36 793
36 848
36 893
36 902
36 912
36 972
37 62
37 74
37 93
37 99
37 107
37 115
37 118
37 119
37 123
37 134
37 149
37 223
37 290
37 349
37 350
37 356
37 537
37 543
37 578
37 609
37 617
37 620
37 622
37 626
37 691
37 701
37 768
37 779
37 844
37 855
37 863
37 911
37 984
38 40
38 41
38 91
38 93
38 99
38 234
38 332
38 344
38 450
38 469
38 476
38 525
38 566
38 693
38 820
38 851
38 911
38 943
38 948
38 960
39 105
39 111
39 163
39 176
39 184
39 376
39 387
39 408
39 413
39 440
39 501
39 564
39 721
39 749
39 755
39 827
40 46
40 55
40 87
40 103
40 156
40 179
40 198
40 207
40 259
40 333
40 346
40 372
40 375
40 384
40 445
40 467
40 468
40 470
40 474
40 526
40 548
40 560
40 581
40 602
40 625
40 657
40 687
40 757
40 870
40 887
40 946
40 948
40 954
40 955
40 967
41 45
41 55
41 87
41 103
41 278
41 280
41 332
41 333
41 342
41 397
41 450
41 465
41 560
41 601
41 824
41 851
41 870
41 884
41 904
41 935
41 955
41 977
42 47
42 68
42 73
42 75
42 98
42 159
42 283
42 292
42 304
42 314
42 428
42 498
42 541
42 694
42 734
42 766
42 820
42 867
43 146
43 167
43 321
43 347
43 358
43 418
43 424
43 428
43 435
43 515
43 552
43 559
43 563
43 564
43 575
43 583
43 612
43 716
43 724
43 732
43 738
43 754
43 807
43 865
43 896
43 960
44 49
44 180
44 261
44 262
44 385
44 432
44 462
44 541
44 606
44 619
44 631
44 798
44 903
44 907
44 910
44 925
44 936
44 963
45 74
45 102
45 103
45 173
45 225
45 241
45 283
45 328
45 455
45 497
45 638
45 687
45 721
45 756
45 909
45 916
45 948
46 308
46 323
46 474
46 513
46 515
46 527
46 545
46 608
46 625
46 633
46 649
46 728
46 749
46 752
46 788
46 821
46 825
46 855
46 877
46 886
46 891
46 914
46 952
47 56
47 83
47 180
47 198
47 249
47 370
47 381
47 386
47 399
47 480
47 484
47 489
47 496
47 506
47 578
47 619
47 623
47 630
47 642
47 663
47 748
47 834
47 900
47 911
47 936
47 941
47 972
47 986
48 94
48 138
48 248
48 267
48 273
48 284
48 311
48 329
48 402
48 408
48 481
48 587
48 612
48 706
48 711
48 766
48 769
48 774
48 779
49 94
49 167
49 213
49 262
49 314
49 342
49 428
49 462
49 478
49 519
49 541
49 556
49 626
49 777
49 789
49 850
49 865
49 930
49 953
50 154
50 155
50 186
50 202
50 209
50 278
50 295
50 328
50 362
50 440
50 542
50 568
50 573
50 716
50 717
50 897
50 916
50 959
51 54
51 58
51 60
51 64
51 84
51 98
51 110
51 126
51 152
51 217
51 303
51 305
51 384
51 385
51 410
51 492
51 538
51 553
51 554
51 561
51 568
51 577
51 580
51 584
51 590
51 600
51 612
51 613
51 636
51 644
51 659
51 669
51 679
51 730
51 733
51 737
51 743
51 752
51 766
51 868
51 878
51 890
51 896
51 905
51 926
51 942
51 958
51 964
51 987
52 53
52 134
52 174
52 177
52 278
52 295
52 388
52 394
52 408
52 535
52 542
52 585
52 852
52 969
53 83
53 113
53 135
53 141
53 174
53 186
53 278
53 295
53 358
53 440
53 500
53 534
53 571
53 614
53 662
53 690
53 742
53 778
53 916
54 60
54 64
54 84
54 100
54 126
54 152
54 153
54 160
54 212
54 217
54 295
54 363
54 434
54 507
54 590
54 695
54 760
54 847
54 958
54 987
55 67
55 95
55 199
55 228
55 337
55 346
55 354
55 377
55 379
55 407
55 408
55 423
55 431
55 455
55 493
55 529
55 548
55 560
55 612
55 644
55 687
55 735
55 870
55 881
55 887
55 909
55 926
55 928
55 954
56 180
56 237
56 265
56 294
56 327
56 329
56 332
56 368
56 400
56 455
56 494
56 527
56 560
56 565
56 594
56 618
56 727
56 781
56 825
56 855
56 901
56 902
56 914
56 993
57 83
57 101
57 121
57 259
57 309
57 345
57 375
57 414
57 439
57 490
57 534
57 575
57 744
57 859
58 64
58 80
58 158
58 200
58 217
58 222
58 246
58 261
58 337
58 384
58 389
58 407
58 497
58 507
58 508
58 561
58 584
58 588
58 600
58 613
58 636
58 659
58 737
58 766
58 767
58 838
58 850
58 868
58 938
58 972
59 79
59 187
59 189
59 228
59 269
59 298
59 497
59 513
59 570
59 572
59 702
59 707
59 747
59 753
59 770
59 781
59 830
59 949
59 999
60 84
60 126
60 135
60 176
60 305
60 469
60 476
60 507
60 584
60 613
60 622
60 625
60 737
60 785
60 877
60 984
60 987
61 83
61 85
61 168
61 180
61 237
61 283
61 380
61 381
61 489
61 541
61 591
61 669
61 738
61 890
61 907
61 936
61 977
61 980
62 78
62 230
62 256
62 381
62 385
62 428
62 471
62 532
62 556
62 591
62 599
62 634
62 665
62 688
62 775
62 790
62 845
62 911
62 963
62 993
63 69
63 115
63 118
63 134
63 259
63 356
63 359
63 380
63 418
63 514
63 617
63 626
63 691
63 694
63 715
63 756
63 870
63 883
64 98
64 110
64 123
64 150
64 186
64 231
64 305
64 334
64 584
64 590
64 659
64 737
64 898
64 926
64 958
65 90
65 122
65 180
65 230
65 250
65 262
65 310
65 337
65 340
65 375
65 381
65 399
65 428
65 462
65 489
65 500
65 506
65 519
65 556
65 584
65 590
65 606
65 646
65 657
65 663
65 685
65 718
65 907
65 919
65 927
65 930
65 955
65 986
66 117
66 197
66 232
66 233
66 243
66 246
66 292
66 296
66 309
66 339
66 340
66 348
66 414
66 515
66 545
66 569
66 577
66 611
66 674
66 684
66 752
66 765
66 795
66 834
66 902
66 922
66 983
67 180
67 237
67 260
67 315
67 357
67 385
67 402
67 406
67 462
67 477
67 480
67 484
67 510
67 512
67 541
67 591
67 601
67 698
67 727
67 819
67 855
67 910
67 977
67 999
68 95
68 283
68 292
68 314
68 316
68 336
68 358
68 432
68 480
68 530
68 549
68 574
68 641
68 672
68 683
68 726
68 744
68 832
68 867
68 972
69 72
69 93
69 104
69 107
69 115
69 267
69 350
69 356
69 435
69 536
69 565
69 568
69 617
69 622
69 641
69 702
69 717
69 733
69 880
69 952
70 85
70 115
70 154
70 214
70 342
70 347
70 453
70 479
70 538
70 567
70 637
70 660
70 673
70 728
70 814
70 820
70 950
70 951
71 103
71 107
71 120
71 130
71 207
71 342
71 450
71 453
71 465
71 535
71 560
71 643
71 651
71 756
71 804
71 819
71 851
71 857
71 867
71 870
71 887
71 890
71 909
71 943
71 946
71 948
71 954
72 93
72 107
72 124
72 204
72 308
72 356
72 441
72 465
72 487
72 578
72 641
72 678
72 978
73 79
73 82
73 129
73 130
73 139
73 196
73 260
73 288
73 305
73 331
73 377
73 439
73 460
73 503
73 517
73 653
73 851
73 873
73 966
74 95
74 104
74 115
74 119
74 124
74 134
74 195
74 201
74 225
74 245
74 255
74 261
74 356
74 587
74 628
74 641
74 789
74 846
74 889
74 962
75 292
75 301
75 308
75 316
75 342
75 358
75 371
75 531
75 549
75 574
75 595
75 672
75 690
75 797
75 846
75 885
75 979
76 115
76 149
76 272
76 356
76 380
76 413
76 537
76 609
76 626
76 641
76 691
76 695
76 723
76 802
76 893
77 118
77 146
77 169
77 259
77 307
77 309
77 311
77 312
77 357
77 441
77 494
77 520
77 534
77 546
77 595
77 611
77 612
77 619
77 638
77 644
77 706
77 766
77 866
77 890
78 187
78 217
78 348
78 382
78 386
78 434
78 446
78 518
78 674
78 725
78 745
78 791
78 869
78 954
78 957
78 995
79 82
79 148
79 183
79 186
79 187
79 263
79 282
79 414
79 503
79 511
79 635
79 769
79 836
79 852
79 893
79 914
79 965
80 129
80 137
80 147
80 209
80 224
80 225
80 228
80 232
80 248
80 251
80 264
80 370
80 471
80 527
80 533
80 544
80 562
80 606
80 621
80 809
80 849
80 856
80 863
80 866
80 939
80 989
80 995
81 86
81 102
81 133
81 143
81 214
81 225
81 248
81 251
81 282
81 307
81 308
81 312
81 330
81 372
81 404
81 470
81 483
81 487
81 532
81 551
81 555
81 570
81 575
81 592
81 615
81 621
81 643
81 647
81 741
81 789
81 809
81 821
81 837
81 863
81 888
81 927
81 976
82 183
82 389
82 460
82 517
82 614
82 697
82 754
82 828
83 91
83 140
83 167
83 220
83 221
83 230
83 279
83 289
83 326
83 373
83 381
83 428
83 436
83 449
83 462
83 472
83 487
83 523
83 541
83 577
83 626
83 642
83 648
83 669
83 690
83 703
83 712
83 776
83 789
83 819
83 822
83 910
83 911
83 936
83 941
83 963
83 983
83 986
83 996
84 87
84 98
84 110
84 375
84 387
84 388
84 456
84 566
84 580
84 600
84 636
84 659
84 711
84 841
84 905
84 910
84 987
85 220
85 302
85 439
85 460
85 517
85 576
85 595
85 635
85 813
85 882
86 88
86 182
86 197
86 225
86 228
86 232
86 244
86 251
86 265
86 267
86 279
86 315
86 419
86 449
86 450
86 483
86 487
86 491
86 505
86 532
86 553
86 555
86 596
86 621
86 624
86 643
86 647
86 665
86 793
86 801
86 831
86 863
86 872
86 888
86 893
86 897
86 948
86 956
86 960
86 989
86 995
87 119
87 120
87 200
87 202
87 309
87 342
87 391
87 398
87 432
87 450
87 453
87 465
87 468
87 535
87 560
87 586
87 635
87 653
87 693
87 717
87 785
87 851
87 948
88 182
88 298
88 312
88 330
88 373
88 399
88 532
88 544
88 573
88 596
88 767
88 773
88 794
88 801
88 856
88 879
88 923
88 980
88 987
88 989
89 156
89 217
89 266
89 267
89 351
89 396
89 584
89 600
89 625
89 648
89 905
89 927
89 958
90 125
90 230
90 239
90 262
90 285
90 341
90 364
90 381
90 402
90 455
90 472
90 473
90 500
90 506
90 518
90 606
90 663
90 669
90 789
90 857
90 866
90 910
90 921
90 974
90 977
90 980
90 984
91 126
91 262
91 280
91 450
91 525
91 671
91 686
91 687
91 718
91 779
91 782
91 785
91 831
91 851
91 870
91 881
91 947
92 134
92 136
92 137
92 140
92 166
92 187
92 251
92 252
92 254
92 259
92 308
92 330
92 383
92 413
92 435
92 441
92 467
92 483
92 505
92 532
92 555
92 566
92 592
92 596
92 639
92 656
92 794
92 809
92 863
92 989
93 134
93 271
93 356
93 482
93 497
93 531
93 552
93 557
93 660
93 691
93 755
93 863
94 113
94 131
94 138
94 259
94 284
94 358
94 359
94 404
94 539
94 595
94 658
94 671
94 761
94 766
94 772
94 779
95 105
95 148
95 180
95 233
95 270
95 296
95 346
95 347
95 351
95 368
95 454
95 524
95 527
95 538
95 723
95 800
95 822
95 848
95 937
96 122
96 385
96 416
96 449
96 452
96 463
96 541
96 549
96 556
96 684
96 748
96 819
96 843
96 900
96 907
96 961
96 976
97 121
97 175
97 179
97 276
97 284
97 331
97 367
97 370
97 421
97 461
97 473
97 628
97 645
97 652
97 654
97 661
97 776
97 782
97 793
97 902
97 929
97 933
98 110
98 126
98 160
98 217
98 270
98 305
98 386
98 427
98 448
98 507
98 512
98 559
98 580
98 584
98 613
98 659
98 737
98 906
98 927
98 958
99 103
99 107
99 207
99 342
99 450
99 458
99 567
99 595
99 655
99 840
99 870
99 887
99 954
100 110
100 111
100 172
100 175
100 216
100 222
100 227
100 344
100 363
100 380
100 410
100 472
100 507
100 584
100 659
100 671
100 927
100 987
101 105
101 141
101 177
101 188
101 194
101 196
101 211
101 236
101 242
101 272
101 274
101 280
101 293
101 340
101 341
101 390
101 421
101 443
101 467
101 515
101 524
101 591
101 616
101 627
101 664
101 667
101 675
101 677
101 689
101 784
101 787
101 853
101 877
101 912
101 942
101 961
102 167
102 180
102 194
102 328
102 342
102 396
102 423
102 450
102 455
102 664
102 682
102 735
102 864
102 945
102 961
102 999
103 108
103 150
103 206
103 259
103 275
103 305
103 328
103 333
103 362
103 373
103 377
103 409
103 431
103 450
103 465
103 518
103 535
103 572
103 589
103 602
103 683
103 687
103 703
103 723
103 773
103 857
103 879
103 884
103 887
103 934
103 946
103 948
103 961
103 973
104 107
104 118
104 119
104 134
104 150
104 153
104 336
104 389
104 596
104 665
104 681
104 908
104 984
105 116
105 151
105 158
105 178
105 268
105 274
105 297
105 302
105 315
105 323
105 327
105 340
105 348
105 406
105 412
105 438
105 441
105 472
105 477
105 516
105 523
105 524
105 527
105 557
105 565
105 603
105 610
105 628
105 649
105 674
105 685
105 745
105 787
105 825
105 835
105 845
105 857
105 858
105 875
105 955
105 962
105 983
106 164
106 209
106 274
106 325
106 327
106 348
106 368
106 387
106 412
106 422
106 454
106 538
106 622
106 632
106 637
106 674
106 689
106 692
106 711
106 733
106 744
106 771
106 783
106 895
106 900
106 966
107 124
107 134
107 145
107 149
107 185
107 188
107 225
107 261
107 356
107 359
107 380
107 397
107 440
107 578
107 589
107 590
107 599
107 609
107 622
107 626
107 641
107 814
107 825
107 961
107 968
107 984
107 991
108 109
108 175
108 203
108 372
108 408
108 423
108 453
108 455
108 474
108 493
108 513
108 531
108 535
108 723
108 735
108 804
108 810
108 831
108 913
108 947
109 120
109 147
109 150
109 378
109 379
109 450
109 467
109 525
109 527
109 640
109 798
109 824
109 896
109 948
110 132
110 152
110 186
110 188
110 222
110 240
110 308
110 310
110 384
110 408
110 436
110 462
110 492
110 580
110 590
110 613
110 630
110 636
110 659
110 668
110 723
110 737
110 838
110 861
110 905
110 945
110 987
110 999
111 164
111 175
111 224
111 234
111 257
111 290
111 369
111 530
111 595
111 631
111 707
111 716
111 763
111 785
111 828
111 865
111 894
112 123
112 210
112 228
112 299
112 382
112 432
112 500
112 548
112 594
112 605
112 625
112 814
112 881
113 114
113 129
113 140
113 151
113 168
113 395
113 398
113 407
113 645
113 704
113 740
113 743
113 859
113 895
113 929
113 953
114 161
114 387
114 539
114 555
114 690
114 703
114 781
114 782
114 861
114 929
114 953
115 119
115 134
115 153
115 289
115 356
115 359
115 397
115 400
115 467
115 513
115 589
115 617
115 626
115 641
115 671
115 691
115 844
115 922
115 940
116 196
116 265
116 327
116 375
116 406
116 510
116 514
116 523
116 524
116 527
116 530
116 542
116 545
116 558
116 565
116 577
116 590
116 685
116 703
116 993
117 162
117 170
117 263
117 269
117 323
117 327
117 341
117 347
117 454
117 514
117 521
117 524
117 531
117 557
117 637
117 677
117 727
117 908
117 920
117 961
117 967
117 971
117 987
118 149
118 243
118 261
118 296
118 346
118 356
118 390
118 445
118 472
118 545
118 590
118 755
118 760
118 766
118 772
118 948
119 134
119 146
119 149
119 209
119 266
119 288
119 334
119 350
119 397
119 454
119 508
119 543
119 617
119 620
119 622
119 626
119 635
119 641
119 684
119 686
119 691
119 782
119 834
119 868
119 972
119 984
119 985
120 214
120 280
120 333
120 377
120 389
120 390
120 408
120 455
120 527
120 636
120 666
120 772
120 835
120 879
120 891
120 948
120 954
121 129
121 200
121 253
121 259
121 449
121 612
121 613
121 709
121 733
121 747
121 783
121 937
121 986
122 173
122 177
122 260
122 272
122 385
122 425
122 436
122 601
122 663
122 712
122 748
122 910
122 963
123 212
123 245
123 256
123 361
123 375
123 381
123 404
123 488
123 497
123 531
123 594
123 616
123 629
123 634
123 636
123 721
123 746
123 757
123 858
123 867
123 998
124 134
124 140
124 153
124 166
124 282
124 359
124 524
124 575
124 671
124 685
124 691
124 812
125 136
125 137
125 244
125 252
125 308
125 312
125 354
125 381
125 473
125 533
125 544
125 547
125 569
125 677
125 801
125 809
125 851
125 888
125 893
125 937
125 989
126 133
126 175
126 197
126 223
126 274
126 378
126 580
126 588
126 600
126 863
126 868
126 891
126 965
127 234
127 247
127 286
127 310
127 320
127 337
127 354
127 384
127 401
127 409
127 411
127 414
127 557
127 575
127 617
127 681
127 712
127 749
127 785
127 871
127 947
127 989
128 155
128 241
128 244
128 258
128 269
128 279
128 300
128 541
128 552
128 590
128 657
128 771
128 786
128 800
128 812
128 898
128 903
128 945
129 169
129 200
129 268
129 455
129 595
129 701
129 720
129 769
129 785
129 897
130 142
130 162
130 181
130 238
130 256
130 268
130 318
130 329
130 533
130 539
130 550
130 627
131 153
131 206
131 208
131 236
131 282
131 339
131 466
131 512
131 524
131 527
131 551
131 576
131 577
131 658
131 671
131 727
131 742
131 836
131 844
131 845
131 891
131 928
131 939
131 961
132 133
132 215
132 222
132 262
132 263
132 282
132 321
132 345
132 384
132 492
132 507
132 584
132 590
132 659
132 679
132 708
132 958
133 194
133 213
133 214
133 240
133 250
133 276
133 283
133 297
133 301
133 322
133 324
133 362
133 375
133 389
133 457
133 519
133 588
133 593
133 695
133 752
133 799
133 808
133 818
133 837
133 841
133 937
133 978
133 986
134 135
134 152
134 356
134 359
134 524
134 589
134 592
134 617
134 622
134 626
134 634
134 702
134 725
134 756
134 976
135 203
135 311
135 419
135 438
135 468
135 546
135 581
135 612
135 752
135 772
135 815
135 981
136 163
136 313
136 330
136 391
136 467
136 499
136 533
136 624
136 662
136 682
136 801
136 809
136 856
136 860
136 893
136 948
136 989
137 225
137 544
137 561
137 626
137 695
137 742
137 773
137 793
137 794
137 856
137 893
137 989
138 284
138 311
138 489
138 509
138 536
138 581
138 630
138 702
138 752
138 767
138 801
138 878
138 980
139 183
139 208
139 219
139 358
139 422
139 427
139 521
139 529
139 622
139 668
139 670
139 823
139 836
139 948
139 976
140 238
140 245
140 406
140 441
140 597
140 634
140 654
140 660
140 667
140 704
140 723
140 727
140 740
140 744
140 752
140 782
140 794
140 861
140 884
140 929
140 982
141 152
141 186
141 203
141 251
141 272
141 520
141 568
141 614
141 662
141 716
141 794
141 796
141 805
141 867
142 208
142 213
142 266
142 318
142 361
142 375
142 513
142 530
142 555
142 593
142 611
142 653
142 680
142 699
142 752
142 790
142 795
142 815
142 841
142 882
142 922
142 931
142 945
143 151
143 163
143 225
143 248
143 264
143 296
143 310
143 330
143 340
143 437
143 544
143 584
143 621
143 668
143 726
143 781
143 809
143 812
143 815
143 855
143 863
143 920
143 972
144 259
144 565
144 613
144 646
144 737
144 768
144 782
144 861
144 925
144 929
145 259
145 309
145 311
145 379
145 417
145 542
145 552
145 587
145 595
145 661
145 760
145 766
145 768
145 772
145 896
145 922
146 165
146 273
146 279
146 309
146 343
146 364
146 376
146 502
146 560
146 595
146 612
146 620
146 766
146 774
147 180
147 205
147 218
147 221
147 247
147 270
147 294
147 313
147 356
147 429
147 515
147 524
147 560
147 585
147 595
147 623
147 655
147 683
147 715
147 891
147 901
147 914
147 998
148 162
148 238
148 282
148 287
148 327
148 425
148 444
148 503
148 514
148 521
148 632
148 637
148 646
148 823
148 840
148 899
148 902
148 908
148 909
148 914
148 948
148 950
148 974
149 225
149 256
149 313
149 320
149 439
149 452
149 583
149 891
149 957
150 248
150 260
150 280
150 321
150 342
150 359
150 445
150 450
150 530
150 560
150 686
150 781
150 850
150 851
150 911
151 259
151 300
151 352
151 674
151 675
151 772
151 782
151 848
151 862
152 169
152 240
152 305
152 445
152 545
152 588
152 600
152 647
152 677
152 874
153 173
153 198
153 318
153 339
153 356
153 515
153 626
153 860
153 960
154 161
154 162
154 166
154 169
154 170
154 178
154 184
154 219
154 258
154 538
154 572
154 614
154 666
154 680
154 734
154 808
154 814
154 983
155 196
155 214
155 241
155 277
155 371
155 406
155 407
155 441
155 449
155 622
155 699
155 746
155 770
155 786
155 903
155 919
155 945
155 978
156 188
156 194
156 196
156 283
156 314
156 484
156 575
156 764
156 867
156 971
157 159
157 166
157 187
157 191
157 281
157 285
157 396
157 401
157 420
157 495
157 529
157 599
157 664
157 684
157 724
157 728
157 738
157 774
157 807
157 828
157 842
157 893
157 895
157 921
157 962
158 214
158 266
158 291
158 297
158 324
158 334
158 451
158 459
158 491
158 660
158 694
158 695
158 702
158 737
158 827
158 839
158 964
158 992
158 999
159 174
159 194
159 213
159 218
159 284
159 289
159 290
159 293
159 300
159 322
159 351
159 376
159 424
159 466
159 501
159 509
159 532
159 544
159 564
159 575
159 599
159 639
159 701
159 716
159 808
159 828
159 838
159 847
159 889
159 899
159 901
160 173
160 176
160 534
160 613
160 621
160 630
160 659
160 702
161 172
161 184
161 219
161 223
161 260
161 374
161 628
161 683
161 745
161 813
161 923
161 926
161 932
162 170
162 348
162 382
162 443
162 527
162 577
162 627
162 781
162 817
162 937
162 985
163 209
163 225
163 232
163 245
163 259
163 267
163 306
163 308
163 315
163 330
163 356
163 383
163 469
163 483
163 490
163 555
163 583
163 592
163 596
163 606
163 621
163 643
163 651
163 668
163 715
163 742
163 789
163 794
163 828
163 872
163 989
164 181
164 233
164 245
164 293
164 404
164 437
164 515
164 521
164 524
164 569
164 683
164 685
164 718
164 727
164 787
164 821
164 877
164 897
164 900
164 906
164 951
165 224
165 269
165 291
165 300
165 395
165 396
165 411
165 418
165 457
165 500
165 529
165 681
165 688
165 785
165 818
165 849
165 851
165 865
165 893
165 991
166 172
166 184
166 219
166 278
166 369
166 381
166 386
166 396
166 418
166 426
166 447
166 455
166 485
166 486
166 505
166 530
166 538
166 540
166 567
166 572
166 586
166 607
166 641
166 666
166 673
166 681
166 689
166 734
166 774
166 776
166 813
166 814
166 833
166 857
166 874
166 879
166 891
166 921
166 924
166 937
166 950
166 951
166 969
167 385
167 386
167 541
167 563
167 598
167 606
167 789
167 843
167 889
167 983
168 314
168 327
168 405
168 407
168 574
168 695
168 735
168 782
168 810
168 822
168 861
168 904
169 203
169 205
169 256
169 265
169 269
169 315
169 323
169 341
169 342
169 391
169 515
169 528
169 543
169 569
169 573
169 625
169 628
169 664
169 670
169 712
169 722
169 724
169 782
169 784
169 787
169 809
169 835
169 872
169 908
169 914
170 184
170 204
170 291
170 375
170 454
170 515
170 538
170 540
170 560
170 572
170 638
170 776
170 814
170 833
170 951
170 983
171 198
171 271
171 382
171 516
171 530
171 597
171 625
171 626
171 719
171 724
171 726
171 791
171 830
171 875
172 184
172 219
172 237
172 242
172 282
172 389
172 506
172 536
172 538
172 572
172 647
172 672
172 745
172 814
172 833
173 176
173 185
173 224
173 234
173 247
173 289
173 300
173 313
173 321
173 393
173 418
173 420
173 435
173 458
173 485
173 504
173 550
173 640
173 650
173 712
173 739
173 754
173 762
173 802
173 807
173 837
173 840
173 842
173 897
173 899
173 914
173 932
173 933
173 934
173 960
173 987
173 996
174 267
174 278
174 289
174 371
174 498
174 526
174 542
174 547
174 551
174 568
174 662
174 818
175 365
175 375
175 394
175 397
175 405
175 654
175 704
175 744
175 782
175 861
175 868
175 912
176 184
176 194
176 224
176 271
176 275
176 313
176 353
176 382
176 409
176 411
176 433
176 461
176 466
176 504
176 522
176 626
176 642
176 680
176 710
176 732
176 739
176 755
176 785
176 788
176 837
176 892
176 897
176 944
176 956
176 967
176 992
177 202
177 205
177 248
177 274
177 294
177 296
177 327
177 384
177 443
177 463
177 493
177 504
177 513
177 545
177 565
177 603
177 610
177 618
177 627
177 664
177 698
177 736
177 816
177 834
177 835
177 848
177 876
177 955
178 195
178 288
178 300
178 313
178 369
178 370
178 371
178 396
178 433
178 509
178 681
178 716
178 754
178 785
178 861
178 868
178 894
178 897
178 922
178 940
179 565
179 588
179 602
179 749
179 782
179 799
179 861
179 862
179 889
179 929
180 201
180 260
180 265
180 271
180 285
180 311
180 316
180 321
180 381
180 385
180 402
180 426
180 428
180 462
180 469
180 473
180 480
180 489
180 500
180 506
180 561
180 599
180 606
180 610
180 619
180 629
180 632
180 642
180 648
180 663
180 690
180 692
180 739
180 748
180 790
180 798
180 804
180 819
180 828
180 843
180 930
180 969
180 974
180 977
180 980
180 986
180 991
181 219
181 242
181 298
181 303
181 309
181 318
181 349
181 381
181 429
181 551
181 666
181 720
181 752
181 758
181 841
181 915
181 937
182 244
182 286
182 483
182 508
182 522
182 528
182 532
182 544
182 596
182 773
182 794
182 798
182 858
182 869
182 891
182 926
182 989
183 208
183 275
183 297
183 349
183 422
183 439
183 460
183 503
183 517
183 604
183 635
183 639
183 649
183 752
183 790
183 823
183 826
183 836
183 852
183 860
183 866
183 870
183 957
184 204
184 216
184 219
184 223
184 447
184 460
184 485
184 486
184 538
184 545
184 567
184 572
184 638
184 662
184 663
184 666
184 669
184 683
184 702
184 720
184 734
184 751
184 776
184 792
184 813
184 833
184 876
184 917
184 920
184 932
184 969
184 985
185 271
185 300
185 320
185 321
185 327
185 349
185 396
185 469
185 471
185 539
185 555
185 641
185 657
185 695
185 701
185 716
185 742
185 743
185 763
185 777
185 785
185 897
185 918
185 941
185 957
185 996
186 202
186 278
186 295
186 433
186 440
186 479
186 526
186 542
186 546
186 551
186 559
186 568
186 571
186 581
186 610
186 614
186 670
186 710
186 712
186 778
186 793
186 805
186 916
186 939
186 946
187 290
187 323
187 324
187 508
187 518
187 536
187 570
187 588
187 648
187 651
187 714
187 726
187 741
187 753
187 761
187 788
187 791
187 818
187 834
187 938
187 943
187 998
188 197
188 237
188 250
188 259
188 263
188 292
188 348
188 421
188 512
188 523
188 527
188 540
188 577
188 584
188 677
188 712
188 785
188 787
188 795
188 902
188 993
189 233
189 317
189 337
189 343
189 400
189 404
189 446
189 510
189 530
189 625
189 684
189 697
189 713
189 726
189 747
189 812
189 818
189 915
189 999
190 236
190 286
190 371
190 435
190 502
190 524
190 530
190 584
190 651
190 685
190 698
190 799
190 818
190 861
190 875
191 259
191 269
191 279
191 309
191 311
191 522
191 523
191 534
191 600
191 612
191 766
191 768
191 779
191 845
191 929
191 950
192 246
192 425
192 483
192 518
192 575
192 595
192 597
192 632
192 651
192 741
192 743
192 747
192 818
192 846
192 854
192 994
192 997
193 214
193 218
193 269
193 272
193 303
193 335
193 375
193 451
193 542
193 562
193 808
193 810
193 816
193 822
193 933
194 211
194 300
194 313
194 333
194 420
194 424
194 433
194 648
194 668
194 743
194 763
194 785
194 807
194 828
194 938
194 960
195 257
195 277
195 289
195 300
195 369
195 375
195 409
195 418
195 461
195 468
195 555
195 575
195 690
195 704
195 731
195 785
195 847
195 897
195 981
196 296
196 381
196 565
196 577
196 631
196 637
196 646
196 692
196 721
196 727
196 762
196 780
196 785
196 789
196 814
196 834
196 918
196 929
196 994
197 269
197 278
197 295
197 456
197 542
197 569
197 604
197 651
197 704
197 785
197 789
198 260
198 342
198 449
198 504
198 516
198 599
198 606
198 619
198 669
198 690
198 699
198 789
198 911
199 214
199 366
199 389
199 435
199 442
199 447
199 480
199 490
199 496
199 499
199 544
199 607
199 695
199 702
199 772
199 805
199 820
199 864
199 871
199 897
199 917
199 938
199 950
199 952
199 985
200 284
200 309
200 311
200 450
200 502
200 536
200 546
200 648
200 683
200 698
200 709
200 740
200 766
200 769
200 772
200 779
200 824
200 856
200 890
200 910
200 935
200 974
200 987
201 280
201 327
201 356
201 388
201 559
201 589
201 626
201 627
201 669
201 755
201 763
201 831
201 833
201 941
201 944
202 235
202 266
202 278
202 282
202 378
202 441
202 498
202 538
202 568
202 797
202 902
202 916
202 972
203 213
203 227
203 236
203 247
203 253
203 294
203 327
203 454
203 487
203 490
203 523
203 524
203 544
203 565
203 577
203 585
203 655
203 680
203 729
203 743
203 771
203 780
203 781
203 783
203 891
203 919
204 228
204 420
204 486
204 538
204 558
204 567
204 572
204 689
204 700
204 720
204 722
204 760
204 798
204 813
204 926
205 236
205 243
205 269
205 294
205 443
205 502
205 511
205 523
205 526
205 633
205 740
205 781
205 799
205 808
205 876
205 891
205 900
205 912
205 956
205 966
206 271
206 364
206 411
206 453
206 468
206 482
206 560
206 602
206 663
206 870
206 948
206 977
207 259
207 332
207 337
207 342
207 360
207 372
207 373
207 409
207 431
207 450
207 453
207 468
207 474
207 504
207 557
207 560
207 590
207 672
207 693
207 728
207 851
207 882
207 948
207 993
208 355
208 422
208 439
208 481
208 517
208 585
208 696
208 743
208 801
208 852
208 860
208 977
209 356
209 368
209 413
209 519
209 537
209 641
209 817
209 897
210 294
210 326
210 382
210 455
210 463
210 497
210 537
210 594
210 746
210 797
210 802
210 859
210 981
210 998
211 236
211 339
211 405
211 429
211 545
211 603
211 664
211 719
211 727
211 840
211 895
211 956
212 262
212 279
212 375
212 391
212 415
212 442
212 516
212 529
212 633
212 694
212 723
212 725
212 736
212 933
213 285
213 286
213 300
213 308
213 334
213 410
213 415
213 499
213 505
213 562
213 574
213 595
213 624
213 660
213 694
213 736
213 747
213 797
213 810
213 817
213 849
214 218
214 266
214 276
214 329
214 349
214 426
214 531
214 650
214 660
214 722
214 763
214 787
214 808
214 810
214 875
214 952
214 978
215 382
215 425
215 480
215 487
215 518
215 530
215 570
215 695
215 719
215 770
215 818
215 865
215 891
215 979
215 997
216 381
216 390
216 393
216 423
216 507
216 523
216 527
216 584
216 590
216 600
216 659
216 868
216 904
216 905
216 946
216 996
217 286
217 348
217 396
217 479
217 519
217 557
217 562
217 580
217 588
217 659
217 681
217 772
217 958
218 266
218 339
218 389
218 468
218 480
218 652
218 728
218 752
218 757
218 792
218 799
218 822
218 882
218 898
219 229
219 426
219 443
219 538
219 572
219 638
219 666
219 693
219 711
219 745
219 776
219 813
219 833
219 905
219 921
219 948
219 983
220 225
220 233
220 530
220 558
220 597
220 601
220 622
220 760
220 903
220 938
221 274
221 306
221 313
221 404
221 446
221 488
221 545
221 651
221 670
221 696
221 714
221 764
221 875
221 921
221 940
221 945
221 996
221 998
222 448
222 489
222 565
222 590
222 659
222 695
222 737
222 983
223 243
223 249
223 300
223 479
223 486
223 504
223 538
223 559
223 572
223 638
223 673
223 776
223 893
223 950
223 983
224 300
224 330
224 356
224 360
224 459
224 504
224 548
224 647
224 743
224 897
224 959
224 978
225 244
225 251
225 254
225 264
225 288
225 306
225 321
225 330
225 370
225 376
225 383
225 399
225 460
225 466
225 487
225 505
225 528
225 545
225 547
225 592
225 596
225 621
225 643
225 647
225 668
225 726
225 817
225 818
225 819
225 860
225 872
225 893
225 968
225 989
225 995
226 382
226 518
226 651
226 684
226 780
226 789
226 818
226 820
226 830
226 876
226 900
226 910
226 938
226 994
227 231
227 265
227 327
227 330
227 410
227 454
227 557
227 565
227 576
227 579
227 585
227 611
227 693
227 765
227 783
227 861
227 886
227 890
227 902
227 950
227 961
227 968
228 289
228 497
228 507
228 514
228 594
228 634
228 664
228 668
228 727
228 752
228 985
228 998
229 511
229 512
229 539
229 563
229 568
229 572
229 594
229 673
229 730
229 813
229 833
229 843
229 887
229 892
229 909
229 932
230 300
230 338
230 385
230 501
230 591
230 598
230 610
230 811
230 958
231 238
231 285
231 296
231 297
231 318
231 415
231 558
231 570
231 719
231 726
231 738
231 817
231 929
232 265
232 349
232 521
232 532
232 544
232 603
232 643
232 795
232 893
232 894
232 895
232 896
232 989
233 272
233 273
233 289
233 293
233 296
233 402
233 510
233 512
233 524
233 527
233 543
233 558
233 573
233 576
233 659
233 680
233 877
234 243
234 267
234 289
234 313
234 347
234 351
234 510
234 522
234 595
234 681
234 682
234 724
234 762
234 785
234 925
235 240
235 285
235 335
235 338
235 348
235 353
235 355
235 445
235 490
235 568
235 583
235 650
235 752
235 785
235 810
235 968
236 245
236 272
236 317
236 323
236 338
236 348
236 368
236 388
236 395
236 417
236 527
236 569
236 579
236 608
236 633
236 658
236 660
236 674
236 676
236 685
236 687
236 715
236 720
236 749
236 810
236 861
236 883
236 891
236 895
236 902
236 920
236 939
236 962
236 969
236 995
237 276
237 300
237 385
237 471
237 492
237 500
237 556
237 560
237 574
237 597
237 617
237 671
237 787
237 790
237 792
237 911
237 944
237 975
237 976
238 393
238 424
238 464
238 530
238 549
238 574
238 615
238 629
238 694
238 695
238 699
238 723
238 762
238 818
238 822
238 935
239 355
239 418
239 420
239 511
239 589
239 650
239 660
239 702
239 725
239 752
239 757
239 775
239 856
239 898
240 245
240 286
240 303
240 328
240 334
240 353
240 364
240 375
240 416
240 442
240 444
240 452
240 453
240 494
240 511
240 518
240 548
240 572
240 594
240 642
240 658
240 675
240 695
240 725
240 752
240 811
240 853
240 858
240 906
240 933
240 978
240 985
241 258
241 347
241 373
241 422
241 545
241 553
241 608
241 625
241 633
241 669
241 707
241 762
241 832
241 902
241 903
241 925
241 945
242 269
242 282
242 301
242 336
242 401
242 478
242 485
242 538
242 540
242 666
242 715
242 814
242 932
242 969
243 291
243 294
243 338
243 348
243 351
243 415
243 417
243 449
243 521
243 573
243 625
243 657
243 685
243 785
243 848
243 961
244 248
244 289
244 330
244 374
244 422
244 486
244 606
244 607
244 643
244 702
244 766
244 837
244 863
244 893
244 903
244 989
245 299
245 361
245 497
245 531
245 594
245 616
245 629
245 730
245 814
245 858
245 859
245 911
245 962
245 981
245 998
246 253
246 255
246 256
246 294
246 296
246 313
246 317
246 332
246 527
246 531
246 543
246 565
246 569
246 577
246 579
246 611
246 615
246 621
246 625
246 637
246 654
246 674
246 710
246 713
246 729
246 782
246 844
246 891
246 900
247 251
247 285
247 288
247 300
247 353
247 354
247 376
247 396
247 411
247 413
247 418
247 420
247 494
247 501
247 561
247 574
247 707
247 736
247 778
247 785
247 828
247 897
247 988
248 251
248 308
248 528
248 624
248 647
248 801
248 809
248 872
248 877
248 989
249 259
249 333
249 566
249 595
249 706
249 754
249 757
249 780
249 826
249 886
250 253
250 269
250 291
250 303
250 329
250 344
250 355
250 389
250 408
250 423
250 442
250 455
250 514
250 548
250 562
250 582
250 660
250 694
250 695
250 722
250 725
250 750
250 810
250 811
250 906
251 267
251 310
251 330
251 346
251 400
251 473
251 487
251 505
251 593
251 596
251 647
251 969
252 273
252 309
252 311
252 327
252 456
252 562
252 572
252 640
252 698
252 702
252 765
252 772
252 779
252 844
253 261
253 274
253 285
253 288
253 294
253 302
253 340
253 394
253 496
253 513
253 514
253 621
253 658
253 677
253 754
253 804
253 854
253 867
253 914
254 290
254 308
254 375
254 471
254 487
254 527
254 544
254 547
254 647
254 668
254 794
254 856
254 862
254 863
254 940
255 277
255 476
255 535
255 557
255 565
255 579
255 625
255 714
255 734
255 781
255 821
255 860
255 891
255 893
255 984
256 286
256 299
256 302
256 326
256 382
256 436
256 440
256 488
256 497
256 606
256 616
256 634
256 656
256 746
256 859
256 981
257 290
257 300
257 310
257 322
257 411
257 504
257 605
257 731
257 743
257 746
257 762
257 763
257 792
257 828
257 842
257 847
257 865
257 935
257 953
257 998
258 271
258 277
258 469
258 470
258 486
258 518
258 552
258 605
258 722
258 786
258 792
258 812
259 273
259 275
259 309
259 345
259 378
259 438
259 465
259 519
259 520
259 573
259 576
259 581
259 595
259 612
259 703
259 706
259 711
259 723
259 745
259 746
259 759
259 760
259 761
259 765
259 766
259 767
259 768
259 772
259 774
259 779
259 801
259 833
259 878
259 880
259 964
259 976
260 291
260 385
260 461
260 470
260 490
260 520
260 537
260 541
260 563
260 591
260 641
260 672
260 673
260 782
260 789
260 819
260 868
260 944
260 977
260 980
261 273
261 299
261 333
261 359
261 380
261 524
261 749
261 755
261 823
261 839
261 854
261 988
261 989
262 323
262 381
262 426
262 449
262 460
262 472
262 477
262 484
262 506
262 521
262 538
262 556
262 563
262 599
262 601
262 690
262 798
262 833
262 834
262 887
262 911
262 919
262 944
262 954
262 977
262 992
262 999
263 283
263 313
263 349
263 412
263 418
263 453
263 489
263 539
263 566
263 575
263 636
263 645
263 679
263 701
263 743
263 785
263 889
263 909
263 918
263 932
263 940
264 267
264 307
264 371
264 378
264 482
264 505
264 524
264 528
264 544
264 575
264 596
264 625
264 644
264 665
264 668
264 714
264 809
264 872
264 893
264 946
264 989
265 274
265 293
265 324
265 387
265 421
265 441
265 453
265 454
265 476
265 527
265 545
265 558
265 570
265 577
265 604
265 658
265 673
265 687
265 787
265 802
265 834
265 845
265 875
265 891
265 910
265 943
265 961
265 962
265 972
265 994
266 298
266 345
266 444
266 471
266 506
266 558
266 594
266 660
266 675
266 694
266 699
266 702
266 705
266 712
266 723
266 750
266 810
266 822
266 829
266 863
266 868
267 296
267 386
267 528
267 544
267 555
267 624
267 625
267 668
267 989
267 995
268 387
268 425
268 446
268 530
268 563
268 597
268 600
268 657
268 681
268 708
268 751
268 770
268 791
268 869
268 875
269 291
269 392
269 452
269 533
269 631
269 792
269 802
269 839
269 906
269 914
269 952
269 954
269 972
269 988
270 274
270 329
270 340
270 346
270 486
270 513
270 557
270 569
270 628
270 632
270 649
270 700
270 724
270 725
270 727
270 771
270 778
270 784
270 793
270 883
270 895
270 906
270 914
270 921
270 951
270 966
270 996
271 466
271 529
271 575
271 584
271 624
271 659
271 688
271 730
271 743
271 788
271 804
271 934
271 960
272 302
272 304
272 424
272 461
272 514
272 524
272 557
272 571
272 633
272 658
272 692
272 778
272 808
272 825
272 839
272 877
272 891
272 900
272 901
272 928
272 961
273 345
273 367
273 430
273 482
273 706
273 772
273 779
273 878
273 891
273 991
274 302
274 322
274 324
274 327
274 339
274 340
274 351
274 410
274 442
274 452
274 453
274 502
274 511
274 527
274 598
274 632
274 646
274 737
274 766
274 778
274 855
274 913
275 320
275 366
275 411
275 423
275 431
275 464
275 693
275 724
275 725
275 760
275 806
275 828
275 897
275 902
275 954
275 988
276 504
276 541
276 590
276 723
276 724
276 725
276 750
276 933
276 948
276 964
276 986
277 308
277 540
277 552
277 564
277 657
277 670
277 800
277 891
277 903
277 948
278 467
278 568
278 669
278 717
278 743
278 812
278 959
278 998
279 294
279 305
279 329
279 344
279 398
279 444
279 499
279 541
279 577
279 627
279 653
279 705
279 735
279 758
279 788
279 818
279 827
279 913
279 917
279 931
279 933
279 940
279 956
280 326
280 333
280 360
280 372
280 431
280 432
280 474
280 489
280 535
280 560
280 572
280 586
280 625
280 681
280 705
280 785
280 840
280 879
280 935
281 313
281 320
281 364
281 369
281 409
281 495
281 564
281 688
281 695
281 752
281 754
281 772
281 838
281 840
281 894
282 296
282 315
282 322
282 339
282 406
282 514
282 524
282 537
282 565
282 603
282 634
282 674
282 700
282 724
282 806
282 901
282 908
282 950
283 292
283 301
283 310
283 316
283 336
283 342
283 358
283 574
283 582
283 583
283 614
283 682
283 782
283 794
283 812
283 827
283 832
284 309
284 438
284 581
284 595
284 713
284 768
284 773
284 810
284 867
284 895
284 914
284 942
284 988
285 291
285 329
285 338
285 660
285 691
285 692
285 694
285 725
285 736
285 752
285 768
285 795
285 799
285 822
285 890
285 917
285 948
285 952
286 361
286 362
286 409
286 532
286 552
286 594
286 604
286 634
286 730
286 738
286 746
287 363
287 435
287 493
287 527
287 548
287 561
287 597
287 651
287 698
287 741
287 766
287 785
287 791
287 796
287 821
287 823
287 830
287 984
288 313
288 320
288 348
288 376
288 392
288 409
288 418
288 504
288 550
288 564
288 575
288 644
288 651
288 688
288 701
288 716
288 743
288 789
288 828
288 833
288 979
288 988
289 366
289 378
289 418
289 504
289 707
289 739
289 785
289 829
289 840
289 905
289 925
289 987
290 300
290 348
290 369
290 466
290 550
290 564
290 658
290 708
290 785
290 804
290 837
290 850
290 857
290 960
291 298
291 315
291 325
291 355
291 363
291 375
291 480
291 533
291 579
291 641
291 646
291 650
291 695
291 730
291 750
291 797
291 799
291 816
291 818
291 825
291 835
291 914
291 933
292 301
292 376
292 381
292 431
292 591
292 615
292 656
292 672
292 693
292 708
292 754
292 832
292 842
292 867
293 316
293 424
293 495
293 521
293 524
293 618
293 851
293 891
293 905
293 911
293 937
293 953
293 966
294 296
294 335
294 412
294 497
294 527
294 585
294 618
294 623
294 625
294 646
294 655
294 659
294 674
294 709
294 725
294 729
294 795
294 807
294 853
294 862
295 377
295 396
295 444
295 450
295 458
295 466
295 485
295 499
295 528
295 542
295 559
295 568
295 571
295 610
295 614
295 717
295 720
295 725
295 759
295 916
295 959
295 987
296 323
296 324
296 348
296 381
296 385
296 405
296 427
296 437
296 438
296 510
296 513
296 514
296 521
296 527
296 557
296 565
296 569
296 577
296 578
296 579
296 625
296 633
296 649
296 655
296 687
296 727
296 744
296 765
296 771
296 778
296 787
296 845
296 848
296 877
296 896
296 914
296 928
296 942
296 962
296 981
297 383
297 640
297 652
297 712
297 724
297 725
297 752
297 806
297 822
297 867
297 890
297 901
297 915
297 924
297 925
297 933
298 379
298 416
298 541
298 593
298 612
298 766
298 801
298 828
298 831
298 854
298 941
298 978
298 999
299 326
299 415
299 446
299 497
299 532
299 588
299 733
299 773
299 895
300 331
300 378
300 396
300 409
300 433
300 456
300 471
300 501
300 504
300 510
300 529
300 550
300 554
300 575
300 655
300 743
300 754
300 804
300 807
300 842
300 848
300 865
300 894
300 897
300 918
300 922
300 994
300 996
301 366
301 498
301 534
301 548
301 570
301 691
301 810
301 885
302 325
302 604
302 633
302 637
302 667
302 671
302 699
302 742
302 797
302 861
302 892
302 924
302 929
302 961
302 994
303 389
303 418
303 517
303 660
303 695
303 705
303 757
303 770
303 772
303 817
303 844
303 891
303 962
304 432
304 436
304 478
304 498
304 526
304 549
304 594
304 672
304 682
304 705
305 320
305 363
305 401
305 492
305 553
305 588
305 630
305 632
305 659
305 763
305 838
305 868
305 958
305 983
305 987
306 309
306 325
306 330
306 370
306 505
306 528
306 532
306 547
306 592
306 596
306 647
306 835
306 888
306 893
306 910
306 987
306 995
307 312
307 339
307 343
307 370
307 383
307 388
307 406
307 534
307 544
307 562
307 596
307 617
307 643
307 647
307 665
307 773
307 794
307 856
307 872
307 893
307 989
308 328
308 348
308 487
308 505
308 528
308 566
308 621
308 628
308 643
308 662
308 679
308 794
308 801
308 869
308 909
308 989
309 345
309 348
309 357
309 387
309 424
309 456
309 569
309 587
309 595
309 612
309 623
309 627
309 815
309 907
310 313
310 369
310 396
310 404
310 435
310 466
310 468
310 480
310 522
310 541
310 551
310 564
310 599
310 675
310 681
310 683
310 685
310 707
310 729
310 738
310 739
310 804
310 822
310 834
310 991
311 356
311 376
311 392
311 520
311 549
311 581
311 595
311 692
311 759
311 772
311 815
311 831
311 944
312 330
312 374
312 528
312 596
312 665
312 794
312 801
312 809
312 867
312 883
312 885
312 888
312 893
312 900
312 956
313 340
313 341
313 353
313 376
313 391
313 395
313 409
313 414
313 418
313 420
313 433
313 439
313 443
313 466
313 490
313 493
313 495
313 510
313 520
313 522
313 529
313 539
313 550
313 564
313 601
313 611
313 612
313 653
313 681
313 688
313 694
313 706
313 724
313 731
313 738
313 743
313 754
313 785
313 793
313 818
313 840
313 842
313 865
313 866
313 885
313 902
313 925
313 982
313 988
313 991
313 992
313 996
314 380
314 488
314 508
314 549
314 583
314 682
314 689
314 699
314 700
314 704
314 750
314 818
314 860
314 867
315 500
315 527
315 543
315 561
315 577
315 579
315 627
315 667
315 725
315 779
315 785
315 810
315 894
315 900
316 549
316 550
316 574
316 688
316 701
316 727
316 767
316 817
316 957
316 989
317 325
317 331
317 429
317 514
317 515
317 573
317 603
317 610
317 625
317 649
317 713
317 730
317 735
317 765
317 778
317 789
317 827
317 830
317 876
317 902
317 939
317 968
318 333
318 364
318 430
318 652
318 669
318 695
318 702
318 775
318 802
318 822
318 829
318 874
318 877
318 902
318 931
318 961
318 983
319 355
319 373
319 398
319 553
319 572
319 604
319 613
319 622
319 812
319 903
319 945
319 993
320 349
320 461
320 517
320 663
320 707
320 716
320 785
320 881
320 969
321 322
321 362
321 464
321 529
321 532
321 539
321 716
321 738
321 743
321 762
321 785
321 905
321 938
322 366
322 409
322 411
322 428
322 435
322 580
322 596
322 599
322 707
322 762
322 763
322 785
322 897
322 945
322 982
323 339
323 387
323 407
323 465
323 511
323 524
323 608
323 625
323 658
323 667
323 674
323 697
323 727
323 785
323 885
323 893
323 915
323 933
323 991
323 997
324 342
324 543
324 641
324 652
324 655
324 749
324 771
324 772
324 776
324 885
325 366
325 454
325 461
325 512
325 674
325 787
325 797
325 912
325 966
326 394
326 463
326 497
326 594
326 656
326 667
326 744
326 774
327 333
327 348
327 352
327 387
327 390
327 394
327 430
327 440
327 469
327 496
327 515
327 523
327 533
327 554
327 565
327 569
327 577
327 579
327 585
327 597
327 658
327 667
327 671
327 677
327 685
327 715
327 778
327 782
327 835
327 866
327 873
327 876
327 891
327 920
327 924
327 925
327 947
327 968
327 994
328 330
328 372
328 404
328 450
328 455
328 464
328 496
328 519
328 521
328 652
328 656
328 723
328 743
328 773
328 780
328 978
329 342
329 399
329 403
329 534
329 593
329 613
329 653
329 695
329 702
329 725
329 752
329 792
329 822
329 841
329 927
329 986
330 496
330 532
330 555
330 644
330 647
330 667
330 859
330 870
330 942
330 989
331 351
331 360
331 438
331 452
331 460
331 481
331 707
331 746
331 796
331 821
331 826
331 850
331 852
331 931
331 938
331 957
332 337
332 389
332 433
332 435
332 450
332 455
332 560
332 586
332 587
332 752
332 760
332 772
332 851
332 884
332 947
333 342
333 421
333 453
333 455
333 493
333 554
333 586
333 653
333 784
333 837
333 870
333 967
333 986
334 335
334 356
334 364
334 375
334 389
334 404
334 429
334 494
334 531
334 638
334 702
334 705
334 724
334 791
334 810
334 811
334 825
334 871
334 905
334 984
335 391
335 394
335 398
335 653
335 660
335 700
335 752
335 753
335 929
335 931
335 940
336 483
336 517
336 624
336 672
336 747
336 814
336 873
337 456
337 468
337 525
337 535
337 556
337 602
337 643
337 644
337 658
337 708
337 735
337 769
337 818
337 884
337 887
337 899
337 943
337 947
337 948
337 954
338 389
338 450
338 459
338 541
338 671
338 675
338 680
338 694
338 702
338 725
338 806
338 812
338 815
338 851
338 943
338 978
339 348
339 397
339 542
339 658
339 727
339 729
339 740
339 787
339 843
339 876
339 883
339 958
340 379
340 381
340 469
340 514
340 621
340 637
340 658
340 713
340 715
340 869
340 876
340 902
340 935
341 421
341 443
341 459
341 493
341 527
341 556
341 610
341 646
341 671
341 697
341 805
341 811
341 868
342 423
342 426
342 450
342 455
342 467
342 468
342 525
342 535
342 627
342 687
342 708
342 709
342 718
342 785
342 811
342 851
342 909
342 961
343 357
343 363
343 366
343 369
343 481
343 487
343 505
343 595
343 612
343 711
343 772
343 779
343 814
343 840
343 846
343 851
343 878
343 893
343 902
343 905
344 375
344 381
344 660
344 694
344 695
344 702
344 752
344 810
344 832
344 863
344 914
344 989
345 355
345 712
345 766
345 779
345 849
345 896
346 372
346 450
346 468
346 525
346 571
346 575
346 605
346 633
346 644
346 857
346 926
346 948
346 954
346 967
347 348
347 512
347 554
347 627
347 700
347 721
347 727
347 849
347 961
348 382
348 471
348 502
348 511
348 554
348 603
348 608
348 625
348 673
348 700
348 720
348 727
348 733
348 736
348 783
348 852
348 882
348 887
348 906
348 912
348 914
348 961
348 962
348 966
349 411
349 481
349 611
349 707
349 780
349 785
349 828
349 837
350 356
350 380
350 403
350 414
350 421
350 476
350 537
350 617
350 622
350 641
350 650
350 674
350 691
350 755
350 844
350 861
350 889
350 977
351 415
351 418
351 518
351 522
351 575
351 653
351 660
351 751
351 785
351 786
351 849
351 977
351 989
352 362
352 380
352 554
352 570
352 577
352 615
352 629
352 639
352 654
352 670
352 681
352 759
352 782
352 871
352 968
352 999
353 443
353 459
353 575
353 601
353 724
353 754
353 763
353 785
354 387
354 446
354 504
354 529
354 530
354 555
354 651
354 726
354 732
354 818
354 830
354 832
354 875
354 906
354 959
354 975
354 994
354 999
355 429
355 450
355 498
355 546
355 564
355 613
355 625
355 661
355 694
355 699
355 702
355 728
355 758
355 776
355 788
355 810
355 854
355 864
355 871
355 937
355 955
355 972
356 359
356 380
356 388
356 397
356 406
356 508
356 537
356 562
356 589
356 609
356 617
356 620
356 622
356 631
356 661
356 664
356 771
356 822
356 844
356 871
356 876
356 906
356 912
357 406
357 462
357 595
357 685
357 752
357 768
357 772
357 777
357 779
357 841
357 878
358 588
358 626
358 702
358 855
358 870
358 924
358 984
359 380
359 397
359 537
359 589
359 609
359 620
359 646
359 651
359 716
359 774
359 811
359 844
359 864
359 984
360 369
360 408
360 423
360 431
360 445
360 450
360 525
360 560
360 569
360 818
360 909
360 921
360 948
360 953
361 391
361 451
361 458
361 582
361 594
361 616
361 636
361 716
361 730
361 746
361 858
361 859
361 891
361 981
362 396
362 422
362 434
362 459
362 485
362 603
362 634
362 694
362 702
362 752
362 822
362 836
362 843
362 851
363 384
363 390
363 450
363 551
363 580
363 584
363 590
363 626
363 633
363 636
363 659
363 838
363 877
363 958
364 375
364 389
364 638
364 702
364 750
364 752
364 775
364 791
364 895
364 933
365 394
365 500
365 564
365 578
365 639
365 668
365 677
365 782
365 817
365 861
365 929
365 934
366 409
366 461
366 504
366 529
366 531
366 539
366 545
366 581
366 628
366 630
366 688
366 716
366 732
366 751
366 989
367 382
367 448
367 509
367 612
367 645
367 673
367 740
367 862
367 886
367 896
367 996
368 443
368 470
368 476
368 512
368 569
368 608
368 669
368 671
368 727
368 773
368 822
368 855
368 900
368 909
369 376
369 433
369 435
369 501
369 510
369 512
369 669
369 682
369 688
369 690
369 724
369 731
369 737
369 823
369 829
369 849
369 928
370 621
370 647
370 706
370 725
370 794
370 856
370 893
370 989
370 991
371 412
371 413
371 428
371 539
371 728
371 739
371 780
371 782
371 785
371 803
371 828
371 835
371 899
371 918
372 450
372 694
372 735
372 738
372 743
372 838
372 909
372 945
372 948
372 954
373 387
373 464
373 526
373 553
373 601
373 605
373 670
373 679
373 754
373 903
373 993
373 997
373 999
374 375
374 385
374 395
374 425
374 466
374 479
374 486
374 540
374 561
374 567
374 572
374 597
374 727
374 745
374 794
374 814
374 933
375 389
375 442
375 459
375 490
375 496
375 504
375 513
375 543
375 593
375 617
375 655
375 695
375 723
375 737
375 799
375 802
375 808
375 811
375 829
375 871
375 874
375 934
375 959
375 971
375 977
375 978
376 414
376 418
376 435
376 465
376 487
376 575
376 671
376 717
376 771
376 785
376 786
376 855
376 929
377 403
377 444
377 468
377 534
377 655
377 826
377 947
378 522
378 552
378 564
378 598
378 688
378 718
378 724
378 738
378 754
378 788
378 838
378 885
378 889
378 897
378 918
378 931
378 949
378 970
379 443
379 450
379 455
379 465
379 468
379 469
379 511
379 567
379 644
379 697
379 716
379 760
379 775
379 877
379 879
379 954
379 967
380 503
380 533
380 534
380 537
380 617
380 622
380 626
380 695
380 756
380 819
380 844
381 385
381 473
381 474
381 478
381 500
381 533
381 546
381 561
381 591
381 619
381 669
381 690
381 789
381 843
381 874
381 895
381 910
381 911
381 923
381 930
381 999
382 530
382 597
382 651
382 677
382 766
382 970
382 979
382 999
383 432
383 528
383 535
383 555
383 624
383 647
383 671
383 784
383 831
383 863
383 872
383 893
383 907
383 989
384 401
384 584
384 659
384 685
384 703
384 987
385 391
385 395
385 416
385 436
385 450
385 471
385 484
385 500
385 519
385 541
385 548
385 556
385 561
385 580
385 584
385 591
385 599
385 606
385 609
385 619
385 631
385 669
385 694
385 696
385 703
385 712
385 789
385 790
385 799
385 802
385 811
385 832
385 910
385 930
385 934
385 941
385 962
385 976
385 977
385 990
386 462
386 472
386 514
386 554
386 651
386 743
386 819
386 843
386 907
386 915
386 987
387 496
387 507
387 512
387 527
387 576
387 625
387 652
387 677
387 685
387 727
387 785
387 891
388 409
388 518
388 554
388 622
388 626
388 633
388 817
388 910
389 402
389 421
389 436
389 442
389 444
389 457
389 482
389 491
389 515
389 557
389 616
389 621
389 629
389 640
389 653
389 661
389 694
389 699
389 728
389 752
389 794
389 811
389 822
389 827
389 841
389 853
389 854
389 869
389 871
389 906
389 933
389 936
389 971
390 476
390 492
390 568
390 618
390 625
390 637
390 671
390 694
390 771
390 797
390 807
390 817
390 841
390 902
391 483
391 564
391 595
391 743
391 780
391 785
391 804
391 811
391 847
391 931
392 471
392 534
392 604
392 617
392 676
392 704
392 744
392 782
392 886
392 945
393 404
393 420
393 440
393 538
393 547
393 692
393 725
393 731
393 738
393 742
393 743
393 804
394 448
394 472
394 704
394 741
394 744
394 766
394 861
394 928
394 929
394 948
395 418
395 450
395 504
395 597
395 701
395 724
395 731
395 739
395 828
395 994
396 466
396 523
396 539
396 564
396 681
396 700
396 729
396 763
396 785
396 791
396 828
396 883
396 925
396 977
396 984
397 422
397 578
397 589
397 617
397 622
397 623
397 691
397 824
397 938
397 984
398 453
398 482
398 533
398 547
398 558
398 570
398 651
398 721
398 723
398 752
398 797
398 822
398 839
398 874
398 906
398 934
398 960
398 971
398 972
399 425
399 428
399 450
399 462
399 471
399 504
399 506
399 609
399 631
399 656
399 702
399 789
399 790
399 860
399 903
399 930
399 977
400 416
400 512
400 575
400 724
400 727
400 777
400 828
400 861
400 897
400 899
400 945
400 955
400 984
401 418
401 462
401 515
401 543
401 564
401 644
401 675
401 696
401 701
401 726
401 743
401 776
401 785
401 793
401 837
401 987
402 418
402 586
402 591
402 602
402 690
402 722
402 729
402 769
402 772
402 775
402 877
402 900
402 961
402 973
403 454
403 519
403 540
403 568
403 612
403 622
403 647
403 698
403 828
403 884
403 939
404 425
404 434
404 530
404 592
404 597
404 651
404 730
404 753
404 948
405 443
405 476
405 499
405 515
405 545
405 572
405 625
405 653
405 685
405 778
405 787
406 421
406 524
406 577
406 625
406 627
406 685
406 752
406 781
406 834
406 841
406 989
407 448
407 480
407 536
407 615
407 636
407 654
407 677
407 678
407 704
407 725
407 744
407 776
407 782
407 861
407 886
407 929
408 445
408 468
408 469
408 493
408 591
408 602
408 612
408 850
408 887
408 945
408 954
409 418
409 433
409 475
409 482
409 494
409 504
409 522
409 529
409 532
409 620
409 676
409 739
409 847
409 878
409 885
409 909
409 925
409 991
410 420
410 491
410 507
410 699
410 759
410 958
411 478
411 539
411 550
411 563
411 662
411 707
411 727
411 739
411 754
411 778
411 785
411 803
411 942
411 948
411 952
412 525
412 554
412 557
412 563
412 611
412 664
412 694
412 727
412 747
412 834
412 891
412 914
413 525
413 675
413 695
413 785
413 788
413 814
413 885
413 907
413 918
414 432
414 453
414 539
414 705
414 724
414 738
414 739
414 743
414 751
414 771
414 797
415 453
415 530
415 586
415 595
415 660
415 672
415 705
415 805
415 822
415 830
415 839
416 490
416 675
416 752
416 757
416 871
416 897
416 929
417 471
417 490
417 524
417 627
417 656
417 700
417 772
417 795
417 825
417 843
417 852
417 939
417 944
417 962
418 419
418 432
418 463
418 464
418 466
418 515
418 521
418 539
418 564
418 633
418 701
418 711
418 732
418 762
418 786
418 854
418 855
418 865
418 889
418 897
418 917
418 927
418 946
419 450
419 504
419 513
419 539
419 595
419 716
419 721
419 743
419 762
419 785
419 788
419 806
419 849
419 925
419 996
420 461
420 575
420 651
420 719
420 751
420 762
420 852
420 865
420 885
420 960
420 977
421 512
421 618
421 948
421 989
422 439
422 460
422 465
422 503
422 604
422 635
422 656
422 657
422 675
422 836
422 860
422 895
422 995
423 450
423 455
423 648
423 687
423 716
423 735
423 851
423 870
423 947
423 948
423 958
423 967
424 518
424 671
424 688
424 716
424 724
424 777
424 904
424 925
425 441
425 468
425 518
425 613
425 708
425 729
425 770
425 816
425 830
425 921
426 450
426 468
426 486
426 559
426 711
426 849
426 851
427 461
427 527
427 584
427 613
427 630
427 782
427 795
427 905
427 958
427 959
427 987
428 462
428 591
428 610
428 648
428 687
428 695
428 762
428 843
428 930
428 949
428 955
428 963
428 975
428 998
429 442
429 459
429 485
429 577
429 580
429 619
429 699
429 702
429 775
429 810
429 960
429 978
430 523
430 527
430 549
430 574
430 600
430 666
430 810
430 822
430 912
431 450
431 465
431 521
431 530
431 560
431 599
431 684
431 693
431 723
431 735
431 947
432 465
432 498
432 530
432 538
432 602
432 838
432 867
432 885
432 931
433 466
433 504
433 522
433 738
433 777
433 781
433 872
433 882
433 958
434 516
434 696
434 714
434 770
434 779
434 791
434 794
434 818
434 828
434 830
434 849
434 875
434 950
434 970
434 999
435 540
435 638
435 681
435 707
435 773
435 783
435 803
435 840
435 877
435 889
435 894
436 462
436 579
436 624
436 648
436 690
436 718
436 755
436 783
436 789
436 812
436 843
437 444
437 519
437 523
437 527
437 568
437 674
437 677
437 685
437 729
437 785
437 826
437 854
437 891
437 895
438 538
438 546
438 595
438 598
438 642
438 711
438 768
438 850
438 895
439 476
439 503
439 517
439 525
439 631
439 637
439 826
439 868
440 542
440 568
440 632
440 736
440 776
440 785
440 789
440 805
440 895
440 982
441 468
441 651
441 719
441 741
441 818
441 915
441 921
442 474
442 562
442 570
442 640
442 646
442 660
442 702
442 705
442 752
442 757
442 845
442 850
442 868
442 880
442 882
442 898
442 948
442 972
443 509
443 565
443 594
443 625
443 755
443 778
443 810
443 816
443 822
443 876
443 877
443 927
444 499
444 527
444 578
444 694
444 695
444 730
444 750
445 450
445 465
445 560
445 616
445 624
445 699
445 705
445 706
445 788
445 797
445 898
445 946
445 948
446 636
446 640
446 642
446 651
446 696
446 708
446 771
446 791
446 830
446 846
446 861
446 868
446 877
446 906
446 997
447 479
447 539
447 572
447 618
447 680
447 776
447 814
447 834
447 953
447 969
448 552
448 615
448 689
448 704
448 724
448 861
448 886
448 919
448 994
449 473
449 502
449 533
449 690
450 451
450 455
450 460
450 463
450 465
450 467
450 468
450 469
450 498
450 501
450 525
450 550
450 552
450 560
450 569
450 573
450 577
450 601
450 602
450 686
450 687
450 693
450 718
450 723
450 734
450 735
450 814
450 850
450 851
450 857
450 881
450 887
450 904
450 935
450 970
450 973
451 456
451 501
451 535
451 552
451 577
451 664
451 665
451 686
451 714
451 718
451 765
451 929
452 515
452 551
452 640
452 694
452 695
452 712
452 757
452 778
452 792
452 835
452 839
452 870
452 875
452 933
452 935
452 947
452 985
453 455
453 468
453 470
453 472
453 474
453 493
453 519
453 535
453 546
453 560
453 580
453 602
453 644
453 668
453 718
453 790
453 851
453 864
453 870
453 879
453 881
453 884
453 919
453 943
453 948
453 954
454 524
454 536
454 557
454 611
454 628
454 655
454 671
454 763
454 824
454 826
454 840
454 861
454 868
454 901
454 997
455 468
455 546
455 595
455 612
455 646
455 687
455 694
455 703
455 735
455 801
455 850
455 870
455 875
455 909
455 923
455 947
455 954
455 955
455 962
455 976
456 518
456 571
456 710
456 919
457 660
457 667
457 722
457 757
457 810
457 822
457 897
457 913
457 972
458 531
458 614
458 653
458 657
458 712
458 724
458 744
458 762
458 916
459 537
459 695
459 752
459 773
459 841
459 961
460 475
460 481
460 530
460 604
460 653
460 720
460 823
460 852
460 955
460 957
461 462
461 468
461 478
461 504
461 526
461 558
461 658
461 716
461 785
461 839
461 842
462 466
462 472
462 473
462 477
462 479
462 480
462 505
462 519
462 541
462 556
462 580
462 598
462 619
462 623
462 642
462 659
462 690
462 819
462 883
462 938
462 976
462 980
462 986
463 479
463 494
463 513
463 543
463 577
463 620
463 655
463 697
463 891
464 504
464 521
464 551
464 564
464 610
464 650
464 658
464 660
464 688
464 700
464 707
464 724
464 743
464 751
464 785
464 892
464 989
464 996
465 469
465 474
465 488
465 501
465 524
465 586
465 602
465 757
465 870
465 879
465 904
465 935
465 948
466 478
466 479
466 503
466 539
466 564
466 565
466 679
466 743
466 754
466 786
466 833
466 847
466 849
466 853
466 865
466 885
466 897
467 468
467 687
467 847
467 851
467 858
467 965
468 493
468 512
468 535
468 586
468 595
468 628
468 640
468 644
468 686
468 718
468 737
468 833
468 850
468 853
468 857
468 870
468 884
468 906
468 909
468 920
468 946
468 947
468 948
468 954
468 981
469 474
469 494
469 496
469 497
469 504
469 597
469 644
469 700
469 761
469 763
469 817
469 881
469 896
469 923
469 947
469 973
470 538
470 577
470 686
470 735
470 870
470 923
471 591
471 607
471 690
471 806
471 898
471 911
471 919
472 494
472 522
472 623
472 705
472 789
472 884
472 916
472 941
472 990
473 494
473 719
473 789
473 798
473 843
473 990
474 782
474 879
474 948
474 978
474 984
475 588
475 650
475 752
475 756
475 817
475 822
475 933
475 972
475 987
476 524
476 527
476 543
476 557
476 608
476 611
476 625
476 632
476 639
476 674
476 727
476 779
476 781
476 821
476 822
476 835
476 895
476 901
476 946
477 478
477 556
477 599
477 623
477 657
477 804
477 810
477 900
477 942
477 963
477 975
477 986
477 990
477 993
478 489
478 541
478 680
478 730
478 790
479 538
479 540
479 567
479 572
479 607
479 666
479 814
479 823
479 841
479 872
480 563
480 581
480 699
480 712
480 744
480 752
480 789
480 851
480 882
480 930
480 980
481 517
481 572
481 604
481 667
481 688
481 703
481 727
481 749
481 823
481 826
481 836
481 876
481 887
481 928
481 932
481 949
482 532
482 660
482 695
482 725
482 802
482 819
482 822
482 874
482 937
483 488
483 532
483 547
483 592
483 771
483 781
483 794
483 971
484 494
484 552
484 591
484 690
484 782
484 820
484 833
484 876
484 900
485 538
485 567
485 572
485 592
485 683
485 732
485 851
485 932
486 521
486 538
486 547
486 572
486 607
486 633
486 683
486 794
486 809
486 833
486 878
486 950
486 967
487 509
487 528
487 589
487 624
487 668
487 737
487 803
487 893
487 900
488 497
488 516
488 531
488 594
488 634
488 641
488 642
488 674
488 891
489 552
489 789
489 950
489 986
490 680
490 705
490 713
490 745
490 758
490 772
490 874
490 906
490 968
490 971
491 562
491 619
491 702
491 752
491 799
491 867
491 890
492 507
492 513
492 533
492 589
492 600
492 810
492 878
492 905
493 735
493 806
493 824
493 851
493 875
493 947
493 948
494 527
494 573
494 628
494 664
494 700
494 731
494 818
494 876
494 877
494 901
494 918
494 962
494 989
495 515
495 576
495 646
495 788
495 828
495 897
495 911
495 996
496 538
496 545
496 557
496 577
496 583
496 618
496 625
496 655
496 731
496 767
496 876
496 877
496 891
496 920
496 931
496 990
497 503
497 568
497 594
497 616
497 617
497 629
497 634
497 656
497 675
497 716
497 759
497 859
497 867
497 869
497 933
497 939
497 998
497 999
498 568
498 574
498 656
498 672
498 695
498 750
498 867
498 888
498 897
498 949
498 973
499 500
499 651
499 660
499 702
499 722
499 732
499 750
499 795
499 839
499 841
499 898
499 905
499 917
499 942
499 954
500 584
500 623
500 654
500 669
500 690
500 703
500 736
500 759
500 986
501 600
501 612
501 629
501 733
501 743
501 785
501 809
501 840
501 900
502 566
502 595
502 621
502 627
502 663
502 676
502 815
502 847
502 939
502 968
503 635
503 695
503 852
503 860
503 902
504 513
504 566
504 575
504 577
504 674
504 678
504 713
504 715
504 732
504 738
504 788
504 837
504 873
504 885
504 925
504 934
504 976
504 988
505 519
505 582
505 592
505 701
505 773
505 794
505 839
505 897
505 940
505 989
506 731
506 738
506 789
506 790
506 836
506 941
506 944
507 514
507 522
507 539
507 552
507 559
507 565
507 568
507 584
507 588
507 613
507 634
507 639
507 676
507 868
507 987
508 524
508 560
508 766
508 820
508 844
508 888
509 527
509 530
509 585
509 667
509 702
509 726
509 846
509 905
509 949
509 996
510 575
510 649
510 762
510 785
510 903
510 925
511 512
511 524
511 527
511 577
511 611
511 625
511 793
511 877
511 949
512 554
512 561
512 576
512 579
512 598
512 610
512 628
512 674
512 700
512 727
512 787
512 824
512 876
512 891
512 914
512 927
512 961
513 515
513 585
513 664
513 670
513 702
513 711
513 781
513 793
513 876
513 939
514 524
514 525
514 527
514 575
514 625
514 694
514 765
514 771
514 805
514 901
514 935
515 527
515 545
515 625
515 627
515 666
515 677
515 685
515 706
515 712
515 749
515 781
515 786
515 820
515 914
515 947
516 597
516 609
516 651
516 664
516 690
516 698
516 714
516 733
516 818
516 846
516 882
516 938
517 604
517 654
517 706
517 823
517 852
517 860
517 882
517 885
517 957
518 547
518 570
518 621
518 709
518 719
518 741
518 770
518 791
518 798
518 818
518 830
518 869
518 873
518 875
518 913
518 938
518 979
518 982
518 999
519 556
519 591
519 669
519 777
519 835
519 919
519 974
519 977
519 980
520 587
520 595
520 596
520 612
520 651
520 685
520 693
520 702
520 727
520 779
520 813
520 824
520 878
520 890
521 579
521 585
521 620
521 633
521 649
521 700
521 715
521 727
521 779
521 780
521 900
522 550
522 742
522 754
522 762
522 849
522 986
523 555
523 573
523 577
523 611
523 664
523 724
523 725
523 876
523 897
523 900
523 961
524 531
524 543
524 558
524 565
524 573
524 585
524 604
524 617
524 618
524 627
524 632
524 649
524 655
524 660
524 665
524 667
524 703
524 721
524 753
524 771
524 778
524 794
524 804
524 834
524 844
524 848
524 850
524 866
524 883
524 907
524 920
524 924
524 939
524 962
524 965
524 977
524 990
524 998
525 718
525 853
525 857
525 870
525 904
525 929
525 946
525 948
525 954
526 559
526 571
526 585
526 609
526 650
526 717
526 805
526 812
526 916
527 540
527 569
527 576
527 628
527 633
527 636
527 685
527 692
527 700
527 709
527 727
527 738
527 787
527 798
527 808
527 820
527 834
527 866
527 901
527 902
527 908
527 924
527 941
527 963
527 965
527 975
528 535
528 538
528 547
528 608
528 615
528 651
528 665
528 678
528 724
528 746
528 794
528 804
528 847
528 872
528 875
528 893
528 952
528 966
529 539
529 564
529 670
529 724
529 763
529 785
529 803
529 842
529 916
529 953
529 988
530 557
530 597
530 615
530 684
530 714
530 719
530 733
530 741
530 747
530 759
530 770
530 791
530 812
530 818
530 846
530 867
530 869
530 873
530 875
530 876
530 888
530 949
530 999
531 542
531 594
531 604
531 629
531 634
531 746
531 810
531 830
531 858
532 547
532 555
532 621
532 624
532 639
532 670
532 716
532 856
532 877
532 893
532 989
532 995
533 593
533 595
533 669
533 695
533 702
533 705
533 749
533 750
533 752
533 797
533 811
533 817
533 839
533 860
534 595
534 658
534 706
534 768
534 769
534 772
534 800
534 831
534 855
534 878
535 543
535 554
535 602
535 686
535 718
535 771
535 794
535 800
535 841
535 850
535 864
535 870
535 884
535 909
535 934
536 556
536 595
536 612
536 748
536 766
536 772
536 779
536 848
536 865
536 878
536 921
536 931
537 691
537 756
537 865
537 922
538 540
538 567
538 572
538 607
538 608
538 609
538 616
538 638
538 662
538 673
538 680
538 683
538 689
538 720
538 734
538 745
538 796
538 797
538 814
538 833
538 926
538 932
538 951
538 983
538 995
539 555
539 578
539 603
539 695
539 716
539 724
539 777
539 785
539 822
539 855
539 860
539 946
539 951
539 960
539 978
539 996
540 567
540 619
540 695
540 793
540 814
540 831
540 862
540 951
541 552
541 646
541 712
541 789
541 798
541 907
541 919
541 947
542 551
542 568
542 583
542 614
542 707
542 723
542 757
542 851
542 883
542 916
542 986
543 573
543 611
543 625
543 658
543 676
543 765
543 828
543 845
543 902
543 904
543 912
544 555
544 558
544 565
544 592
544 594
544 621
544 622
544 643
544 665
544 668
544 689
544 702
544 794
544 801
544 812
544 863
544 872
544 906
544 989
544 992
544 995
545 625
545 632
545 633
545 646
545 674
545 677
545 727
545 771
545 821
545 891
545 943
546 595
546 650
546 691
546 706
546 818
546 878
546 892
547 592
547 643
547 647
547 704
547 818
547 872
547 996
548 585
548 623
548 637
548 649
548 660
548 695
548 699
548 724
548 757
548 822
548 860
548 876
548 906
548 937
548 978
549 555
549 574
549 629
549 768
549 810
549 913
549 994
550 601
550 688
550 701
550 787
550 807
550 841
550 885
550 897
550 953
550 991
551 579
551 589
551 705
551 740
551 772
551 855
551 909
551 925
552 605
552 752
552 800
552 812
552 903
552 945
552 993
553 601
553 618
553 657
553 812
553 903
553 946
553 993
554 576
554 603
554 627
554 646
554 667
554 778
554 821
554 902
554 966
555 621
555 665
555 702
555 794
555 809
555 845
555 875
555 893
555 989
556 561
556 626
556 642
556 667
556 690
556 699
556 712
556 726
556 767
556 791
556 798
556 819
556 911
556 974
556 975
556 976
557 627
557 636
557 674
557 697
557 716
557 727
557 743
557 749
557 752
557 784
557 812
557 868
557 939
557 965
557 994
558 611
558 741
558 777
558 783
558 848
558 883
558 891
558 942
559 663
559 804
559 953
560 595
560 644
560 686
560 776
560 837
560 870
560 880
560 948
560 973
561 606
561 619
561 690
561 848
561 876
561 914
561 919
561 921
562 651
562 702
562 736
562 764
562 800
562 802
562 811
562 816
562 854
562 931
563 669
563 680
563 748
563 751
563 911
563 936
563 976
564 641
564 706
564 737
564 758
564 794
564 801
564 808
564 840
564 842
564 894
564 897
564 916
564 956
565 628
565 655
565 664
565 667
565 727
565 768
565 778
565 780
565 825
565 833
565 878
565 901
566 587
566 612
566 747
566 760
566 772
566 779
566 813
566 880
567 572
567 649
567 673
567 678
567 680
567 720
567 734
567 745
567 814
567 817
567 833
567 845
567 926
567 957
567 967
567 969
568 590
568 630
568 805
568 916
568 959
569 608
569 611
569 697
569 721
569 727
569 792
569 847
569 861
569 866
569 891
569 963
570 597
570 651
570 747
570 809
570 818
570 875
570 915
570 938
571 572
571 628
571 662
571 875
571 896
572 607
572 637
572 638
572 652
572 666
572 673
572 680
572 683
572 689
572 692
572 720
572 745
572 776
572 814
572 820
572 833
572 842
572 877
572 883
572 922
572 926
572 932
572 950
572 951
572 969
572 983
572 999
573 685
573 703
573 713
573 749
573 771
573 846
573 895
573 901
573 961
574 583
574 672
574 720
574 764
574 795
574 815
574 832
574 867
574 875
574 956
575 639
575 651
575 681
575 686
575 694
575 705
575 731
575 732
575 743
575 745
575 777
575 785
575 798
575 803
575 804
575 810
575 815
575 847
575 888
575 939
575 953
575 988
575 996
576 577
576 625
576 649
576 700
576 786
576 870
576 902
576 933
576 974
577 579
577 608
577 627
577 628
577 631
577 677
577 685
577 697
577 703
577 721
577 729
577 761
577 778
577 793
577 819
577 820
577 821
577 854
577 902
577 908
577 924
577 939
577 945
577 949
577 958
577 962
577 965
577 969
577 981
578 617
578 844
578 891
579 585
579 603
579 625
579 693
579 749
579 845
579 866
579 889
579 891
579 936
579 939
579 950
580 584
580 597
580 727
580 737
580 750
580 772
580 808
580 842
580 905
580 922
580 958
581 594
581 595
581 612
581 703
581 736
581 738
581 772
581 779
581 861
581 959
581 963
582 607
582 613
582 655
582 659
582 808
582 867
582 952
582 961
583 622
583 623
583 692
583 735
583 841
583 846
583 914
584 588
584 610
584 617
584 668
584 821
584 868
584 902
584 920
584 939
584 987
585 618
585 623
585 625
585 627
585 631
585 632
585 749
585 852
585 899
585 900
586 612
586 644
586 663
586 779
586 850
586 857
586 864
586 879
586 887
586 909
586 923
586 929
586 930
586 935
586 955
587 595
587 612
587 682
587 707
587 760
587 772
587 779
587 812
587 815
588 659
588 679
588 749
588 809
588 838
588 905
588 985
589 617
589 622
589 727
590 613
590 630
590 636
590 726
590 734
590 752
590 976
590 987
591 638
591 648
591 690
591 748
591 789
591 944
591 945
592 621
592 643
592 668
592 718
592 743
592 773
592 893
592 956
592 962
592 989
593 625
593 660
593 669
593 699
593 702
593 736
593 798
593 849
593 881
593 913
593 933
594 616
594 629
594 634
594 656
594 746
594 845
594 859
594 903
594 961
594 981
594 990
594 992
594 998
595 600
595 612
595 641
595 663
595 692
595 739
595 759
595 764
595 766
595 767
595 768
595 769
595 772
595 779
595 803
595 815
595 824
595 856
595 873
595 878
595 880
595 889
595 896
595 904
595 929
595 954
595 974
596 621
596 647
596 674
596 763
596 893
596 912
596 989
597 651
597 662
597 708
597 709
597 714
597 719
597 739
597 832
597 875
597 879
597 921
597 938
597 967
597 979
598 664
598 738
598 789
598 819
598 873
598 910
598 990
598 998
599 601
599 690
599 693
599 790
599 798
599 910
599 986
600 636
600 649
600 729
600 730
600 862
600 869
600 905
600 928
601 657
601 759
601 800
601 812
601 945
601 991
601 993
602 733
602 833
602 850
602 974
603 646
603 692
603 780
603 877
603 902
603 944
604 635
605 609
605 691
605 729
605 804
605 812
605 857
605 903
605 918
605 947
605 993
606 608
606 627
606 628
606 630
606 740
606 785
606 835
606 911
606 936
606 977
607 666
607 673
607 689
607 745
607 813
607 833
607 932
607 969
608 627
608 637
608 638
608 646
608 685
608 725
608 738
608 781
608 800
608 829
608 883
608 893
608 928
609 622
609 626
609 723
609 744
609 757
609 853
610 625
610 632
610 721
610 727
610 743
610 787
610 789
610 820
610 858
610 883
610 906
610 920
610 936
610 966
610 989
611 646
611 658
611 692
611 727
611 778
611 783
611 830
612 699
612 706
612 760
612 761
612 767
612 768
612 769
612 772
612 775
612 794
612 805
612 820
612 831
612 834
612 878
612 890
612 946
612 971
612 972
613 630
613 783
613 792
613 838
613 853
613 868
613 905
613 917
613 920
613 987
614 615
614 710
614 717
614 824
614 828
615 645
615 654
615 719
615 752
615 861
615 929
616 626
616 627
616 746
616 889
617 622
617 635
617 651
617 666
617 691
617 756
617 922
617 978
617 989
618 656
618 886
618 890
618 959
619 646
619 660
619 665
619 765
619 789
619 911
619 916
619 922
619 944
619 974
619 977
620 647
620 778
620 877
620 937
620 992
621 651
621 659
621 668
621 751
621 801
621 826
621 989
622 691
622 754
622 838
622 898
622 956
622 963
623 631
623 642
623 676
623 700
623 758
623 822
623 896
623 911
623 944
623 976
624 647
624 671
624 773
624 801
624 867
624 977
624 989
625 627
625 633
625 636
625 646
625 653
625 656
625 658
625 667
625 671
625 683
625 685
625 695
625 703
625 727
625 780
625 781
625 811
625 834
625 835
625 845
625 866
625 871
625 880
625 891
625 894
625 895
625 900
625 914
625 947
625 949
625 950
625 952
625 961
625 982
625 994
626 632
626 655
626 663
626 756
626 844
626 862
626 882
626 887
627 677
627 692
627 829
627 831
627 855
627 996
628 684
628 685
628 700
628 765
628 821
628 850
628 876
628 891
628 994
629 654
629 746
629 858
629 893
630 641
630 659
630 676
630 698
630 737
630 797
630 992
631 645
631 655
631 694
631 733
631 775
631 789
631 910
631 917
631 962
631 990
632 649
632 671
632 855
632 891
632 908
632 999
633 692
633 727
633 752
633 820
633 828
633 848
633 855
633 891
634 693
634 758
634 913
634 961
635 740
635 771
635 903
635 950
636 644
636 810
636 821
636 930
637 639
637 646
637 704
637 713
637 752
637 891
637 908
637 914
637 915
637 944
637 961
638 668
638 680
638 683
638 712
638 745
638 835
638 932
638 969
638 983
639 646
639 654
639 661
639 730
639 810
639 861
639 905
639 934
639 990
640 675
640 694
640 705
640 757
640 790
640 805
640 808
640 818
640 841
640 888
640 964
640 976
640 994
641 691
641 840
641 844
641 922
642 669
642 690
642 750
642 759
642 770
642 834
642 867
642 941
642 947
642 979
643 647
643 654
643 659
643 717
643 727
643 794
643 809
643 830
643 888
643 989
643 993
644 707
644 745
644 761
644 830
644 851
644 948
645 744
645 782
645 796
645 847
645 861
645 920
645 929
646 660
646 671
646 674
646 713
646 723
646 757
646 783
646 825
646 845
646 858
646 891
646 902
646 907
646 912
646 919
646 928
647 653
647 773
647 801
647 856
647 870
647 926
647 930
647 989
648 680
648 699
648 813
648 862
648 899
648 936
648 986
649 655
649 659
649 795
649 835
649 855
649 902
649 924
650 695
650 699
650 723
650 746
650 757
650 801
650 837
650 898
650 978
650 985
651 685
651 695
651 709
651 733
651 747
651 770
651 785
651 797
651 875
651 914
651 921
651 949
651 954
651 963
651 982
652 672
652 676
652 720
652 782
652 861
652 886
652 929
652 935
653 725
653 736
653 752
653 810
653 892
653 906
653 985
654 655
654 661
654 668
654 674
654 678
654 704
654 734
654 744
654 782
654 861
654 929
654 956
655 677
655 700
655 795
655 835
655 866
655 929
655 942
655 961
655 994
656 715
656 746
656 988
657 670
657 698
657 702
657 712
657 786
657 812
657 883
657 903
657 945
657 951
657 993
658 664
658 765
658 865
658 933
658 960
659 679
659 699
659 722
659 737
659 794
659 868
659 886
659 927
659 932
659 971
659 987
659 997
660 699
660 701
660 723
660 733
660 752
660 796
660 810
660 822
660 827
660 828
660 833
660 839
660 906
660 931
660 949
660 978
660 999
661 695
661 704
661 715
661 779
661 803
661 861
661 879
661 884
661 886
662 707
662 796
662 805
662 990
663 767
663 819
663 869
663 914
664 710
664 721
664 729
664 756
664 877
664 933
664 961
664 997
665 850
665 856
665 864
665 888
665 901
665 989
666 689
666 720
666 734
666 776
666 813
666 822
666 828
666 881
666 926
666 950
667 685
667 767
667 783
667 787
667 794
667 834
667 901
667 961
667 962
667 968
668 712
668 748
668 755
668 809
668 989
669 752
669 858
669 861
669 964
669 974
670 812
670 836
670 876
670 903
670 993
671 701
671 821
671 829
671 848
671 954
671 961
672 682
672 764
672 832
672 867
672 904
673 681
673 734
673 813
673 852
673 872
673 875
673 951
673 969
674 700
674 729
674 760
674 771
674 834
674 891
674 895
674 900
674 914
674 965
674 970
674 995
675 699
675 702
675 752
675 758
675 787
675 796
675 816
675 818
675 822
675 828
675 931
675 933
675 971
676 704
676 779
676 782
676 784
676 861
677 727
677 749
677 772
677 780
677 821
677 851
677 876
677 891
677 933
678 704
678 776
678 782
678 861
678 929
678 992
679 722
679 725
679 737
679 838
679 933
680 745
680 776
680 814
680 975
681 688
681 724
681 735
681 751
681 754
681 785
681 788
681 804
681 807
681 836
681 838
681 840
681 899
681 960
682 729
682 764
682 775
682 867
682 985
683 720
683 734
683 745
683 776
683 830
683 833
683 983
684 711
684 741
684 785
685 703
685 713
685 727
685 782
685 835
685 866
685 895
685 912
685 917
686 697
686 718
686 906
686 924
686 946
686 954
686 974
687 735
687 775
687 851
687 862
687 864
687 947
687 975
687 990
688 777
688 788
688 796
688 874
688 887
688 897
689 745
689 813
689 814
689 967
689 983
690 712
690 721
690 822
690 824
690 914
690 918
690 919
690 929
690 974
690 975
690 986
691 762
691 790
691 821
691 860
691 889
691 923
692 746
692 821
692 834
692 864
692 904
692 920
692 933
692 961
692 966
693 864
693 990
694 695
694 702
694 808
694 819
694 898
694 917
695 722
695 723
695 728
695 757
695 758
695 781
695 789
695 792
695 793
695 806
695 811
695 816
695 817
695 827
695 831
695 874
695 876
695 880
695 882
695 898
695 937
695 943
695 972
696 726
696 791
696 804
696 874
696 875
696 938
696 957
696 979
697 700
697 744
697 779
697 795
697 821
697 836
697 866
697 891
697 900
697 943
698 719
698 732
698 739
698 741
698 759
698 789
698 793
698 818
698 869
698 875
698 964
698 979
699 702
699 723
699 746
699 747
699 757
699 797
699 808
699 810
699 839
699 871
699 874
699 877
699 948
700 721
700 734
700 743
700 749
700 783
700 803
700 835
700 857
700 876
700 880
700 908
700 928
700 992
701 736
701 785
701 828
701 840
701 847
701 849
701 868
701 934
701 976
701 988
702 723
702 725
702 728
702 745
702 750
702 752
702 757
702 758
702 774
702 775
702 777
702 782
702 792
702 798
702 806
702 809
702 816
702 822
702 824
702 853
702 874
702 882
702 906
702 913
702 920
702 931
702 937
702 947
702 972
702 973
703 781
703 801
703 839
704 809
704 886
704 893
704 916
704 929
704 933
704 979
705 725
705 752
705 797
705 810
705 811
705 978
706 766
706 772
706 794
706 815
706 832
707 724
707 743
707 750
707 777
707 785
707 788
707 828
707 856
707 892
707 894
707 919
707 960
708 873
708 883
708 924
708 982
709 714
709 737
709 743
709 816
709 818
710 715
710 796
710 824
710 828
710 931
710 940
711 779
712 790
712 975
713 742
713 809
713 939
713 961
713 994
713 996
714 725
714 740
714 747
714 830
714 869
714 875
714 905
714 915
715 778
715 784
715 820
715 821
715 825
715 895
715 911
715 927
715 961
716 724
716 742
716 804
716 812
716 882
716 904
716 953
716 986
716 996
717 833
717 848
717 882
718 851
718 871
718 943
718 948
718 959
719 747
719 770
719 902
719 915
720 722
720 745
720 813
720 852
720 945
720 950
721 771
721 778
721 850
721 903
721 920
721 961
721 965
721 971
721 989
721 996
722 784
722 808
722 827
723 736
723 752
723 753
723 853
723 891
723 898
723 917
723 964
724 738
724 742
724 743
724 751
724 763
724 777
724 779
724 828
724 837
724 840
724 842
724 865
724 889
724 892
724 918
724 923
724 962
724 988
725 736
725 748
725 757
725 758
725 797
725 802
725 808
725 832
725 845
725 852
725 884
725 906
725 908
725 931
725 952
725 972
725 984
726 733
726 770
726 818
726 830
726 836
726 875
726 888
726 914
726 926
726 938
726 982
726 989
727 794
727 795
727 804
727 807
727 825
727 855
727 889
727 895
727 897
727 908
727 916
727 921
727 939
727 944
727 948
727 950
727 965
728 918
728 920
728 960
728 971
728 984
729 778
729 795
729 825
729 876
729 902
729 994
730 743
730 786
730 989
731 742
731 743
731 830
731 837
731 885
731 947
731 953
732 742
732 743
732 785
732 804
732 840
732 847
732 854
732 934
733 770
733 779
733 794
733 975
733 997
734 814
734 833
734 913
734 950
734 956
735 773
735 851
735 870
735 881
735 884
735 909
735 959
735 961
735 971
736 752
736 810
736 811
736 874
736 880
736 933
736 962
736 978
737 832
737 868
737 958
737 987
738 781
738 785
738 833
738 840
738 849
738 899
738 918
738 934
738 981
738 991
738 996
739 777
739 828
739 897
739 979
739 992
740 782
740 796
740 861
740 902
740 915
741 747
741 756
741 768
741 824
741 846
741 892
741 915
741 938
741 979
741 991
742 743
742 857
742 911
742 925
742 946
743 754
743 762
743 764
743 803
743 807
743 840
743 849
743 885
743 891
743 934
743 991
744 782
744 861
744 968
744 976
745 776
745 788
745 813
745 838
745 864
745 927
745 932
745 951
745 983
746 757
746 858
746 859
746 865
746 994
747 761
747 779
747 811
747 859
747 872
747 915
747 979
748 789
748 892
748 907
749 768
749 769
749 908
749 914
749 928
750 784
750 931
750 988
751 762
751 779
751 803
751 889
751 921
751 938
751 974
751 992
752 767
752 775
752 785
752 794
752 797
752 802
752 806
752 810
752 827
752 829
752 853
752 854
752 871
752 874
752 941
752 952
752 959
752 971
752 978
752 996
753 818
753 875
753 882
753 952
753 960
753 997
754 777
754 806
754 821
754 840
754 889
754 897
754 957
756 782
756 948
757 758
757 812
757 822
757 841
757 880
757 931
757 972
757 978
758 779
758 799
758 853
758 920
758 921
758 952
759 779
759 824
759 914
760 766
760 772
760 788
760 824
760 878
760 914
761 843
761 888
761 970
762 763
762 781
762 828
762 837
762 847
762 897
762 899
762 990
763 772
763 785
763 788
763 803
763 813
764 802
764 867
764 924
765 771
765 783
765 816
765 837
766 769
766 772
766 774
766 775
766 779
766 812
766 822
766 856
766 872
766 880
766 883
766 897
766 923
766 944
767 772
767 779
768 769
768 824
768 880
768 886
769 774
769 878
769 890
769 896
770 841
770 856
770 873
770 891
770 906
770 929
770 933
770 970
770 982
771 778
771 789
771 834
771 891
771 894
772 793
772 815
772 824
772 831
772 841
772 878
772 880
772 926
772 945
772 950
773 794
773 888
773 995
774 779
774 805
774 848
774 878
775 948
775 964
775 973
776 814
776 932
776 948
776 950
776 975
776 983
777 853
777 918
777 947
777 989
777 996
778 782
778 787
778 829
778 834
778 920
778 924
778 965
778 971
778 994
779 831
779 853
779 896
779 908
779 947
779 973
780 842
780 848
780 897
780 916
780 928
780 930
780 936
781 782
781 783
781 883
781 936
782 796
782 807
782 820
782 861
782 862
782 887
782 929
782 968
783 784
783 877
783 904
783 928
783 988
784 824
784 891
784 900
785 788
785 806
785 828
785 837
785 842
785 876
785 892
785 918
785 925
785 930
785 934
785 960
785 964
785 988
785 989
785 991
785 992
786 812
786 892
786 903
786 921
786 945
787 789
787 866
787 876
787 877
787 879
787 891
787 894
787 895
787 961
787 981
788 822
788 840
788 903
788 918
788 925
789 796
789 823
789 836
789 890
789 891
789 910
789 930
789 980
790 810
790 817
790 859
790 900
791 818
791 822
791 840
791 875
791 977
791 999
792 925
792 933
792 954
793 876
794 801
794 841
794 856
794 970
794 989
794 995
795 848
795 877
795 889
797 829
797 926
797 961
797 994
798 907
799 822
799 873
799 887
799 903
799 911
799 931
800 809
800 903
800 929
800 936
800 945
800 948
801 886
801 989
802 810
802 825
802 874
802 885
802 898
802 908
802 933
803 828
803 835
804 808
804 892
804 897
805 846
805 948
806 810
806 893
806 931
807 833
807 873
807 933
808 810
808 822
808 829
808 853
808 867
808 895
808 898
808 918
808 986
809 863
809 867
809 893
809 932
809 979
809 989
810 817
810 827
810 829
810 839
810 855
810 875
810 898
810 901
810 937
810 964
810 972
810 978
810 993
811 977
811 985
812 945
812 994
813 907
813 926
814 832
814 864
814 873
814 879
814 926
814 950
814 951
814 956
814 969
814 970
815 930
816 891
816 906
816 933
816 978
816 996
817 822
817 890
817 931
818 858
818 875
818 884
818 915
818 921
818 926
818 949
818 970
820 851
820 914
821 834
821 875
821 908
821 928
821 961
821 996
822 829
822 841
822 854
822 870
822 898
822 906
822 933
822 983
822 985
823 826
823 852
824 840
824 856
824 878
825 942
825 994
826 832
826 836
826 863
826 957
826 978
827 873
827 958
828 870
828 885
828 897
828 900
828 933
828 934
828 949
828 991
828 995
829 925
830 907
830 938
830 970
830 980
831 983
832 865
832 867
832 963
833 851
833 854
833 866
833 872
833 899
833 926
833 932
833 968
834 850
834 866
834 877
834 891
834 901
834 915
835 856
835 870
835 961
837 838
837 845
837 899
837 915
837 991
838 972
838 987
839 915
840 897
840 925
840 948
841 845
841 919
842 944
842 950
843 887
843 954
843 975
843 992
844 855
844 870
844 884
845 878
845 895
846 875
846 970
847 988
849 853
849 891
849 897
849 923
849 999
851 870
851 884
851 947
851 973
851 992
853 879
853 956
854 913
855 876
855 883
855 951
856 863
856 893
856 901
856 989
856 995
857 870
857 891
857 948
857 954
858 859
858 919
859 934
859 998
860 957
860 978
860 992
861 886
861 900
861 929
861 943
861 956
861 964
861 968
862 884
862 886
862 956
863 888
863 989
864 881
864 943
864 947
865 947
865 955
865 962
866 899
866 960
866 965
867 914
868 931
868 996
869 898
870 906
870 913
870 923
870 954
871 931
871 978
872 893
872 989
873 875
873 918
873 929
873 970
873 998
874 898
875 876
875 900
875 921
875 970
875 979
876 891
876 901
876 956
876 987
877 939
877 953
877 958
878 967
879 881
879 884
879 893
879 902
879 947
879 998
880 966
880 985
881 923
881 929
882 957
882 972
883 914
884 904
884 915
884 948
884 955
885 897
885 899
885 940
885 991
886 887
886 929
886 966
886 981
887 904
887 927
887 941
888 995
889 937
891 892
891 893
891 898
891 900
891 912
891 914
891 920
891 925
891 942
891 961
891 962
891 969
892 989
893 989
893 995
894 928
895 997
896 972
897 925
897 951
897 968
897 984
897 991
897 992
898 977
900 901
900 920
900 965
901 902
901 947
902 942
902 947
903 935
903 945
903 993
903 994
903 999
904 908
904 909
904 948
904 954
905 964
907 944
907 968
908 922
908 924
908 925
908 947
909 923
909 954
910 930
910 963
910 975
910 977
910 978
910 990
911 964
911 980
913 931
913 961
913 963
914 944
914 956
915 970
916 950
917 988
918 978
919 944
921 998
923 958
924 942
924 946
925 934
925 949
926 941
928 961
928 982
929 956
929 967
929 968
929 979
931 937
934 942
935 941
935 979
936 940
936 990
936 995
937 978
939 942
941 990
942 943
944 976
945 993
946 950
946 990
947 992
948 954
948 955
948 973
950 969
954 966
954 973
955 960
955 969
956 966
958 987
961 976
961 993
961 994
963 971
963 973
969 983
972 978
973 984
975 980
976 977
978 985
980 993
993 996
