0 31
0 34
0 46
0 266
0 330
0 336
0 343
0 371
0 392
0 395
0 489
0 743
0 876
0 920
0 967
1 263
1 288
1 300
1 306
1 361
1 486
1 488
1 524
1 600
1 636
1 741
1 747
1 837
1 881
2 43
2 62
2 75
2 172
2 281
2 357
2 413
2 437
2 460
2 476
2 495
2 547
2 582
2 588
2 629
2 637
2 689
2 786
2 797
2 805
2 809
2 818
2 825
2 922
2 984
3 50
3 111
3 132
3 135
3 197
3 257
3 260
3 261
3 288
3 378
3 420
3 446
3 455
3 459
3 487
3 522
3 572
3 624
3 720
3 740
3 752
3 795
3 804
3 843
3 858
3 871
3 884
3 916
3 917
3 962
3 979
4 17
4 26
4 31
4 74
4 155
4 227
4 278
4 302
4 348
4 408
4 431
4 442
4 465
4 521
4 531
4 647
4 676
4 714
4 749
4 780
4 796
4 866
5 80
5 120
5 361
5 448
5 459
5 499
5 518
5 534
5 628
5 662
5 680
5 740
5 807
5 824
5 924
6 76
6 141
6 171
6 240
6 244
6 249
6 301
6 314
6 395
6 490
6 534
6 542
6 545
6 568
6 589
6 590
6 615
6 671
6 691
6 790
6 803
6 854
6 894
6 929
6 958
6 972
6 990
6 995
7 54
7 245
7 268
7 288
7 290
7 333
7 370
7 377
7 381
7 383
7 388
7 427
7 488
7 490
7 554
7 597
7 744
7 754
8 88
8 181
8 238
8 240
8 254
8 301
8 314
8 332
8 374
8 405
8 407
8 484
8 521
8 549
8 551
8 624
8 644
8 808
8 816
8 861
8 866
8 881
8 947
8 986
9 17
9 128
9 149
9 170
9 179
9 192
9 252
9 258
9 264
9 279
9 304
9 306
9 373
9 479
9 518
9 537
9 557
9 566
9 599
9 703
9 713
9 735
9 766
9 799
9 837
9 895
9 905
9 928
10 23
10 42
10 48
10 62
10 63
10 80
10 129
10 136
10 157
10 159
10 166
10 172
10 208
10 209
10 243
10 308
10 331
10 427
10 473
10 484
10 597
10 627
10 650
10 871
11 53
11 55
11 78
11 119
11 129
11 153
11 167
11 186
11 237
11 318
11 323
11 391
11 400
11 401
11 414
11 434
11 478
11 502
11 505
11 547
11 581
11 594
11 617
11 635
11 667
11 688
11 732
11 763
11 926
11 991
12 49
12 70
12 97
12 125
12 160
12 181
12 281
12 299
12 326
12 418
12 438
12 477
12 522
12 575
12 579
12 586
12 634
12 665
12 740
12 744
12 754
12 801
12 813
12 838
12 989
13 89
13 113
13 128
13 213
13 298
13 358
13 399
13 503
13 688
13 710
13 761
13 830
13 843
13 905
14 24
14 144
14 180
14 191
14 235
14 275
14 289
14 293
14 310
14 327
14 347
14 524
14 592
14 632
14 646
14 650
14 790
14 836
14 852
14 863
14 881
14 921
14 951
14 954
14 968
14 973
15 33
15 57
15 66
15 97
15 131
15 269
15 301
15 330
15 348
15 438
15 518
15 709
15 755
15 785
15 824
15 882
15 937
15 945
15 980
16 20
16 59
16 77
16 101
16 121
16 123
16 129
16 155
16 171
16 208
16 287
16 316
16 334
16 348
16 350
16 363
16 479
16 489
16 578
16 590
16 599
16 613
16 671
16 679
16 726
16 728
16 879
17 25
17 31
17 37
17 272
17 280
17 457
17 459
17 487
17 683
17 702
17 742
17 831
17 845
17 868
17 986
17 996
18 169
18 170
18 242
18 330
18 372
18 428
18 476
18 481
18 506
18 548
18 589
18 595
18 667
18 672
18 727
18 728
18 729
18 776
18 786
18 821
18 845
18 852
18 904
18 913
18 919
18 930
19 77
19 86
19 108
19 198
19 247
19 261
19 412
19 468
19 530
19 586
19 596
19 669
19 670
19 724
19 730
19 736
19 747
19 848
19 849
19 876
19 882
19 904
20 63
20 80
20 86
20 135
20 223
20 243
20 292
20 355
20 360
20 370
20 473
20 519
20 579
20 612
20 671
20 672
20 709
20 769
20 788
20 820
20 833
20 908
20 996
21 24
21 50
21 173
21 193
21 238
21 334
21 513
21 693
21 698
21 752
21 840
21 844
21 993
22 128
22 142
22 222
22 223
22 235
22 260
22 262
22 477
22 547
22 600
22 694
22 718
22 835
22 899
22 951
23 93
23 132
23 155
23 161
23 204
23 326
23 331
23 421
23 478
23 492
23 496
23 523
23 544
23 586
23 604
23 652
23 741
23 775
23 777
23 900
23 948
23 992
24 25
24 31
24 42
24 55
24 72
24 81
24 92
24 93
24 109
24 117
24 147
24 148
24 149
24 174
24 178
24 234
24 241
24 249
24 252
24 258
24 328
24 357
24 374
24 385
24 406
24 440
24 479
24 553
24 578
24 623
24 633
24 659
24 740
24 747
24 748
24 749
24 786
24 795
24 845
24 867
24 868
24 908
24 915
24 918
24 950
24 981
25 93
25 133
25 163
25 254
25 266
25 292
25 484
25 513
25 546
25 560
25 585
25 597
25 616
25 688
25 899
25 947
25 959
26 63
26 80
26 98
26 102
26 109
26 128
26 142
26 148
26 154
26 194
26 230
26 253
26 281
26 312
26 374
26 389
26 396
26 493
26 543
26 572
26 606
26 628
26 631
26 638
26 642
26 651
26 683
26 764
26 789
26 843
26 875
26 916
27 103
27 194
27 245
27 292
27 320
27 456
27 481
27 487
27 525
27 639
27 679
27 702
27 718
27 737
27 752
27 815
27 845
27 919
27 979
27 990
28 108
28 162
28 264
28 288
28 293
28 513
28 602
28 608
28 624
28 651
28 655
28 717
28 742
28 846
28 863
29 245
29 271
29 421
29 438
29 511
29 551
29 591
29 736
29 775
29 889
29 907
29 912
29 971
29 997
30 66
30 80
30 148
30 180
30 209
30 231
30 251
30 294
30 347
30 349
30 415
30 425
30 426
30 428
30 452
30 468
30 473
30 487
30 522
30 548
30 567
30 600
30 616
30 638
30 665
30 688
30 794
30 837
30 842
30 857
30 901
30 941
30 957
30 980
30 987
30 997
31 46
31 61
31 96
31 140
31 156
31 185
31 196
31 198
31 199
31 202
31 213
31 219
31 227
31 251
31 272
31 278
31 293
31 298
31 314
31 319
31 345
31 373
31 397
31 413
31 416
31 431
31 458
31 483
31 485
31 486
31 487
31 498
31 512
31 532
31 541
31 549
31 563
31 565
31 571
31 650
31 676
31 689
31 695
31 705
31 721
31 723
31 724
31 731
31 746
31 788
31 805
31 806
31 845
31 852
31 868
31 911
31 918
31 933
31 937
31 963
31 967
31 975
32 57
32 171
32 194
32 334
32 368
32 401
32 418
32 459
32 526
32 636
32 640
32 717
32 742
32 858
32 868
32 915
32 993
33 84
33 231
33 281
33 286
33 319
33 334
33 384
33 462
33 493
33 545
33 552
33 615
33 633
33 704
33 705
33 765
33 782
33 798
33 799
33 818
33 866
33 867
33 906
34 39
34 50
34 58
34 78
34 131
34 227
34 232
34 238
34 255
34 289
34 297
34 306
34 319
34 360
34 373
34 434
34 453
34 482
34 517
34 545
34 552
34 566
34 591
34 627
34 657
34 664
34 723
34 729
34 766
34 799
34 819
34 838
34 841
34 866
34 912
34 922
34 932
34 948
34 984
35 57
35 85
35 89
35 96
35 154
35 215
35 351
35 385
35 470
35 551
35 567
35 681
35 733
35 764
35 786
35 796
35 859
35 981
36 51
36 59
36 84
36 128
36 140
36 143
36 151
36 243
36 343
36 344
36 527
36 611
36 650
36 721
36 726
36 733
36 880
36 946
36 954
37 261
37 307
37 338
37 372
37 374
37 416
37 592
37 681
37 803
37 968
38 46
38 110
38 115
38 137
38 157
38 187
38 196
38 218
38 231
38 244
38 271
38 371
38 386
38 388
38 421
38 424
38 462
38 509
38 516
38 550
38 588
38 646
38 651
38 655
38 724
38 822
38 831
38 836
38 862
38 926
38 931
39 56
39 319
39 326
39 368
39 373
39 428
39 465
39 514
39 534
39 545
39 557
39 558
39 567
39 578
39 589
39 615
39 619
39 638
39 665
39 670
39 683
39 688
39 699
39 752
39 766
39 819
39 838
40 53
40 69
40 144
40 228
40 229
40 238
40 244
40 301
40 314
40 395
40 401
40 406
40 431
40 439
40 444
40 452
40 462
40 470
40 478
40 534
40 578
40 683
40 830
40 844
40 912
40 915
41 43
41 127
41 400
41 401
41 417
41 442
41 473
41 483
41 509
41 544
41 687
41 697
41 744
41 745
41 748
41 801
41 810
41 835
41 844
41 945
41 953
41 965
42 151
42 208
42 210
42 258
42 259
42 301
42 311
42 362
42 417
42 461
42 477
42 508
42 544
42 568
42 739
42 749
42 761
42 872
42 969
43 44
43 52
43 60
43 70
43 78
43 107
43 173
43 176
43 188
43 195
43 204
43 223
43 257
43 283
43 309
43 326
43 333
43 336
43 400
43 422
43 424
43 441
43 454
43 460
43 466
43 492
43 538
43 548
43 572
43 581
43 589
43 647
43 654
43 668
43 682
43 687
43 692
43 721
43 741
43 758
43 767
43 774
43 779
43 798
43 810
43 842
43 854
43 915
43 937
43 953
43 960
43 965
43 987
44 48
44 105
44 248
44 283
44 342
44 347
44 422
44 510
44 565
44 581
44 588
44 654
44 692
44 712
44 730
44 764
44 861
44 904
44 947
44 953
44 965
45 401
45 418
45 435
45 439
45 446
45 543
45 569
45 581
45 616
45 632
45 739
45 750
45 772
45 781
45 783
45 800
45 839
45 888
45 932
45 959
45 988
45 995
46 100
46 103
46 111
46 156
46 252
46 254
46 316
46 349
46 370
46 379
46 404
46 423
46 425
46 444
46 545
46 558
46 630
46 632
46 645
46 651
46 699
46 723
46 733
46 750
46 791
46 812
46 820
46 892
46 936
46 953
46 993
47 61
47 247
47 354
47 509
47 552
47 553
47 610
47 751
47 862
47 942
47 952
48 78
48 110
48 295
48 454
48 472
48 473
48 516
48 532
48 544
48 545
48 570
48 619
48 653
48 660
48 696
48 753
48 765
48 786
48 838
48 866
48 915
48 931
48 944
48 946
48 953
49 128
49 213
49 225
49 265
49 290
49 301
49 311
49 401
49 406
49 482
49 549
49 554
49 568
49 619
49 679
49 722
49 790
49 872
50 115
50 215
50 216
50 279
50 363
50 377
50 411
50 463
50 470
50 511
50 513
50 545
50 546
50 550
50 552
50 566
50 573
50 765
50 773
50 808
50 816
50 949
51 198
51 199
51 407
51 523
51 590
51 685
51 782
51 800
51 843
51 938
52 226
52 273
52 277
52 332
52 366
52 383
52 390
52 467
52 648
52 744
52 782
52 892
52 917
52 965
52 985
53 57
53 61
53 87
53 147
53 167
53 255
53 320
53 347
53 353
53 371
53 392
53 394
53 406
53 435
53 461
53 472
53 502
53 528
53 564
53 583
53 586
53 604
53 637
53 669
53 856
53 867
53 871
53 880
53 883
53 888
53 926
53 953
53 962
54 82
54 129
54 130
54 136
54 150
54 159
54 171
54 175
54 189
54 239
54 243
54 299
54 353
54 354
54 380
54 469
54 478
54 491
54 500
54 517
54 540
54 553
54 582
54 629
54 679
54 714
54 720
54 741
54 790
54 865
54 964
54 979
54 985
55 72
55 159
55 310
55 355
55 412
55 471
55 559
55 585
55 665
55 800
55 997
56 171
56 180
56 210
56 230
56 274
56 301
56 421
56 423
56 436
56 477
56 503
56 538
56 553
56 651
56 697
56 754
56 791
56 793
56 872
56 882
56 886
56 898
56 905
56 914
56 919
56 957
57 66
57 112
57 136
57 139
57 158
57 287
57 288
57 311
57 367
57 385
57 456
57 464
57 489
57 493
57 502
57 521
57 704
57 735
57 744
57 810
57 879
57 888
57 913
57 921
57 922
57 958
57 977
58 102
58 111
58 137
58 214
58 369
58 401
58 424
58 495
58 552
58 619
58 670
58 699
58 705
58 744
58 745
58 770
58 779
58 996
59 62
59 88
59 116
59 157
59 171
59 174
59 184
59 185
59 201
59 223
59 233
59 269
59 280
59 291
59 292
59 348
59 447
59 459
59 498
59 527
59 530
59 535
59 558
59 570
59 580
59 599
59 625
59 627
59 636
59 679
59 702
59 726
59 732
59 734
59 743
59 796
59 805
59 836
59 868
59 987
59 996
59 998
60 138
60 234
60 267
60 280
60 297
60 309
60 321
60 422
60 546
60 586
60 661
60 671
60 687
60 725
60 796
60 817
60 855
60 913
60 933
60 953
60 994
61 72
61 124
61 148
61 207
61 342
61 367
61 458
61 651
61 769
61 843
61 909
61 994
62 175
62 223
62 243
62 291
62 314
62 395
62 425
62 426
62 444
62 451
62 542
62 639
62 791
62 808
62 828
62 881
62 886
62 905
62 937
62 947
63 207
63 279
63 349
63 362
63 420
63 449
63 483
63 506
63 520
63 574
63 820
63 874
63 885
64 69
64 105
64 135
64 159
64 319
64 415
64 417
64 665
64 693
64 813
64 818
64 933
65 66
65 110
65 119
65 125
65 165
65 221
65 288
65 309
65 314
65 374
65 404
65 407
65 462
65 568
65 574
65 651
65 683
65 741
65 754
65 758
65 907
65 942
65 960
65 966
65 990
66 69
66 104
66 111
66 120
66 128
66 144
66 190
66 216
66 242
66 270
66 286
66 301
66 313
66 330
66 343
66 454
66 465
66 466
66 518
66 530
66 534
66 551
66 575
66 585
66 621
66 672
66 745
66 750
66 769
66 807
66 897
66 917
66 941
66 958
66 987
67 101
67 196
67 235
67 428
67 580
67 743
67 809
67 816
67 842
67 901
67 989
68 97
68 280
68 332
68 438
68 443
68 607
68 648
68 659
68 751
68 892
68 923
68 983
69 70
69 116
69 159
69 252
69 306
69 339
69 353
69 425
69 484
69 492
69 646
69 658
69 782
69 857
69 975
69 997
70 88
70 221
70 258
70 315
70 369
70 404
70 500
70 567
70 655
70 694
70 773
70 821
70 925
70 947
70 970
71 127
71 243
71 286
71 291
71 301
71 397
71 433
71 461
71 552
71 603
71 648
71 759
71 858
71 938
72 115
72 150
72 166
72 167
72 180
72 264
72 269
72 282
72 299
72 304
72 469
72 473
72 519
72 523
72 559
72 585
72 622
72 679
72 800
72 834
72 981
72 989
73 135
73 151
73 164
73 218
73 319
73 336
73 342
73 350
73 398
73 456
73 460
73 514
73 713
73 844
73 869
73 902
73 970
74 87
74 216
74 317
74 347
74 360
74 385
74 397
74 408
74 411
74 471
74 531
74 583
74 606
74 679
74 687
74 872
74 941
74 969
74 972
75 87
75 128
75 227
75 303
75 348
75 349
75 390
75 471
75 483
75 601
75 665
75 751
75 832
75 991
76 89
76 128
76 154
76 181
76 212
76 281
76 295
76 309
76 585
76 770
76 772
76 917
76 941
76 951
77 81
77 171
77 176
77 242
77 246
77 273
77 286
77 290
77 382
77 398
77 406
77 485
77 519
77 548
77 578
77 594
77 599
77 604
77 632
77 647
77 650
77 652
77 681
77 682
77 715
77 832
77 905
77 936
77 937
77 958
77 959
77 999
78 137
78 201
78 249
78 319
78 355
78 438
78 572
78 577
78 583
78 584
78 688
78 689
78 690
78 722
78 760
78 774
78 819
78 958
79 97
79 101
79 125
79 174
79 211
79 280
79 334
79 342
79 352
79 394
79 476
79 490
79 540
79 624
79 632
79 635
79 665
79 676
79 743
79 812
79 834
79 995
80 92
80 132
80 150
80 211
80 296
80 353
80 379
80 390
80 421
80 503
80 510
80 554
80 579
80 696
80 753
80 802
80 911
80 916
80 959
80 995
80 997
81 128
81 133
81 134
81 158
81 301
81 302
81 312
81 331
81 388
81 512
81 559
81 599
81 630
81 731
81 762
81 809
81 816
81 820
81 859
81 919
81 947
81 948
81 954
81 974
81 988
82 176
82 189
82 239
82 273
82 277
82 311
82 393
82 411
82 444
82 491
82 613
82 773
82 817
82 877
82 911
83 205
83 284
83 353
83 361
83 374
83 385
83 407
83 411
83 418
83 528
83 551
83 567
83 676
83 717
83 843
84 137
84 241
84 247
84 286
84 306
84 347
84 357
84 373
84 411
84 438
84 488
84 499
84 503
84 517
84 518
84 545
84 697
84 703
84 706
84 765
84 805
84 878
84 919
84 970
84 973
84 992
85 201
85 264
85 346
85 411
85 471
85 480
85 577
85 583
85 584
85 641
85 651
85 692
85 699
85 764
85 901
85 931
85 933
85 945
85 970
85 987
86 127
86 132
86 155
86 171
86 275
86 353
86 459
86 484
86 494
86 567
86 646
86 691
86 848
86 872
86 984
87 132
87 137
87 139
87 177
87 276
87 401
87 470
87 471
87 490
87 536
87 542
87 564
87 574
87 577
87 659
87 924
87 939
88 118
88 207
88 265
88 291
88 303
88 312
88 390
88 401
88 407
88 453
88 482
88 502
88 680
88 740
88 832
88 890
88 922
88 971
88 989
89 90
89 186
89 200
89 212
89 214
89 313
89 320
89 326
89 347
89 361
89 366
89 432
89 450
89 476
89 489
89 510
89 527
89 585
89 676
89 677
89 708
89 725
89 787
89 815
89 816
89 851
89 924
89 942
89 965
89 971
90 94
90 132
90 169
90 271
90 288
90 331
90 384
90 433
90 444
90 473
90 501
90 597
90 602
90 609
90 629
90 660
90 710
90 717
90 843
90 903
90 952
90 963
90 977
91 141
91 156
91 170
91 227
91 262
91 385
91 459
91 563
91 588
91 594
91 606
91 616
91 665
91 790
91 947
92 133
92 288
92 332
92 342
92 357
92 392
92 459
92 469
92 472
92 482
92 490
92 516
92 525
92 581
92 585
92 604
92 617
92 688
92 692
92 706
92 727
92 750
92 806
92 867
92 939
92 982
92 987
93 131
93 143
93 171
93 198
93 224
93 234
93 235
93 250
93 253
93 272
93 309
93 344
93 400
93 401
93 403
93 420
93 428
93 445
93 473
93 479
93 493
93 511
93 534
93 544
93 559
93 583
93 604
93 620
93 666
93 685
93 693
93 748
93 749
93 756
93 762
93 768
93 795
93 811
93 850
93 916
93 943
94 129
94 171
94 212
94 277
94 292
94 308
94 442
94 473
94 578
94 580
94 587
94 647
94 679
94 830
94 918
94 962
94 979
95 163
95 168
95 185
95 197
95 219
95 252
95 279
95 301
95 357
95 369
95 490
95 570
95 581
95 589
95 592
95 665
95 764
95 814
95 937
95 958
95 969
96 185
96 288
96 307
96 374
96 407
96 513
96 534
96 538
96 768
96 804
96 926
96 931
96 933
96 937
97 273
97 302
97 341
97 344
97 390
97 471
97 522
97 566
97 602
97 608
97 610
97 639
97 664
97 681
97 820
97 824
97 952
97 981
97 990
98 110
98 191
98 287
98 294
98 317
98 349
98 390
98 510
98 572
98 641
98 651
98 744
98 905
98 927
98 955
98 972
99 132
99 172
99 200
99 212
99 222
99 226
99 444
99 518
99 523
99 635
99 647
99 680
99 699
99 729
99 741
99 784
99 938
99 953
100 110
100 112
100 150
100 155
100 191
100 218
100 223
100 299
100 383
100 404
100 445
100 617
100 624
100 656
100 718
100 724
100 742
100 764
100 911
100 939
100 954
100 976
101 110
101 120
101 131
101 151
101 243
101 288
101 323
101 365
101 425
101 537
101 661
101 683
101 687
101 700
101 727
101 772
101 959
101 996
102 110
102 128
102 131
102 140
102 177
102 221
102 279
102 306
102 357
102 373
102 418
102 444
102 445
102 471
102 484
102 552
102 566
102 574
102 625
102 702
102 703
102 771
102 890
102 983
103 182
103 190
103 202
103 208
103 370
103 394
103 423
103 525
103 629
103 673
103 717
103 724
103 895
103 908
103 936
104 110
104 223
104 238
104 301
104 335
104 445
104 499
104 502
104 527
104 603
104 660
104 676
104 716
104 761
104 772
104 834
104 891
105 132
105 156
105 222
105 286
105 403
105 434
105 455
105 520
105 547
105 651
105 705
105 856
105 862
105 907
105 954
106 129
106 193
106 374
106 465
106 471
106 539
106 547
106 563
106 600
106 622
106 630
106 665
106 712
106 817
106 940
107 179
107 210
107 214
107 331
107 334
107 336
107 418
107 422
107 460
107 484
107 599
107 696
107 705
107 726
107 815
107 822
107 830
107 881
107 953
108 140
108 239
108 271
108 335
108 341
108 573
108 694
108 806
108 844
108 868
108 894
108 927
108 936
108 940
109 138
109 155
109 156
109 171
109 207
109 229
109 239
109 345
109 364
109 374
109 479
109 484
109 488
109 571
109 599
109 615
109 630
109 647
109 650
109 743
109 766
109 841
109 941
109 955
110 121
110 182
110 188
110 219
110 276
110 328
110 378
110 389
110 464
110 498
110 507
110 521
110 523
110 548
110 550
110 551
110 579
110 619
110 631
110 645
110 651
110 709
110 723
110 759
110 764
110 771
110 805
110 842
110 891
110 939
110 979
111 148
111 225
111 350
111 356
111 462
111 491
111 523
111 544
111 622
111 797
111 912
111 964
112 159
112 182
112 273
112 295
112 467
112 488
112 510
112 554
112 558
112 621
112 631
112 647
112 648
112 678
112 735
112 796
112 801
112 837
112 848
112 866
112 897
112 943
113 134
113 142
113 256
113 262
113 304
113 322
113 336
113 360
113 443
113 463
113 564
113 593
113 636
113 676
113 677
113 680
113 743
113 976
114 135
114 149
114 162
114 274
114 279
114 326
114 360
114 384
114 483
114 543
114 585
114 592
114 597
114 605
114 609
114 633
114 713
114 769
114 772
114 863
114 886
114 907
114 919
114 933
114 971
114 977
115 173
115 225
115 278
115 301
115 427
115 468
115 516
115 609
115 635
115 637
115 652
115 665
115 725
115 769
115 833
115 865
115 897
115 961
116 129
116 150
116 171
116 252
116 264
116 459
116 493
116 578
116 613
116 632
116 675
116 713
116 757
116 854
116 919
116 933
116 997
117 138
117 171
117 237
117 329
117 444
117 483
117 553
117 560
117 561
117 580
117 663
117 794
117 800
118 160
118 238
118 330
118 340
118 395
118 409
118 457
118 490
118 536
118 573
118 639
118 676
118 679
118 683
118 690
118 708
118 818
118 845
118 846
118 904
118 907
118 954
118 979
119 320
119 341
119 389
119 401
119 523
119 615
119 662
119 705
119 715
119 753
119 977
120 135
120 141
120 274
120 347
120 370
120 403
120 413
120 478
120 518
120 590
120 603
120 732
120 745
120 764
120 777
120 830
121 130
121 151
121 164
121 292
121 313
121 374
121 433
121 484
121 530
121 539
121 553
121 585
121 635
121 658
121 662
121 703
121 764
121 801
121 911
121 930
121 952
121 987
121 989
122 143
122 160
122 173
122 245
122 304
122 346
122 437
122 465
122 515
122 533
122 540
122 593
122 622
122 677
122 716
122 748
122 749
122 814
122 897
122 953
122 957
122 970
122 983
122 987
123 135
123 151
123 200
123 276
123 284
123 311
123 327
123 406
123 415
123 450
123 452
123 482
123 619
123 702
123 708
123 712
123 796
123 804
123 862
123 876
123 884
124 151
124 345
124 616
124 632
124 635
124 682
124 787
124 817
124 830
124 857
124 878
124 919
125 421
125 442
125 567
125 600
125 629
125 642
125 682
125 738
125 743
125 828
125 977
125 994
126 198
126 228
126 246
126 315
126 449
126 456
126 473
126 534
126 558
126 563
126 601
126 605
126 632
126 639
126 664
126 665
126 672
126 677
126 691
126 713
126 730
126 760
126 845
126 903
126 931
126 953
126 997
127 252
127 301
127 357
127 512
127 517
127 565
127 687
127 697
127 726
127 772
127 953
127 959
127 964
127 965
128 130
128 144
128 149
128 161
128 168
128 182
128 191
128 203
128 227
128 241
128 253
128 261
128 293
128 295
128 367
128 372
128 388
128 476
128 530
128 534
128 563
128 584
128 585
128 594
128 609
128 613
128 625
128 638
128 642
128 662
128 665
128 694
128 739
128 748
128 907
128 924
128 953
129 163
129 219
129 225
129 243
129 269
129 334
129 380
129 401
129 415
129 418
129 419
129 420
129 521
129 577
129 599
129 612
129 647
129 684
129 696
129 698
129 726
129 796
129 805
129 822
129 926
129 938
130 230
130 277
130 328
130 330
130 359
130 373
130 374
130 419
130 421
130 455
130 481
130 490
130 647
130 684
130 699
130 710
130 728
130 766
130 787
130 844
130 862
130 922
130 962
131 179
131 378
131 391
131 397
131 451
131 467
131 524
131 547
131 620
131 629
131 826
131 941
132 139
132 162
132 191
132 197
132 198
132 222
132 264
132 266
132 270
132 292
132 296
132 297
132 349
132 350
132 357
132 359
132 385
132 389
132 392
132 405
132 419
132 421
132 433
132 448
132 451
132 473
132 482
132 487
132 518
132 522
132 524
132 567
132 585
132 587
132 591
132 600
132 627
132 633
132 661
132 682
132 683
132 691
132 692
132 701
132 821
132 827
132 859
132 924
132 928
132 950
132 962
133 170
133 267
133 298
133 340
133 364
133 370
133 455
133 561
133 633
133 691
133 710
133 723
133 748
133 750
133 774
133 859
133 999
134 151
134 249
134 278
134 288
134 455
134 522
134 603
134 624
134 639
134 737
134 777
134 813
134 897
134 911
134 938
134 974
135 202
135 223
135 251
135 288
135 295
135 300
135 380
135 382
135 390
135 436
135 458
135 490
135 497
135 516
135 520
135 542
135 571
135 604
135 622
135 640
135 649
135 652
135 712
135 731
135 737
135 740
135 752
135 768
135 774
135 813
135 819
135 846
135 852
135 872
135 918
135 951
135 965
136 193
136 415
136 432
136 446
136 708
136 746
136 756
136 911
136 985
137 191
137 306
137 347
137 394
137 427
137 434
137 459
137 463
137 490
137 518
137 576
137 622
137 663
137 683
137 765
137 782
137 915
137 942
137 954
138 187
138 207
138 225
138 298
138 354
138 414
138 434
138 502
138 535
138 561
138 585
138 621
138 628
138 650
138 691
138 783
138 832
138 883
138 915
138 916
138 922
138 938
138 988
139 163
139 208
139 250
139 251
139 301
139 336
139 383
139 446
139 454
139 484
139 494
139 596
139 629
139 744
139 753
139 794
139 796
139 826
139 850
139 878
139 964
140 213
140 274
140 333
140 418
140 457
140 459
140 502
140 592
140 639
140 646
140 683
140 707
140 712
140 782
140 838
140 847
140 917
140 925
140 964
141 157
141 171
141 183
141 191
141 233
141 242
141 246
141 252
141 302
141 317
141 335
141 371
141 385
141 504
141 519
141 553
141 558
141 570
141 623
141 652
141 664
141 679
141 713
141 733
141 737
141 743
141 871
141 880
141 916
142 175
142 220
142 357
142 574
142 660
142 662
142 796
142 850
142 948
142 970
142 974
143 144
143 149
143 150
143 162
143 171
143 217
143 292
143 309
143 339
143 361
143 363
143 471
143 557
143 594
143 641
143 647
143 648
143 649
143 650
143 748
143 888
143 922
144 187
144 191
144 341
144 347
144 433
144 473
144 630
144 676
144 734
144 793
144 832
144 843
144 889
144 930
144 936
144 991
145 146
145 251
145 298
145 331
145 482
145 531
145 597
145 678
145 701
145 805
145 889
145 930
146 318
146 411
146 475
146 547
146 594
146 595
146 612
146 676
146 690
146 751
146 838
146 844
146 901
146 940
146 971
147 226
147 337
147 359
147 455
147 487
147 489
147 490
147 563
147 650
147 748
147 787
147 895
147 911
147 971
148 206
148 222
148 455
148 459
148 473
148 518
148 629
148 671
148 718
148 761
148 816
148 819
148 922
148 923
149 267
149 326
149 350
149 459
149 468
149 512
149 525
149 543
149 554
149 556
149 625
149 662
149 683
149 702
149 746
149 760
149 920
149 966
149 983
149 984
149 987
150 159
150 160
150 306
150 374
150 380
150 401
150 437
150 473
150 534
150 595
150 643
150 648
150 652
150 678
150 679
150 746
150 800
150 812
150 879
150 973
150 974
150 998
151 160
151 178
151 196
151 210
151 228
151 235
151 250
151 264
151 294
151 304
151 346
151 347
151 349
151 366
151 372
151 376
151 397
151 402
151 489
151 492
151 572
151 574
151 626
151 641
151 676
151 712
151 722
151 742
151 747
151 758
151 799
151 912
151 913
151 946
151 971
152 238
152 301
152 341
152 469
152 521
152 546
152 600
152 665
152 876
152 880
152 940
152 953
152 957
153 216
153 332
153 350
153 477
153 522
153 635
153 665
153 762
153 782
153 823
153 919
153 931
154 171
154 283
154 288
154 290
154 427
154 456
154 646
154 676
154 692
154 907
155 182
155 287
155 396
155 424
155 496
155 552
155 565
155 567
155 624
155 661
155 790
155 938
155 942
155 959
155 974
156 181
156 192
156 200
156 207
156 254
156 327
156 348
156 459
156 466
156 490
156 653
156 662
156 715
156 798
156 893
157 171
157 206
157 215
157 246
157 288
157 383
157 422
157 482
157 520
157 578
157 641
157 650
157 679
157 682
157 735
157 772
157 841
157 932
158 221
158 238
158 268
158 316
158 351
158 436
158 570
158 595
158 630
158 673
158 696
159 163
159 171
159 177
159 226
159 239
159 243
159 253
159 273
159 302
159 306
159 315
159 340
159 371
159 471
159 483
159 522
159 527
159 533
159 582
159 604
159 648
159 686
159 714
159 739
159 775
159 784
159 794
159 826
159 833
159 834
159 836
159 837
159 839
159 848
159 868
159 880
159 902
159 935
159 956
159 993
160 183
160 222
160 236
160 304
160 419
160 484
160 555
160 586
160 593
160 624
160 641
160 658
160 720
160 775
160 807
160 846
160 871
160 924
160 987
161 384
161 519
161 527
161 600
161 635
161 665
161 750
161 901
161 947
161 959
161 998
162 192
162 241
162 288
162 321
162 323
162 334
162 475
162 484
162 517
162 538
162 540
162 545
162 577
162 635
162 640
162 694
162 700
162 755
162 771
162 849
162 877
162 901
162 939
162 958
163 185
163 216
163 239
163 266
163 316
163 320
163 354
163 397
163 439
163 490
163 558
163 613
163 652
163 665
163 711
163 776
163 787
163 808
163 856
163 872
163 975
163 997
164 302
164 383
164 500
164 559
164 603
164 629
164 661
164 924
164 936
165 257
165 331
165 360
165 379
165 418
165 457
165 459
165 809
165 915
165 941
165 954
165 986
165 990
166 170
166 351
166 558
166 643
166 651
166 694
166 805
166 808
166 906
166 984
167 170
167 232
167 475
167 539
167 595
167 646
167 650
167 676
167 695
167 763
167 804
167 998
168 262
168 311
168 316
168 403
168 602
168 637
168 646
168 795
168 866
168 931
169 172
169 200
169 209
169 210
169 254
169 296
169 298
169 362
169 363
169 368
169 384
169 428
169 488
169 490
169 524
169 585
169 586
169 595
169 617
169 655
169 739
169 745
169 762
169 801
169 807
169 845
169 896
169 900
169 933
169 942
169 950
169 977
170 198
170 222
170 226
170 283
170 319
170 324
170 327
170 335
170 345
170 357
170 473
170 482
170 484
170 523
170 539
170 564
170 572
170 577
170 578
170 591
170 625
170 632
170 650
170 681
170 706
170 710
170 740
170 775
170 787
170 790
170 814
170 824
170 887
170 950
170 972
170 997
171 182
171 184
171 203
171 222
171 233
171 239
171 242
171 251
171 257
171 269
171 281
171 292
171 310
171 352
171 354
171 385
171 395
171 419
171 443
171 473
171 499
171 507
171 513
171 535
171 570
171 573
171 575
171 582
171 589
171 604
171 606
171 613
171 614
171 647
171 650
171 654
171 679
171 696
171 723
171 726
171 727
171 728
171 743
171 764
171 769
171 770
171 774
171 834
171 856
171 864
171 870
171 881
171 924
171 931
171 967
172 354
172 379
172 399
172 499
172 507
172 535
172 583
172 630
172 646
172 691
172 771
172 800
172 816
172 872
172 892
172 894
172 926
172 928
172 946
173 355
173 474
173 484
173 529
173 537
173 595
173 636
173 671
173 746
173 789
173 828
173 845
173 891
173 934
173 950
173 972
174 222
174 225
174 272
174 306
174 321
174 374
174 396
174 504
174 653
174 657
174 667
174 704
174 800
174 827
174 840
174 870
174 872
174 932
175 250
175 251
175 264
175 273
175 274
175 303
175 309
175 312
175 344
175 407
175 413
175 438
175 548
175 605
175 694
175 742
175 821
175 885
175 921
175 935
175 945
175 947
175 948
175 968
175 975
175 977
175 985
176 182
176 358
176 405
176 437
176 735
176 766
176 809
176 895
176 918
176 925
177 367
177 378
177 380
177 388
177 447
177 520
177 529
177 761
177 810
177 865
177 885
177 959
177 974
178 293
178 339
178 352
178 487
178 493
178 543
178 611
178 618
178 623
178 669
178 670
178 683
178 689
178 850
178 925
179 262
179 288
179 315
179 367
179 549
179 574
179 723
179 854
179 916
179 919
179 990
180 231
180 400
180 401
180 404
180 417
180 454
180 492
180 572
180 679
180 921
180 946
180 947
181 194
181 420
181 446
181 451
181 457
181 512
181 565
181 625
181 640
181 678
181 696
181 713
181 723
181 735
181 960
182 248
182 319
182 364
182 396
182 473
182 486
182 538
182 582
182 613
182 652
182 679
182 733
182 760
182 867
182 890
182 953
182 979
183 186
183 209
183 216
183 296
183 443
183 470
183 475
183 605
183 650
183 652
183 667
183 680
183 783
183 923
183 974
184 237
184 241
184 264
184 287
184 375
184 400
184 459
184 474
184 527
184 575
184 646
184 679
184 851
184 974
184 990
185 227
185 232
185 235
185 253
185 274
185 298
185 343
185 389
185 403
185 413
185 416
185 439
185 442
185 478
185 480
185 495
185 498
185 576
185 577
185 596
185 618
185 662
185 705
185 787
185 845
185 859
185 868
185 885
185 890
185 963
186 207
186 215
186 219
186 312
186 319
186 376
186 569
186 636
186 679
186 689
186 922
187 214
187 260
187 410
187 440
187 471
187 521
187 540
187 585
187 601
187 606
187 843
187 894
188 203
188 238
188 245
188 333
188 335
188 374
188 504
188 532
188 534
188 540
188 764
188 777
188 838
188 841
188 921
188 941
188 947
188 972
188 982
188 994
189 247
189 257
189 453
189 567
189 583
189 639
189 640
189 665
189 709
189 821
190 210
190 226
190 259
190 451
190 614
190 635
190 640
190 661
190 671
190 676
190 710
190 735
190 979
191 192
191 197
191 307
191 329
191 330
191 339
191 441
191 475
191 524
191 553
191 556
191 565
191 630
191 674
191 683
191 691
191 703
191 705
191 803
191 871
191 873
191 915
191 942
192 239
192 282
192 471
192 545
192 546
192 709
192 727
192 735
192 743
192 751
192 892
192 901
193 216
193 286
193 301
193 330
193 363
193 471
193 505
193 514
193 679
193 682
193 710
193 717
193 740
193 807
193 957
193 987
194 215
194 348
194 391
194 418
194 462
194 485
194 487
194 498
194 640
194 644
194 709
194 733
194 743
194 752
194 833
194 853
194 930
195 243
195 288
195 309
195 376
195 385
195 404
195 443
195 447
195 618
195 620
195 650
195 664
195 719
195 752
195 762
195 768
195 777
195 889
195 964
196 306
196 331
196 484
196 486
196 528
196 634
196 641
196 651
196 664
196 676
196 748
196 773
196 813
196 903
196 977
196 983
196 990
197 257
197 384
197 432
197 543
197 592
197 595
197 717
197 754
197 798
197 823
197 846
197 913
197 919
197 935
197 951
197 977
198 209
198 388
198 438
198 441
198 506
198 570
198 577
198 592
198 595
198 597
198 609
198 617
198 655
198 693
198 919
198 930
199 260
199 285
199 386
199 412
199 471
199 502
199 514
199 515
199 527
199 576
199 577
199 582
199 594
199 597
199 692
199 711
199 714
199 752
199 832
199 835
199 845
199 847
199 870
199 873
199 883
199 910
199 940
200 226
200 252
200 408
200 487
200 585
200 640
200 645
200 676
200 772
200 816
200 844
200 900
200 969
200 979
201 268
201 292
201 352
201 468
201 531
201 559
201 585
201 603
201 690
201 792
201 869
201 922
202 226
202 257
202 263
202 443
202 478
202 504
202 562
202 589
202 743
202 777
202 833
202 868
202 988
203 210
203 301
203 325
203 406
203 513
203 566
203 581
203 635
203 649
203 662
203 772
203 906
204 245
204 260
204 285
204 447
204 593
204 676
204 692
204 697
204 729
204 757
204 764
204 852
204 888
204 907
204 953
204 965
204 977
205 319
205 338
205 388
205 476
205 483
205 592
205 597
205 609
205 670
205 717
205 720
205 729
205 753
205 766
205 777
205 800
205 826
205 852
205 878
205 879
205 912
205 913
205 919
205 937
205 941
205 977
206 236
206 382
206 385
206 441
206 458
206 499
206 560
206 573
206 582
206 590
206 599
206 676
206 699
206 709
206 735
206 781
206 931
206 933
206 947
206 986
207 341
207 351
207 397
207 401
207 441
207 519
207 535
207 571
207 630
207 634
207 679
207 773
207 802
207 820
207 827
207 837
207 932
207 941
207 944
207 979
207 981
207 984
208 259
208 331
208 391
208 396
208 427
208 601
208 651
208 773
208 791
208 924
208 972
209 319
209 360
209 384
209 552
209 587
209 602
209 616
209 643
209 745
209 800
209 861
209 878
209 919
209 935
209 947
210 212
210 218
210 223
210 267
210 289
210 374
210 380
210 381
210 492
210 506
210 684
210 692
210 732
210 748
210 753
210 801
210 826
210 843
210 851
210 883
210 889
210 955
211 281
211 285
211 328
211 366
211 390
211 453
211 573
211 580
211 610
211 640
211 643
211 734
211 756
211 785
211 831
211 898
212 275
212 276
212 296
212 297
212 307
212 328
212 333
212 347
212 398
212 585
212 586
212 632
212 648
212 729
212 817
212 819
212 894
213 242
213 418
213 474
213 497
213 654
213 692
213 815
213 828
213 845
213 854
213 868
213 975
214 245
214 344
214 376
214 536
214 582
214 607
214 626
214 666
214 719
214 783
214 817
215 223
215 253
215 263
215 347
215 352
215 358
215 374
215 381
215 413
215 444
215 474
215 539
215 567
215 620
215 806
215 843
215 856
215 893
215 928
215 970
215 999
216 228
216 257
216 341
216 346
216 373
216 391
216 434
216 454
216 505
216 562
216 565
216 569
216 616
216 693
216 758
216 806
216 863
216 936
216 940
217 243
217 288
217 312
217 325
217 350
217 530
217 546
217 557
217 729
217 772
217 782
217 790
217 994
218 283
218 378
218 385
218 443
218 497
218 580
218 616
218 665
218 759
218 763
218 765
218 783
218 959
219 254
219 312
219 322
219 327
219 403
219 443
219 489
219 731
220 249
220 307
220 316
220 360
220 384
220 543
220 764
220 882
220 919
220 924
220 927
220 933
220 941
220 951
220 971
220 977
220 991
221 222
221 234
221 271
221 279
221 287
221 417
221 427
221 557
221 642
221 817
221 918
221 930
221 982
222 238
222 250
222 267
222 268
222 271
222 288
222 302
222 311
222 317
222 334
222 352
222 359
222 363
222 394
222 403
222 438
222 466
222 470
222 473
222 489
222 500
222 569
222 578
222 592
222 596
222 604
222 607
222 608
222 611
222 623
222 667
222 705
222 723
222 798
222 804
222 808
222 816
222 820
222 830
222 831
222 833
222 834
222 849
222 860
222 869
222 875
222 925
222 926
222 937
222 951
222 983
222 989
222 993
223 250
223 252
223 276
223 280
223 310
223 368
223 398
223 471
223 479
223 532
223 590
223 611
223 648
223 755
223 774
223 793
223 795
223 826
223 865
223 951
223 964
224 235
224 250
224 265
224 449
224 479
224 489
224 642
224 719
224 767
224 781
224 817
224 843
224 910
225 232
225 264
225 288
225 328
225 352
225 367
225 373
225 387
225 466
225 479
225 540
225 572
225 574
225 611
225 748
225 811
225 822
225 833
225 843
225 884
225 946
225 977
226 235
226 311
226 312
226 350
226 399
226 554
226 563
226 583
226 635
226 657
226 691
226 772
226 792
226 802
226 858
226 958
226 960
226 978
226 992
227 339
227 432
227 476
227 477
227 486
227 515
227 537
227 565
227 607
227 633
227 674
227 695
227 746
227 747
227 847
227 999
228 293
228 338
228 365
228 374
228 481
228 625
228 628
228 678
228 698
228 815
228 833
229 238
229 301
229 501
229 583
229 629
229 649
229 694
229 764
229 806
229 839
229 921
229 977
230 250
230 328
230 373
230 511
230 524
230 539
230 574
230 594
230 687
230 698
230 821
231 246
231 265
231 305
231 332
231 375
231 388
231 444
231 449
231 457
231 473
231 487
231 510
231 512
231 557
231 575
231 578
231 586
231 605
231 669
231 685
231 762
231 796
231 854
231 868
231 885
232 418
232 564
232 658
232 793
232 834
232 864
232 892
232 896
232 937
232 954
233 329
233 404
233 412
233 493
233 558
233 679
233 683
233 767
233 786
233 803
233 822
233 872
233 910
233 969
234 313
234 358
234 484
234 551
234 613
234 629
234 630
234 690
234 805
234 861
235 242
235 244
235 255
235 296
235 325
235 465
235 513
235 515
235 554
235 676
235 687
235 727
235 760
235 807
235 829
235 909
235 993
236 274
236 472
236 475
236 492
236 510
236 580
236 583
236 683
236 694
236 903
237 282
237 347
237 348
237 479
237 535
237 595
237 617
237 662
237 683
237 742
237 783
238 271
238 287
238 300
238 302
238 315
238 356
238 414
238 440
238 488
238 499
238 500
238 502
238 549
238 559
238 564
238 583
238 590
238 598
238 630
238 636
238 656
238 666
238 672
238 680
238 684
238 747
238 755
238 759
238 812
238 816
238 821
238 856
238 887
238 908
238 926
238 965
238 971
238 974
238 984
238 991
239 272
239 365
239 366
239 539
239 544
239 570
239 579
239 580
239 805
239 949
239 961
239 983
239 990
240 355
240 492
240 542
240 562
240 629
240 693
240 806
240 932
240 950
241 327
241 410
241 676
241 703
241 712
241 922
242 364
242 419
242 527
242 604
242 665
242 723
242 849
242 945
243 262
243 269
243 354
243 451
243 456
243 459
243 515
243 519
243 526
243 650
243 673
243 676
243 691
243 696
243 699
243 743
243 757
243 779
243 828
243 834
243 855
243 871
243 941
243 943
243 970
243 997
244 559
244 578
244 582
244 632
244 691
244 705
244 782
244 859
244 975
244 984
245 297
245 328
245 334
245 335
245 354
245 415
245 446
245 472
245 501
245 517
245 526
245 540
245 554
245 555
245 566
245 568
245 585
245 601
245 654
245 682
245 690
245 726
245 764
245 770
245 848
245 853
245 864
245 921
245 928
245 950
245 977
246 310
246 370
246 429
246 437
246 447
246 497
246 599
246 613
246 646
246 679
246 750
246 825
246 925
246 966
246 984
247 258
247 281
247 495
247 496
247 527
247 562
247 585
247 649
247 657
247 676
247 729
247 803
247 916
247 968
248 281
248 374
248 401
248 425
248 516
248 562
248 662
248 791
248 821
248 823
248 851
248 919
248 923
248 943
249 266
249 286
249 317
249 407
249 438
249 473
249 509
249 549
249 554
249 568
249 621
249 627
249 643
249 687
249 830
249 836
249 865
249 898
249 935
249 947
249 968
250 262
250 282
250 299
250 311
250 315
250 350
250 390
250 420
250 567
250 649
250 707
250 769
250 795
250 804
250 843
250 974
250 986
251 297
251 324
251 374
251 403
251 404
251 428
251 529
251 558
251 559
251 603
251 757
251 827
251 832
251 868
252 277
252 302
252 313
252 362
252 393
252 403
252 448
252 519
252 521
252 572
252 613
252 615
252 636
252 653
252 659
252 689
252 704
252 716
252 741
252 756
252 779
252 819
252 829
252 834
252 846
252 870
252 895
252 896
252 898
252 923
252 947
252 971
252 999
253 300
253 342
253 351
253 356
253 388
253 406
253 439
253 470
253 513
253 596
253 741
253 808
253 863
253 896
253 925
254 377
254 477
254 532
254 540
254 554
254 755
254 832
254 975
255 283
255 290
255 365
255 372
255 390
255 434
255 470
255 515
255 585
255 718
255 790
255 874
255 989
256 274
256 337
256 375
256 429
256 446
256 508
256 528
256 610
256 664
256 672
256 767
256 809
256 820
256 884
256 901
256 927
256 975
257 263
257 284
257 444
257 469
257 478
257 479
257 509
257 645
257 709
257 750
257 753
257 843
257 873
257 932
257 968
258 277
258 288
258 316
258 332
258 366
258 452
258 533
258 540
258 601
258 610
258 612
258 615
258 663
258 694
258 738
258 777
258 848
258 941
258 971
259 288
259 291
259 337
259 390
259 401
259 418
259 449
259 463
259 544
259 564
259 590
259 598
259 609
259 616
259 651
259 675
259 690
259 758
259 795
259 807
259 865
259 876
259 881
259 882
259 976
260 324
260 391
260 540
260 594
260 605
260 629
260 630
260 691
260 738
260 748
260 768
260 784
260 814
261 297
261 348
261 384
261 478
261 613
261 754
261 841
261 871
261 905
262 367
262 470
262 484
262 559
262 608
262 717
262 731
262 857
262 924
262 937
263 341
263 494
263 575
263 643
263 652
263 674
263 676
263 694
263 735
263 771
263 843
263 899
263 906
263 922
263 956
263 987
264 322
264 361
264 370
264 379
264 395
264 402
264 419
264 422
264 455
264 482
264 496
264 516
264 539
264 554
264 572
264 576
264 600
264 615
264 616
264 620
264 631
264 646
264 690
264 693
264 715
264 742
264 761
264 804
264 848
264 856
264 932
264 977
264 978
264 982
264 987
265 281
265 311
265 345
265 363
265 365
265 427
265 428
265 462
265 558
265 564
265 763
265 770
265 773
265 797
265 804
265 833
265 896
265 950
266 311
266 316
266 333
266 338
266 493
266 571
266 581
266 585
266 601
266 657
266 676
266 688
266 746
266 766
267 296
267 567
267 617
267 627
267 651
267 755
267 756
267 773
267 803
267 868
268 334
268 354
268 375
268 423
268 457
268 459
268 534
268 540
268 697
268 716
268 717
268 733
268 859
268 867
268 892
268 940
268 954
268 985
269 404
269 446
269 676
269 764
269 784
269 790
269 842
269 941
269 970
269 979
269 992
270 274
270 335
270 396
270 445
270 468
270 498
270 536
270 603
270 624
270 625
270 629
270 675
270 691
270 776
270 806
270 845
270 940
271 361
271 377
271 612
271 644
271 661
271 728
271 757
271 833
271 850
271 942
271 974
271 976
272 319
272 466
272 486
272 565
272 650
272 712
272 746
272 764
272 790
272 830
272 840
272 860
272 907
272 917
273 357
273 428
273 448
273 458
273 488
273 506
273 527
273 578
273 621
273 650
273 683
273 694
273 701
273 775
273 850
273 930
274 282
274 303
274 304
274 313
274 314
274 318
274 332
274 333
274 382
274 395
274 406
274 421
274 518
274 520
274 532
274 545
274 549
274 552
274 553
274 554
274 677
274 706
274 721
274 791
274 802
274 808
274 815
274 818
274 828
274 830
274 877
274 893
274 917
274 929
274 950
274 963
275 289
275 335
275 404
275 430
275 481
275 484
275 608
275 729
275 821
275 828
275 903
275 931
275 953
276 334
276 416
276 471
276 528
276 580
276 665
276 673
276 680
276 683
276 702
276 727
276 755
276 767
276 776
276 864
276 919
276 933
276 980
276 999
277 317
277 408
277 444
277 470
277 490
277 491
277 502
277 521
277 615
277 629
277 672
277 682
277 696
277 784
277 803
277 824
277 854
277 872
277 891
277 906
277 907
277 914
277 989
278 307
278 419
278 438
278 454
278 486
278 559
278 591
278 688
278 766
278 864
278 908
279 288
279 292
279 319
279 354
279 355
279 405
279 452
279 597
279 699
279 726
279 764
279 773
279 793
279 816
279 819
279 829
279 886
279 913
279 923
279 941
279 960
280 352
280 455
280 506
280 576
280 736
280 761
280 836
280 966
280 972
281 282
281 284
281 287
281 288
281 300
281 308
281 311
281 315
281 327
281 337
281 350
281 388
281 390
281 396
281 482
281 489
281 496
281 520
281 571
281 582
281 605
281 627
281 679
281 712
281 753
281 774
281 782
281 793
281 861
281 897
281 905
281 951
281 954
281 959
281 961
282 448
282 455
282 459
282 480
282 530
282 580
282 598
282 762
282 975
282 983
283 288
283 359
283 360
283 488
283 593
283 626
283 651
283 652
283 703
283 724
283 725
283 735
283 776
283 799
283 804
283 973
284 401
284 473
284 513
284 568
284 582
284 591
284 747
284 753
284 812
284 840
284 852
284 901
284 910
284 957
285 365
285 500
285 510
285 567
285 612
285 664
285 772
285 807
285 808
285 881
285 896
285 990
286 414
286 457
286 476
286 505
286 624
286 757
286 765
286 816
286 819
286 970
287 301
287 303
287 343
287 366
287 413
287 414
287 429
287 465
287 477
287 499
287 526
287 536
287 568
287 624
287 675
287 704
287 862
287 870
287 872
287 884
287 907
287 919
287 934
287 993
287 995
288 292
288 294
288 299
288 311
288 322
288 353
288 361
288 362
288 371
288 388
288 404
288 410
288 432
288 433
288 445
288 463
288 481
288 499
288 506
288 516
288 564
288 572
288 576
288 646
288 665
288 671
288 678
288 773
288 776
288 819
288 833
288 846
288 869
288 889
288 894
288 904
288 930
288 974
288 987
288 988
288 994
288 999
289 323
289 375
289 378
289 431
289 434
289 566
289 574
289 629
289 639
289 674
289 749
289 753
289 774
289 888
289 955
290 298
290 330
290 336
290 414
290 460
290 489
290 497
290 538
290 584
290 612
290 620
290 761
290 843
290 903
290 919
291 299
291 308
291 311
291 314
291 327
291 334
291 335
291 350
291 362
291 417
291 418
291 473
291 489
291 498
291 529
291 532
291 559
291 580
291 589
291 597
291 623
291 705
291 820
291 840
291 862
291 923
291 961
291 963
291 981
291 985
292 311
292 534
292 580
292 585
292 592
292 617
292 630
292 631
292 661
292 730
292 800
292 810
292 834
292 880
293 310
293 329
293 381
293 396
293 463
293 484
293 551
293 850
293 965
293 971
294 307
294 364
294 388
294 567
294 585
294 603
294 676
294 731
294 762
294 769
294 911
294 922
294 950
295 374
295 390
295 425
295 452
295 474
295 491
295 510
295 533
295 534
295 790
295 807
296 404
296 410
296 485
296 596
296 683
296 718
296 749
296 753
296 768
296 916
297 306
297 357
297 388
297 390
297 411
297 552
297 588
297 629
297 679
297 703
297 773
297 864
297 880
297 901
297 947
297 949
297 954
298 300
298 352
298 369
298 390
298 486
298 603
298 620
298 745
298 746
298 761
298 819
298 910
298 922
298 984
299 311
299 337
299 387
299 389
299 418
299 478
299 504
299 513
299 567
299 587
299 593
299 807
299 843
299 851
299 862
299 987
299 997
300 337
300 353
300 360
300 367
300 432
300 790
300 906
300 919
300 977
301 308
301 314
301 330
301 332
301 339
301 341
301 348
301 357
301 361
301 366
301 384
301 407
301 408
301 410
301 431
301 447
301 451
301 452
301 486
301 504
301 518
301 524
301 530
301 535
301 568
301 578
301 590
301 602
301 607
301 682
301 714
301 730
301 748
301 753
301 754
301 758
301 815
301 825
301 828
301 832
301 852
301 854
301 860
301 863
301 872
301 880
301 881
301 907
301 937
301 945
301 983
301 986
301 990
301 993
302 335
302 362
302 368
302 463
302 484
302 660
302 694
302 752
302 849
302 893
302 931
302 940
302 979
303 340
303 343
303 462
303 469
303 477
303 478
303 539
303 553
303 571
303 578
303 659
303 771
303 863
303 905
303 919
303 934
303 938
304 306
304 319
304 322
304 355
304 379
304 501
304 552
304 615
304 636
304 717
304 754
304 773
304 851
304 879
304 886
304 923
304 951
305 310
305 324
305 400
305 567
305 587
305 635
305 651
305 665
305 736
305 946
306 312
306 355
306 373
306 390
306 398
306 456
306 482
306 514
306 577
306 629
306 675
306 699
306 773
306 801
306 838
306 847
306 860
306 948
306 979
307 440
307 504
307 548
307 630
307 777
307 904
307 932
307 936
307 994
308 494
308 520
308 564
308 568
308 718
308 737
308 755
308 780
308 792
308 807
308 832
308 848
308 941
309 360
309 422
309 460
309 490
309 581
309 750
309 807
309 832
309 848
309 903
309 912
309 938
309 953
309 956
309 963
310 375
310 390
310 490
310 500
310 510
310 747
310 751
310 761
310 774
310 807
310 825
310 840
310 883
310 916
310 924
310 943
310 978
311 323
311 344
311 374
311 390
311 393
311 435
311 455
311 456
311 480
311 491
311 530
311 546
311 580
311 623
311 630
311 637
311 639
311 742
311 762
311 782
311 798
311 811
311 813
311 825
311 865
311 917
311 918
311 920
311 940
311 951
312 333
312 375
312 382
312 401
312 422
312 482
312 554
312 579
312 603
312 635
312 665
312 750
312 820
312 962
313 379
313 445
313 496
313 518
313 574
313 590
313 615
313 663
313 676
313 722
313 777
313 797
313 808
313 837
313 908
313 977
314 315
314 350
314 374
314 519
314 588
314 592
314 658
314 664
314 665
314 747
314 757
314 820
314 892
314 908
314 917
314 984
314 985
314 986
315 348
315 366
315 421
315 426
315 447
315 527
315 637
315 643
315 750
315 755
315 797
315 809
315 854
315 878
315 889
315 942
315 946
315 972
316 325
316 349
316 439
316 469
316 470
316 475
316 527
316 612
316 635
316 834
316 846
316 938
316 980
316 983
317 408
317 413
317 502
317 589
317 638
317 721
317 726
317 734
317 735
317 771
317 791
317 842
317 867
317 907
317 971
317 977
317 990
318 334
318 374
318 394
318 624
318 674
318 689
318 830
318 881
318 914
319 333
319 410
319 419
319 463
319 501
319 537
319 545
319 550
319 577
319 598
319 765
319 766
319 819
319 872
319 896
319 938
319 944
320 410
320 616
320 630
320 639
320 675
320 764
320 820
320 873
320 901
320 929
320 941
320 965
321 367
321 381
321 407
321 491
321 572
321 600
321 621
321 624
321 634
321 651
321 692
321 771
321 777
321 796
321 804
321 954
322 349
322 383
322 387
322 388
322 406
322 595
322 797
322 800
322 829
322 851
322 952
323 412
323 461
323 584
323 821
323 877
323 884
323 919
323 952
323 964
323 976
323 994
324 340
324 375
324 380
324 385
324 420
324 545
324 639
324 705
324 753
324 841
324 863
324 965
325 331
325 348
325 467
325 592
325 652
325 725
325 764
325 774
325 996
325 999
326 373
326 386
326 488
326 518
326 567
326 581
326 651
326 673
326 731
326 807
327 374
327 385
327 394
327 417
327 482
327 564
327 574
327 596
327 665
327 671
327 766
327 786
327 841
328 363
328 374
328 395
328 406
328 551
328 570
328 717
328 766
328 845
328 876
328 884
329 372
329 459
329 478
329 486
329 507
329 581
329 615
329 708
329 750
329 833
329 923
330 335
330 347
330 349
330 405
330 407
330 444
330 493
330 518
330 539
330 549
330 637
330 668
330 716
330 773
330 802
330 813
330 861
330 872
330 962
330 994
331 345
331 354
331 372
331 428
331 452
331 472
331 484
331 499
331 518
331 531
331 753
331 766
331 789
331 825
331 850
331 864
331 875
331 903
331 920
331 935
331 977
332 366
332 540
332 554
332 569
332 572
332 693
332 801
332 844
332 899
332 997
333 340
333 409
333 448
333 476
333 482
333 510
333 638
333 694
333 735
333 756
333 790
333 805
333 835
333 970
334 345
334 359
334 374
334 418
334 429
334 432
334 438
334 469
334 473
334 485
334 499
334 504
334 530
334 536
334 567
334 580
334 589
334 600
334 607
334 611
334 619
334 631
334 665
334 691
334 739
334 749
334 750
334 756
334 763
334 797
334 902
334 927
334 928
334 966
334 986
334 994
334 995
335 345
335 387
335 403
335 437
335 489
335 494
335 512
335 525
335 535
335 540
335 558
335 564
335 594
335 626
335 654
335 689
335 695
335 784
335 792
335 807
335 820
335 831
335 861
335 945
336 456
336 488
336 633
336 697
336 709
336 733
336 763
336 823
336 908
336 948
336 953
336 965
336 974
337 351
337 380
337 401
337 427
337 433
337 445
337 459
337 482
337 487
337 649
337 714
337 854
337 869
337 881
337 888
337 947
337 997
338 428
338 484
338 570
338 658
338 690
338 705
338 752
338 764
338 844
338 866
338 936
339 379
339 392
339 419
339 423
339 430
339 445
339 459
339 683
339 747
339 771
339 817
339 850
339 876
339 921
340 374
340 493
340 574
340 601
340 854
340 939
340 955
341 352
341 360
341 363
341 408
341 454
341 485
341 492
341 500
341 501
341 518
341 567
341 615
341 661
341 789
341 895
341 936
341 966
341 974
341 988
342 443
342 471
342 478
342 559
342 566
342 568
342 694
342 698
342 756
342 800
342 817
342 821
342 842
342 948
342 953
343 356
343 361
343 368
343 372
343 385
343 406
343 431
343 438
343 477
343 505
343 523
343 532
343 534
343 587
343 610
343 683
343 815
343 822
343 882
343 887
343 889
344 366
344 386
344 421
344 437
344 463
344 478
344 546
344 549
344 728
344 749
344 807
344 866
345 371
345 459
345 467
345 632
345 639
345 676
345 683
345 750
345 795
345 811
345 834
345 836
345 907
346 373
346 401
346 438
346 504
346 609
346 676
346 719
346 771
346 907
346 990
347 351
347 379
347 381
347 416
347 429
347 439
347 456
347 471
347 510
347 519
347 567
347 584
347 600
347 620
347 652
347 661
347 669
347 688
347 713
347 720
347 734
347 745
347 783
347 832
347 840
347 850
347 856
347 886
347 891
347 897
347 924
347 941
347 968
348 358
348 377
348 390
348 401
348 414
348 447
348 453
348 461
348 472
348 478
348 534
348 553
348 615
348 648
348 678
348 683
348 791
348 809
348 819
348 822
348 828
348 829
348 871
348 884
348 907
348 935
348 947
348 989
348 999
349 381
349 426
349 439
349 516
349 527
349 548
349 567
349 651
349 666
349 802
349 833
349 896
349 943
349 983
349 997
350 353
350 398
350 409
350 436
350 482
350 490
350 511
350 518
350 522
350 558
350 665
350 784
350 840
350 856
350 865
350 867
350 907
350 927
350 951
350 952
350 961
351 366
351 428
351 567
351 721
351 741
351 742
351 844
351 887
352 389
352 429
352 546
352 553
352 564
352 587
352 680
352 721
352 820
352 877
352 908
352 914
352 957
352 977
352 986
353 374
353 425
353 429
353 471
353 489
353 490
353 500
353 519
353 542
353 545
353 558
353 567
353 573
353 579
353 616
353 623
353 661
353 771
353 773
353 819
353 843
353 895
353 901
353 922
353 936
353 987
353 997
354 374
354 385
354 432
354 469
354 478
354 567
354 597
354 627
354 650
354 663
354 668
354 679
354 714
354 747
354 777
354 930
354 996
355 373
355 406
355 411
355 472
355 507
355 552
355 566
355 577
355 584
355 586
355 614
355 633
355 665
355 697
355 710
355 799
355 808
355 830
355 832
355 838
355 841
355 842
355 851
355 884
355 930
355 941
355 945
355 964
355 970
355 976
356 391
356 428
356 513
356 747
356 777
356 796
356 872
356 949
356 968
357 365
357 404
357 615
357 624
357 644
357 697
357 762
357 796
357 815
357 836
357 865
357 866
357 935
357 983
358 391
358 594
358 616
358 661
358 688
358 748
358 774
358 789
358 880
358 904
358 968
359 391
359 442
359 519
359 559
359 608
359 649
359 754
359 781
359 836
359 866
359 910
360 384
360 387
360 398
360 403
360 472
360 481
360 499
360 506
360 533
360 543
360 566
360 591
360 602
360 617
360 690
360 739
360 763
360 783
360 864
360 878
360 977
361 364
361 438
361 478
361 534
361 579
361 767
361 801
361 830
361 854
361 897
361 958
361 986
361 993
361 997
362 374
362 513
362 566
362 580
362 764
362 926
362 995
363 372
363 462
363 490
363 545
363 598
363 629
363 694
363 717
363 833
363 864
363 929
363 953
363 962
364 367
364 377
364 406
364 412
364 424
364 445
364 475
364 478
364 507
364 518
364 521
364 530
364 535
364 573
364 640
364 665
364 777
364 813
364 844
364 869
364 894
364 924
364 947
364 967
364 968
365 414
365 428
365 474
365 478
365 489
365 549
365 782
365 805
365 892
365 914
365 929
365 942
366 452
366 528
366 534
366 536
366 587
366 615
366 624
366 638
366 683
366 794
366 854
366 869
366 881
366 910
366 940
366 942
366 968
366 977
366 998
367 373
367 405
367 443
367 450
367 519
367 540
367 548
367 603
367 632
367 671
367 689
367 710
367 757
367 759
367 805
367 882
367 893
367 901
367 928
367 938
367 977
368 460
368 493
368 568
368 569
368 635
368 734
368 911
368 951
368 952
368 984
369 632
369 681
369 766
369 774
369 801
369 929
369 981
370 459
370 460
370 490
370 582
370 590
370 657
370 712
370 719
370 731
370 747
370 784
370 791
370 828
370 885
370 892
370 922
370 931
370 939
371 504
371 717
371 813
371 843
371 928
371 936
371 959
372 374
372 425
372 442
372 467
372 484
372 488
372 516
372 539
372 611
372 612
372 622
372 632
372 637
372 658
372 682
372 705
372 748
372 754
372 779
372 781
372 797
372 837
372 901
372 932
372 980
373 404
373 413
373 471
373 483
373 545
373 552
373 557
373 558
373 603
373 619
373 659
373 670
373 706
373 725
373 765
373 766
373 819
373 863
373 909
373 943
374 411
374 445
374 451
374 466
374 470
374 492
374 508
374 510
374 513
374 518
374 521
374 522
374 527
374 528
374 551
374 559
374 599
374 604
374 605
374 624
374 639
374 664
374 671
374 704
374 715
374 740
374 754
374 755
374 764
374 771
374 777
374 787
374 823
374 874
374 879
374 891
374 894
374 899
374 923
374 925
374 938
374 944
374 946
374 983
374 991
374 994
374 999
375 394
375 463
375 524
375 525
375 549
375 561
375 582
375 586
375 613
375 657
375 694
375 718
375 740
375 782
375 796
375 819
375 907
375 923
375 966
376 390
376 580
376 585
376 676
376 679
376 703
376 717
376 719
376 914
376 965
377 443
377 540
377 629
377 761
377 936
377 947
378 455
378 474
378 522
378 550
378 558
378 635
378 742
378 753
378 782
378 796
378 804
378 890
378 951
378 995
379 494
379 510
379 567
379 591
379 596
379 597
379 617
379 626
379 644
379 716
379 754
379 757
379 770
379 825
379 889
379 896
379 998
380 401
380 459
380 470
380 482
380 514
380 518
380 565
380 679
380 753
380 768
380 807
380 843
380 848
380 898
380 924
381 383
381 471
381 478
381 510
381 634
381 665
381 926
381 927
381 977
381 982
381 987
381 992
382 583
382 665
382 704
382 744
382 830
382 840
382 925
382 949
383 459
383 530
383 565
383 650
383 683
383 695
383 708
383 752
383 868
383 892
383 900
383 956
384 473
384 481
384 488
384 506
384 520
384 527
384 529
384 539
384 578
384 597
384 609
384 612
384 617
384 620
384 628
384 650
384 666
384 679
384 691
384 709
384 723
384 745
384 753
384 852
384 878
384 919
384 933
384 977
385 448
385 459
385 471
385 496
385 518
385 524
385 534
385 553
385 567
385 571
385 604
385 609
385 651
385 655
385 661
385 726
385 814
385 873
385 884
385 894
385 966
385 982
385 987
385 990
386 474
386 536
386 774
386 807
386 824
386 847
386 850
386 863
386 896
387 407
387 410
387 453
387 477
387 522
387 527
387 540
387 579
387 606
387 659
387 757
387 786
388 401
388 403
388 453
388 561
388 574
388 580
388 603
388 632
388 637
388 651
388 676
388 795
388 855
388 867
388 891
389 484
389 520
389 541
389 547
389 574
389 631
389 762
389 800
389 804
389 847
389 854
389 889
389 937
389 939
389 984
390 394
390 396
390 399
390 401
390 403
390 405
390 457
390 482
390 508
390 517
390 520
390 533
390 543
390 579
390 606
390 681
390 715
390 744
390 753
390 769
390 782
390 855
390 861
390 862
390 882
390 901
390 951
390 961
390 966
390 968
390 977
390 981
391 431
391 478
391 494
391 502
391 534
391 555
391 568
391 590
391 624
391 714
391 717
391 721
391 753
391 786
391 809
391 864
391 869
391 883
391 954
391 959
391 964
391 998
392 421
392 462
392 471
392 534
392 535
392 551
392 558
392 567
392 604
392 622
392 660
392 669
392 765
392 892
393 449
393 482
393 488
393 518
393 554
393 602
393 682
393 698
393 749
393 821
393 840
393 875
393 897
393 904
393 951
393 960
393 974
394 395
394 427
394 428
394 534
394 580
394 927
394 958
394 972
395 412
395 440
395 444
395 477
395 478
395 484
395 506
395 521
395 530
395 539
395 644
395 682
395 688
395 830
395 888
395 968
396 398
396 417
396 424
396 432
396 522
396 534
396 570
396 604
396 617
396 626
396 755
396 776
396 789
396 796
396 835
396 879
396 938
397 425
397 435
397 477
397 488
397 510
397 548
397 550
397 559
397 570
397 634
397 648
397 687
397 692
397 698
397 722
397 738
397 750
397 822
397 825
397 878
397 890
397 914
398 422
398 429
398 430
398 432
398 449
398 456
398 462
398 489
398 504
398 534
398 641
398 721
398 759
398 779
398 782
398 791
398 792
398 795
398 796
398 843
398 868
398 917
398 922
398 947
398 957
399 401
399 421
399 424
399 500
399 590
399 607
399 617
399 624
399 629
399 633
399 659
399 666
399 686
399 693
399 694
399 717
399 726
399 745
399 754
399 847
399 859
399 889
399 908
399 971
399 977
400 425
400 465
400 473
400 547
400 567
400 605
400 646
400 970
400 974
401 416
401 432
401 458
401 474
401 477
401 514
401 526
401 550
401 553
401 561
401 596
401 618
401 679
401 695
401 723
401 737
401 740
401 747
401 762
401 768
401 776
401 838
401 839
401 843
401 862
401 865
401 926
401 946
401 951
401 952
402 565
402 572
402 580
402 599
402 676
402 681
402 803
402 833
402 917
402 922
402 989
403 417
403 438
403 440
403 446
403 452
403 472
403 561
403 585
403 600
403 647
403 686
403 707
403 737
403 792
403 831
403 855
403 857
403 874
403 921
403 985
403 989
403 997
404 408
404 436
404 488
404 516
404 528
404 595
404 632
404 679
404 746
404 813
404 828
404 884
404 921
404 941
404 994
405 409
405 478
405 553
405 615
405 635
405 722
405 731
405 785
405 821
405 854
405 877
406 407
406 410
406 445
406 518
406 530
406 587
406 661
406 717
406 764
406 830
406 947
406 959
406 998
407 425
407 429
407 441
407 466
407 527
407 534
407 550
407 553
407 589
407 744
407 763
407 775
407 809
407 824
407 863
407 907
407 918
407 922
407 924
407 961
407 996
408 413
408 415
408 435
408 459
408 489
408 499
408 521
408 560
408 572
408 594
408 650
408 662
408 681
408 695
408 712
408 727
408 752
408 789
408 801
408 917
408 941
408 962
409 431
409 599
409 629
409 799
409 840
409 843
409 912
409 953
410 491
410 498
410 534
410 542
410 552
410 554
410 578
410 805
410 809
410 845
410 907
410 964
410 993
411 426
411 482
411 517
411 552
411 777
411 780
411 819
411 830
412 427
412 430
412 465
412 470
412 478
412 543
412 563
412 698
412 704
412 705
412 714
412 751
412 808
412 809
412 824
412 844
412 851
412 902
412 973
413 457
413 478
413 490
413 543
413 559
413 568
413 600
413 601
413 665
413 773
413 845
413 872
413 928
413 998
414 508
414 520
414 530
414 544
414 615
414 652
414 658
414 678
414 696
414 756
414 893
414 941
414 947
415 418
415 493
415 522
415 549
415 595
415 754
415 762
415 796
415 804
415 826
415 987
416 423
416 430
416 433
416 440
416 451
416 471
416 477
416 553
416 647
416 717
416 748
416 752
416 765
416 833
416 859
416 860
416 896
416 902
416 907
416 972
416 987
417 450
417 547
417 552
417 581
417 602
417 626
417 680
417 722
417 774
417 802
417 901
417 952
418 444
418 446
418 464
418 480
418 545
418 684
418 707
418 753
418 796
418 834
418 845
418 851
418 871
418 916
418 931
418 952
419 517
419 542
419 694
419 907
419 947
420 471
420 476
420 498
420 643
420 709
420 724
420 729
420 741
420 753
420 764
420 770
420 804
420 843
420 845
420 906
420 953
421 518
421 579
421 664
421 676
421 804
421 863
422 534
422 580
422 610
422 630
422 689
422 692
422 715
422 817
422 845
422 859
422 861
422 876
422 897
422 930
422 953
422 960
422 965
423 487
423 510
423 513
423 518
423 536
423 556
423 615
423 616
423 681
423 717
423 726
423 735
423 760
423 844
423 884
423 959
424 506
424 511
424 516
424 558
424 771
424 793
424 938
425 433
425 440
425 450
425 466
425 528
425 534
425 542
425 555
425 725
425 752
425 772
425 857
425 897
425 916
425 934
425 941
425 950
425 973
426 440
426 471
426 509
426 562
426 596
426 661
426 799
426 858
426 879
426 908
426 937
427 537
427 553
427 561
427 572
427 607
427 616
427 651
427 663
427 687
427 761
427 777
427 798
427 865
427 873
427 981
427 987
428 431
428 450
428 455
428 462
428 478
428 497
428 572
428 592
428 639
428 657
428 679
428 783
428 933
428 977
429 437
429 471
429 722
429 753
429 804
429 824
429 937
429 939
430 443
430 456
430 484
430 532
430 561
430 565
430 595
430 639
430 669
430 683
430 740
430 780
430 824
430 873
430 939
430 997
431 455
431 521
431 590
431 693
431 760
431 773
431 832
431 974
431 997
432 437
432 533
432 596
432 710
432 722
432 875
432 959
433 445
433 547
433 567
433 670
433 746
433 807
433 834
433 843
433 858
433 896
433 926
434 473
434 480
434 491
434 538
434 629
434 892
434 949
434 981
435 471
435 473
435 513
435 597
435 713
435 722
435 751
435 765
435 838
435 843
435 869
436 494
436 571
436 688
436 728
436 786
436 789
436 795
436 878
436 893
436 901
436 902
436 959
436 995
437 600
437 608
437 615
437 616
437 622
437 682
437 781
437 872
437 896
437 984
438 509
438 522
438 536
438 554
438 573
438 586
438 607
438 609
438 611
438 648
438 671
438 690
438 778
438 789
438 802
438 830
438 838
438 929
438 934
438 945
438 971
438 978
438 989
438 995
439 456
439 578
439 619
439 626
439 665
439 779
439 863
439 977
440 459
440 460
440 559
440 568
440 629
440 651
440 703
440 723
440 832
440 904
440 970
440 993
440 994
441 492
441 639
441 646
441 683
441 709
441 710
441 826
441 843
441 872
441 892
441 922
442 457
442 462
442 484
442 622
442 683
442 816
442 868
442 949
443 453
443 487
443 546
443 589
443 621
443 624
443 628
443 630
443 635
443 737
443 813
443 849
443 871
443 895
443 939
443 960
443 965
444 469
444 475
444 516
444 522
444 536
444 550
444 568
444 576
444 627
444 651
444 653
444 664
444 780
444 781
444 800
444 804
444 828
444 844
444 863
444 869
444 885
444 911
444 937
444 947
444 966
444 993
445 484
445 490
445 536
445 540
445 734
445 792
445 958
445 977
446 586
446 602
446 603
446 634
446 742
446 804
446 836
446 843
446 899
446 940
447 478
447 490
447 534
447 624
447 630
447 735
447 804
447 818
447 882
447 986
448 483
448 591
448 643
448 701
448 879
448 882
448 895
448 901
448 941
449 490
449 514
449 628
449 644
449 713
449 875
449 902
449 958
449 968
449 970
450 490
450 535
450 582
450 630
450 686
450 816
451 534
451 600
451 615
451 769
451 801
451 854
451 861
451 862
451 944
451 957
451 959
452 542
452 594
452 630
452 672
452 676
452 680
452 852
452 947
452 992
453 459
453 624
453 683
453 783
453 877
453 924
453 953
453 954
454 518
454 553
454 561
454 590
454 595
454 664
454 789
454 820
454 823
454 835
454 871
454 879
454 889
455 464
455 466
455 506
455 522
455 596
455 605
455 607
455 641
455 646
455 659
455 692
455 709
455 719
455 737
455 740
455 742
455 760
455 805
455 810
455 825
455 835
455 876
455 882
455 937
455 941
455 957
456 500
456 571
456 620
456 634
456 658
456 661
456 746
456 753
456 763
456 818
456 821
456 829
456 839
456 881
456 970
457 459
457 471
457 475
457 560
457 625
457 635
457 639
457 667
457 674
457 687
457 719
457 728
457 751
457 753
457 764
457 778
457 829
457 850
457 892
457 915
457 945
457 964
457 967
458 490
458 596
458 624
458 659
458 747
458 805
458 809
458 843
458 901
458 977
459 467
459 468
459 501
459 531
459 587
459 588
459 625
459 634
459 639
459 674
459 683
459 700
459 725
459 734
459 751
459 760
459 767
459 813
459 872
459 892
459 922
459 963
459 964
460 496
460 572
460 586
460 608
460 663
460 692
460 727
460 757
460 780
460 810
460 818
460 953
460 960
460 969
461 491
461 583
461 617
461 698
461 860
461 902
461 940
461 941
461 982
462 497
462 518
462 581
462 585
462 596
462 612
462 629
462 638
462 719
462 747
462 781
462 805
462 812
462 879
462 897
462 936
462 937
462 953
462 994
463 495
463 572
463 580
463 601
463 640
463 752
463 764
463 842
463 868
463 873
463 896
463 904
463 923
463 932
463 968
463 991
464 492
464 548
464 556
464 612
464 696
464 742
464 774
464 814
464 837
464 860
464 922
465 478
465 518
465 534
465 592
465 664
465 666
465 742
465 744
465 746
465 785
465 802
465 806
465 884
465 942
465 947
465 971
466 599
466 613
466 626
466 637
466 654
466 678
466 685
466 791
466 796
466 810
466 874
466 953
466 960
467 615
467 633
467 639
467 833
467 847
467 878
467 983
468 479
468 484
468 516
468 541
468 551
468 577
468 642
468 672
468 683
468 762
468 773
468 794
468 820
468 910
468 990
468 991
469 503
469 520
469 558
469 655
469 662
469 675
469 676
469 743
469 745
469 880
469 900
469 956
470 477
470 479
470 502
470 635
470 693
470 764
470 845
470 929
470 938
471 472
471 477
471 495
471 500
471 510
471 515
471 519
471 542
471 545
471 590
471 649
471 670
471 682
471 690
471 702
471 706
471 725
471 752
471 757
471 776
471 783
471 826
471 851
471 860
471 879
471 891
471 896
471 906
471 908
471 919
471 924
471 928
471 941
471 951
471 955
471 970
471 977
471 997
472 525
472 600
472 676
472 694
472 824
472 867
472 941
472 987
472 997
473 486
473 487
473 509
473 522
473 527
473 558
473 578
473 582
473 595
473 646
473 648
473 676
473 679
473 726
473 733
473 734
473 841
473 848
473 869
473 923
473 936
474 486
474 509
474 538
474 608
474 661
474 748
474 776
474 796
474 821
474 888
474 896
474 930
474 931
474 950
474 969
475 489
475 733
475 736
475 843
476 506
476 664
476 693
476 745
476 747
476 757
476 840
476 867
476 878
476 977
477 478
477 518
477 521
477 540
477 550
477 624
477 653
477 659
477 662
477 669
477 695
477 714
477 721
477 735
477 742
477 799
477 802
477 804
477 815
477 829
477 867
477 869
477 886
477 898
477 980
477 990
478 491
478 498
478 500
478 512
478 517
478 530
478 531
478 554
478 674
478 690
478 694
478 796
478 797
478 809
478 815
478 818
478 828
478 829
478 877
478 883
478 884
478 888
478 914
478 938
478 947
478 957
478 991
478 996
479 534
479 544
479 624
479 630
479 668
479 763
479 781
479 793
479 828
479 840
479 857
479 900
479 916
479 987
480 489
480 552
480 624
480 649
480 679
480 810
480 843
480 859
480 900
481 495
481 541
481 595
481 612
481 655
481 791
481 878
481 908
481 918
481 950
481 956
481 960
481 977
482 561
482 621
482 649
482 686
482 716
482 734
482 800
482 845
482 847
482 871
482 930
482 951
482 968
482 974
483 518
483 588
483 595
483 716
483 786
483 804
483 864
483 919
483 984
484 513
484 550
484 563
484 568
484 578
484 587
484 600
484 601
484 620
484 624
484 630
484 699
484 717
484 719
484 739
484 768
484 791
484 829
484 844
484 923
484 969
485 511
485 523
485 629
485 696
485 756
485 936
485 940
485 957
486 523
486 558
486 627
486 629
486 679
486 705
486 716
486 814
486 845
486 907
486 924
486 953
487 507
487 516
487 554
487 560
487 663
487 669
487 679
487 719
487 980
488 599
488 620
488 709
488 745
488 776
488 823
488 864
488 955
488 957
488 977
489 572
489 608
489 665
489 688
489 691
489 735
489 752
489 843
489 891
489 898
489 902
489 973
490 491
490 537
490 542
490 550
490 551
490 556
490 586
490 593
490 595
490 596
490 637
490 643
490 671
490 683
490 714
490 721
490 779
490 804
490 810
490 827
490 904
490 907
490 912
490 999
491 566
491 705
491 802
491 885
491 889
491 933
492 520
492 552
492 616
492 655
492 704
492 874
492 888
492 902
492 915
492 940
492 949
492 953
492 961
493 561
493 603
493 656
493 696
493 857
493 916
493 922
493 936
493 991
493 998
494 499
494 538
494 610
494 620
494 624
494 650
494 656
494 684
494 701
494 742
494 766
494 800
494 832
494 875
494 888
494 906
494 934
495 624
495 868
495 873
495 941
495 951
496 596
496 661
496 706
496 772
496 804
496 866
496 918
496 928
496 976
497 604
497 619
497 767
497 780
497 821
497 845
497 868
497 887
497 913
497 954
498 578
498 660
498 845
498 954
498 985
499 565
499 567
499 619
499 665
499 741
499 753
499 821
499 861
500 513
500 621
500 746
500 776
500 844
500 848
500 922
500 935
501 512
501 521
501 567
501 572
501 650
501 680
501 694
501 703
501 709
501 773
501 841
501 949
501 960
501 965
502 530
502 550
502 555
502 566
502 661
502 663
502 747
502 777
502 803
502 807
502 830
502 848
503 514
503 518
503 545
503 710
503 751
503 936
503 940
504 525
504 579
504 597
504 622
504 630
504 651
504 709
504 732
504 753
504 762
504 796
504 876
504 935
504 957
504 959
505 532
505 609
505 629
505 694
505 818
505 833
505 895
505 940
505 951
506 510
506 518
506 540
506 563
506 568
506 597
506 609
506 624
506 636
506 639
506 662
506 753
506 773
506 776
506 779
506 784
506 796
506 843
506 845
506 878
506 894
506 895
506 913
506 919
506 953
506 967
506 977
506 981
507 554
507 651
507 675
507 863
507 865
507 876
507 892
507 898
507 907
507 934
508 607
508 612
508 613
508 617
508 639
508 676
508 690
508 795
508 820
509 640
509 681
509 685
509 693
509 751
509 795
509 818
509 824
509 830
509 831
509 886
509 889
509 900
509 943
510 567
510 573
510 600
510 618
510 665
510 713
510 717
510 778
510 868
510 896
510 966
511 634
511 783
511 787
511 947
511 981
512 615
512 663
512 814
512 834
512 845
512 898
512 918
512 954
513 515
513 531
513 533
513 539
513 548
513 621
513 690
513 769
513 811
513 812
513 827
513 925
513 949
513 989
514 534
514 552
514 566
514 598
514 601
514 619
514 631
514 707
514 720
514 818
514 819
514 838
514 839
514 912
515 566
515 666
515 717
515 776
515 790
515 801
515 835
515 941
515 994
516 559
516 585
516 710
516 750
516 777
516 871
517 567
517 628
517 637
517 701
517 705
517 749
517 783
517 859
517 863
517 906
517 907
517 980
518 530
518 535
518 536
518 549
518 583
518 590
518 609
518 637
518 645
518 667
518 680
518 727
518 740
518 753
518 755
518 791
518 803
518 815
518 823
518 829
518 841
518 849
518 858
518 861
518 863
518 872
518 885
518 886
518 890
518 910
518 921
518 929
518 934
518 944
518 949
518 968
518 985
518 986
518 993
518 995
518 998
519 570
519 664
519 669
519 691
519 719
519 743
519 755
519 800
519 833
519 836
519 968
519 979
520 550
520 576
520 622
520 651
520 662
520 678
520 681
520 686
520 702
520 785
520 786
520 800
520 802
520 804
520 813
520 879
521 523
521 537
521 787
521 821
521 830
521 869
521 877
521 901
522 531
522 573
522 720
522 722
522 743
522 762
522 782
522 835
522 885
522 888
522 926
522 951
522 957
522 965
522 979
523 534
523 561
523 645
523 665
523 713
523 764
523 794
523 831
523 936
523 937
523 987
524 527
524 567
524 653
524 671
524 686
524 843
524 880
524 926
525 558
525 573
525 629
525 821
525 874
525 966
525 978
526 568
526 635
526 665
526 755
526 791
526 833
526 851
526 979
527 568
527 570
527 578
527 582
527 599
527 608
527 648
527 650
527 656
527 660
527 678
527 719
527 756
527 804
527 832
527 834
527 856
527 876
527 880
527 885
527 898
527 904
527 999
528 542
528 557
528 566
528 583
528 736
528 758
528 815
528 881
528 882
528 892
528 920
528 977
529 603
529 629
529 630
529 719
529 742
529 759
529 768
529 848
529 901
530 536
530 554
530 568
530 617
530 765
530 802
530 828
530 851
530 858
530 937
531 567
531 685
531 706
531 743
531 747
531 833
531 845
531 863
531 900
531 960
532 567
532 678
532 696
532 698
532 741
532 753
532 790
532 844
532 845
532 857
532 917
532 936
532 948
533 562
533 635
533 722
533 740
533 776
533 819
533 825
533 835
533 973
533 974
534 546
534 549
534 555
534 562
534 577
534 631
534 636
534 679
534 791
534 827
534 829
534 853
534 877
534 880
534 881
534 888
534 890
534 907
534 917
534 925
534 929
534 932
534 934
534 935
534 937
534 940
534 991
534 995
535 541
535 546
535 558
535 604
535 670
535 679
535 681
535 691
535 721
535 769
535 785
535 859
535 875
535 982
535 988
536 566
536 683
536 742
536 844
536 863
536 865
536 881
536 892
536 905
536 907
536 919
536 950
536 959
536 996
536 999
537 572
537 585
537 595
537 634
537 717
537 749
537 820
537 878
537 894
537 907
537 942
537 961
538 553
538 572
538 575
538 681
538 764
538 768
538 919
538 937
538 994
539 564
539 568
539 581
539 750
539 761
539 887
539 952
539 968
540 565
540 624
540 639
540 669
540 710
540 718
540 719
540 733
540 764
540 788
540 827
540 834
540 837
540 930
540 947
541 591
541 630
541 662
541 751
541 794
541 854
541 951
541 958
542 572
542 629
542 650
542 778
542 838
542 868
542 895
542 931
543 545
543 548
543 590
543 597
543 661
543 703
543 716
543 749
543 902
543 919
543 936
543 977
543 995
544 564
544 579
544 590
544 736
544 759
544 761
544 835
544 978
544 985
545 552
545 557
545 577
545 659
545 753
545 760
545 766
545 784
545 799
545 808
545 820
545 841
545 926
545 963
545 994
546 547
546 586
546 587
546 593
546 646
546 673
546 746
546 772
546 789
546 845
546 952
547 567
547 579
547 705
547 785
547 886
547 926
547 931
548 742
548 763
548 807
548 858
548 910
548 945
549 554
549 586
549 589
549 609
549 616
549 710
549 760
549 815
549 937
549 947
549 951
550 574
550 650
550 682
550 716
550 814
550 823
550 854
550 965
550 994
551 558
551 704
551 722
551 731
551 819
551 869
551 872
551 885
551 934
551 947
552 566
552 619
552 624
552 661
552 699
552 718
552 773
552 788
552 819
552 841
552 858
552 886
552 901
552 920
552 947
552 952
553 558
553 584
553 769
553 789
553 808
553 830
553 853
553 883
553 884
553 926
553 968
553 991
554 590
554 631
554 650
554 664
554 694
554 709
554 712
554 714
554 743
554 753
554 784
554 802
554 808
554 830
554 853
554 883
554 890
554 917
554 937
554 987
554 990
555 577
555 616
555 707
555 751
555 764
555 946
555 964
555 983
555 985
556 619
556 639
556 657
556 683
556 764
556 908
556 916
556 918
556 964
556 968
556 984
557 590
557 597
557 610
557 638
557 664
557 720
557 758
557 851
557 866
557 907
557 942
557 951
557 955
558 647
558 664
558 666
558 678
558 679
558 754
558 832
558 979
558 981
559 584
559 597
559 598
559 614
559 651
559 664
559 757
559 912
559 930
559 938
559 939
559 947
559 999
560 591
560 615
560 623
560 683
560 700
560 708
560 739
560 746
560 760
560 764
560 765
560 798
560 942
560 957
560 995
561 592
561 817
561 847
561 850
562 591
562 615
562 617
562 824
562 857
562 859
562 896
562 908
562 933
562 941
562 964
563 575
563 607
563 627
563 643
563 665
563 689
563 711
563 725
563 815
563 819
563 937
563 940
563 965
563 973
563 978
564 589
564 683
564 780
564 927
564 984
565 566
565 615
565 652
565 689
565 709
565 719
565 742
565 768
565 832
565 839
565 844
565 868
565 924
565 953
565 991
566 575
566 605
566 622
566 630
566 685
566 688
566 703
566 709
566 757
566 766
566 773
566 777
566 830
566 864
566 949
566 958
567 589
567 591
567 595
567 606
567 627
567 628
567 631
567 661
567 669
567 681
567 688
567 743
567 745
567 767
567 770
567 777
567 806
567 816
567 819
567 857
567 861
567 889
567 896
567 915
567 939
567 950
567 966
567 970
567 997
568 645
568 649
568 664
568 693
568 799
568 806
568 834
568 842
568 877
568 907
568 930
568 966
569 593
569 621
569 656
569 678
569 715
569 856
569 904
569 910
569 925
569 930
569 981
570 650
570 777
570 825
570 870
570 903
570 979
571 590
571 605
571 705
571 731
571 835
571 838
571 843
571 952
571 988
572 574
572 579
572 582
572 618
572 624
572 625
572 667
572 675
572 696
572 745
572 777
572 781
572 822
572 827
572 873
572 913
572 918
572 958
573 629
573 655
573 907
573 949
574 610
574 623
574 677
574 734
574 750
574 793
574 796
574 824
574 833
574 844
574 890
574 952
574 967
574 980
574 993
574 994
575 580
575 700
575 794
575 800
575 819
575 821
575 888
575 889
575 935
575 938
576 578
576 583
576 651
576 675
576 689
576 814
576 882
576 919
576 922
577 585
577 586
577 660
577 661
577 681
577 707
577 750
577 766
577 773
577 816
577 841
577 950
577 970
578 589
578 604
578 673
578 720
578 772
578 836
578 869
578 872
578 936
579 656
579 671
579 675
579 676
579 739
579 747
579 751
579 757
579 796
579 797
579 869
579 919
579 951
579 952
579 983
580 585
580 614
580 641
580 714
580 737
580 738
580 771
580 826
580 839
580 921
580 947
580 954
580 961
581 630
581 654
581 746
581 782
581 835
581 929
581 953
582 664
582 678
582 733
582 826
582 832
582 843
582 878
583 687
583 931
583 950
584 635
584 662
584 868
584 886
584 940
585 594
585 640
585 658
585 671
585 680
585 683
585 695
585 743
585 749
585 759
585 761
585 772
585 785
585 801
585 885
585 886
585 904
586 629
586 635
586 662
586 676
586 746
586 769
586 783
586 839
586 917
586 933
586 936
587 596
587 601
587 629
587 718
587 798
587 835
587 845
587 920
587 994
588 596
588 599
588 672
588 676
588 683
588 699
588 749
588 751
588 862
588 867
588 964
588 987
589 653
589 711
589 714
589 728
589 738
589 787
589 827
589 838
589 861
589 872
589 894
589 947
589 982
590 670
590 699
590 718
590 755
590 789
590 857
590 861
590 883
590 886
590 928
590 935
590 947
590 972
590 986
591 664
591 747
591 809
591 859
591 879
591 895
591 899
591 941
591 982
591 997
592 595
592 655
592 676
592 683
592 750
592 775
592 833
592 876
592 878
592 889
592 913
592 933
592 977
593 632
593 750
593 777
593 832
593 908
593 991
594 603
594 628
594 642
594 665
594 692
594 756
594 803
594 883
594 893
594 920
594 951
594 953
594 961
594 968
594 995
595 609
595 618
595 652
595 683
595 710
595 725
595 776
595 777
595 847
595 855
595 888
595 919
595 977
596 611
596 724
596 735
596 740
596 753
596 850
596 886
597 602
597 614
597 633
597 710
597 712
597 721
597 728
597 729
597 776
597 786
597 787
597 847
597 852
597 919
597 971
597 974
597 977
597 983
598 630
598 651
598 661
598 682
598 755
598 832
598 920
599 602
599 616
599 646
599 652
599 667
599 676
599 679
599 804
599 878
600 671
600 737
600 955
600 997
601 640
601 651
601 657
601 687
601 891
601 927
601 967
601 988
601 994
602 617
602 629
602 655
602 672
602 689
602 729
602 731
602 753
602 770
602 843
602 852
602 864
602 896
602 897
602 919
602 938
602 962
602 963
602 981
602 987
603 614
603 640
603 684
603 799
603 826
603 899
603 912
603 922
604 650
604 679
604 733
604 787
604 790
604 836
604 847
604 912
605 631
605 881
605 891
605 902
606 658
606 676
606 677
606 696
606 739
606 770
606 841
606 851
606 853
606 869
606 907
606 922
606 957
606 960
606 967
607 634
607 691
607 746
607 776
607 782
607 844
607 896
608 651
608 732
608 743
608 833
608 873
608 963
608 964
609 628
609 655
609 686
609 709
609 712
609 728
609 798
609 802
609 805
609 813
609 908
609 919
609 977
610 719
610 805
610 875
610 892
610 969
611 678
611 692
611 697
611 772
611 886
611 910
611 959
612 650
612 679
612 713
612 765
612 801
612 848
612 958
613 619
613 743
613 753
613 963
614 624
614 650
614 651
614 654
614 694
614 964
615 668
615 719
615 746
615 785
615 789
615 803
615 828
615 830
615 839
615 844
615 853
615 861
615 863
615 896
615 898
615 916
615 937
615 947
615 957
615 968
615 990
616 651
616 662
616 665
616 672
616 790
616 877
616 924
616 940
616 951
616 970
616 998
617 631
617 716
617 724
617 768
617 844
617 908
617 913
617 933
617 977
617 979
618 642
618 665
618 688
618 794
618 872
618 894
618 917
619 626
619 665
619 698
619 703
619 757
619 763
619 815
619 846
619 866
619 905
619 913
620 667
620 670
620 676
620 696
620 735
620 774
620 793
620 828
620 889
620 900
620 935
620 941
620 950
620 970
620 997
621 698
621 753
621 781
621 843
621 881
621 930
621 952
621 977
622 629
622 668
622 683
622 705
622 757
622 782
622 796
622 835
622 843
622 885
622 924
622 940
622 961
623 668
623 749
623 825
623 896
624 704
624 770
624 816
624 865
624 872
624 891
624 910
624 919
624 977
625 676
625 690
625 692
625 762
625 819
625 824
625 843
626 685
626 736
626 813
626 870
626 922
626 949
627 735
627 782
627 898
628 664
628 710
628 712
628 729
628 835
628 864
628 877
628 878
628 977
629 643
629 662
629 683
629 684
629 694
629 711
629 719
629 730
629 742
629 758
629 770
629 771
629 777
629 797
629 798
629 806
629 834
629 849
629 852
629 866
629 878
629 879
629 880
629 907
629 911
629 933
629 936
629 940
629 959
629 967
629 980
629 996
630 680
630 690
630 710
630 748
630 750
630 753
630 756
630 792
630 804
630 820
630 825
630 852
630 864
630 884
630 891
630 899
630 924
630 927
631 712
631 754
631 804
631 867
631 929
631 939
631 991
632 643
632 651
632 655
632 692
632 727
632 788
632 839
632 926
632 971
632 984
633 749
633 753
633 777
633 832
633 970
633 985
634 639
634 804
634 843
634 947
635 660
635 667
635 678
635 711
635 747
635 755
635 776
635 812
635 948
635 963
636 656
636 668
636 675
636 697
636 714
636 718
636 937
636 940
637 642
637 647
637 771
637 775
637 967
638 761
638 777
638 780
638 839
638 912
638 960
639 644
639 674
639 683
639 692
639 693
639 696
639 751
639 766
639 778
639 863
639 886
639 892
639 942
640 679
640 688
640 696
640 735
640 754
640 856
641 750
641 804
641 806
641 826
641 950
642 651
642 654
642 662
642 673
642 741
642 836
642 913
642 920
642 934
642 959
643 644
643 681
643 787
643 792
643 866
643 915
643 916
644 668
644 709
644 828
645 782
645 839
645 866
645 922
645 936
645 964
645 983
646 651
646 679
646 726
646 772
646 832
646 865
646 922
646 970
647 818
647 922
647 937
647 972
648 659
648 679
648 848
648 880
648 924
648 964
649 676
649 692
649 721
649 737
649 763
649 765
649 792
649 807
649 820
649 843
649 846
649 936
650 652
650 654
650 661
650 698
650 704
650 743
650 777
650 819
650 833
650 837
650 848
650 869
650 928
650 939
650 943
650 944
650 978
650 994
651 656
651 657
651 676
651 718
651 753
651 788
651 797
651 811
651 832
651 850
651 893
651 897
651 903
651 944
651 947
651 954
651 965
651 969
651 982
652 676
652 687
652 700
652 832
652 849
652 850
652 917
652 947
653 701
653 704
653 754
653 859
653 905
653 937
653 970
653 972
654 719
654 742
654 748
654 785
654 817
654 821
654 829
654 871
654 887
654 896
654 934
654 948
654 953
654 960
654 965
655 712
655 736
655 776
655 933
656 664
656 801
656 826
656 848
656 884
656 970
656 996
657 683
657 778
657 858
657 950
657 964
658 720
658 782
658 813
658 830
658 982
659 777
659 947
659 970
659 982
660 694
660 701
660 732
660 740
660 845
660 913
660 924
660 930
660 933
661 686
661 698
661 783
661 856
661 857
661 879
661 897
661 901
661 912
661 925
661 928
661 937
661 941
661 942
661 970
661 986
662 718
662 733
662 737
662 756
662 788
662 838
662 896
662 937
662 967
663 867
663 940
664 700
664 782
664 820
664 824
664 833
664 842
664 853
664 871
664 882
664 883
664 890
664 895
664 991
664 995
665 677
665 682
665 710
665 720
665 747
665 767
665 771
665 775
665 782
665 785
665 844
665 883
665 909
665 937
665 965
665 972
665 978
665 980
665 991
666 671
666 679
666 720
666 865
666 868
666 932
666 947
667 767
667 837
667 845
667 912
667 949
667 980
668 676
668 694
668 852
668 867
668 881
668 986
669 717
669 777
669 910
669 931
669 952
669 966
669 980
669 984
669 987
670 719
670 741
670 749
670 773
670 952
670 997
671 700
671 881
672 862
672 876
672 988
673 674
673 777
673 839
673 956
674 751
674 756
674 789
674 797
674 802
674 820
674 951
674 957
674 993
675 777
675 912
675 914
675 952
675 989
676 693
676 703
676 708
676 730
676 736
676 747
676 756
676 820
676 826
676 827
676 851
676 867
676 870
676 951
676 970
676 971
676 985
676 995
677 679
677 680
677 693
677 772
677 796
677 809
677 863
677 977
678 759
678 800
678 861
678 876
678 970
679 691
679 696
679 707
679 726
679 750
679 769
679 772
679 789
679 799
679 807
679 808
679 825
679 870
679 875
679 898
679 901
679 925
679 927
679 971
680 706
680 727
680 826
680 829
680 905
680 938
680 941
681 726
681 828
681 829
681 853
681 907
681 990
682 737
682 789
682 817
682 821
682 891
682 953
683 693
683 700
683 722
683 751
683 778
683 798
683 859
683 865
683 892
683 909
683 915
683 919
683 975
684 685
684 691
684 694
684 749
684 802
684 911
684 922
684 940
684 971
685 820
685 875
685 917
686 888
686 947
686 984
686 987
687 691
687 699
687 725
687 761
687 800
687 804
687 821
687 843
687 927
687 935
687 953
688 817
688 951
689 700
689 751
689 810
690 735
690 764
690 788
690 863
690 897
690 975
690 978
690 981
691 813
691 939
691 994
692 697
692 711
692 803
692 821
692 826
692 842
692 948
692 965
693 744
693 820
693 905
693 910
693 919
693 930
693 934
693 947
694 742
694 744
694 798
694 806
694 807
694 845
694 846
694 865
694 902
694 936
694 940
694 948
694 986
695 730
695 745
695 746
695 845
695 905
695 942
695 956
696 807
696 868
696 909
697 735
697 740
697 775
697 821
697 879
697 953
697 989
698 826
698 879
699 702
699 793
699 808
699 811
699 911
699 936
699 983
700 706
700 742
700 892
700 942
701 713
701 764
701 788
701 794
701 825
701 835
701 868
701 872
701 918
701 947
701 992
702 709
702 742
702 756
702 791
702 803
702 861
702 901
702 965
703 748
703 752
703 753
703 799
703 801
703 807
703 812
703 866
703 913
703 989
703 998
704 843
704 958
704 970
705 755
705 806
705 833
705 845
705 852
705 874
705 905
705 981
706 764
706 936
706 950
706 987
707 764
707 783
707 784
707 835
707 848
707 876
707 880
707 896
707 930
707 951
707 977
708 737
708 773
708 796
708 810
709 761
709 804
709 896
709 922
709 947
710 728
710 738
710 804
710 806
710 830
710 831
710 915
710 957
710 977
711 728
711 762
711 869
711 954
712 716
712 741
712 753
712 789
712 889
712 915
712 922
712 934
712 977
712 992
713 746
713 894
713 901
713 906
713 940
713 957
713 974
713 997
714 782
714 789
714 804
714 923
714 943
714 955
714 959
715 716
715 717
715 765
715 768
715 811
715 910
715 976
716 769
716 776
716 901
716 919
716 969
717 721
717 742
717 771
717 832
717 934
717 940
717 942
717 957
717 967
718 833
718 851
718 861
718 869
719 758
719 777
719 785
719 815
719 914
719 927
719 936
719 949
720 752
720 879
720 971
721 752
721 764
722 763
722 795
722 803
722 835
722 840
722 885
722 912
722 959
722 971
722 997
723 747
723 764
723 856
723 942
724 747
724 771
724 830
724 868
724 947
725 917
725 965
725 972
726 804
726 809
726 881
726 933
726 953
727 767
727 772
727 959
728 782
728 827
728 836
728 841
728 852
728 879
728 886
728 924
728 959
728 977
728 999
729 786
729 822
729 840
729 864
729 870
729 883
729 928
729 933
729 977
729 998
730 772
730 807
730 953
730 979
731 752
731 890
731 908
731 942
731 972
732 753
732 773
732 877
732 946
732 961
732 980
733 739
733 801
733 920
733 945
734 873
734 931
734 954
734 974
735 790
735 792
735 793
735 840
735 851
735 867
735 925
736 789
736 994
737 807
737 881
737 930
737 939
738 752
738 762
738 784
738 794
738 850
738 861
739 793
740 751
740 753
740 779
740 825
740 950
740 959
741 799
741 866
741 876
742 851
742 914
742 940
742 961
743 797
743 857
743 872
743 882
743 937
743 974
744 833
744 872
744 876
744 959
744 971
745 919
745 961
745 977
746 814
746 845
746 868
746 968
747 767
747 775
747 813
747 876
747 882
747 987
747 998
748 778
748 804
748 864
748 919
748 927
748 977
749 774
749 777
749 778
749 847
749 858
749 881
749 952
749 953
749 986
750 927
750 963
750 967
750 985
751 778
751 787
751 791
751 810
751 833
751 946
751 963
751 964
752 827
752 841
752 858
752 871
752 901
752 942
752 959
752 987
753 763
753 771
753 777
753 794
753 813
753 830
753 832
753 834
753 839
753 895
753 911
753 917
753 943
753 957
753 959
753 985
754 761
754 820
754 843
754 921
754 936
755 797
755 828
755 835
755 877
755 919
755 993
756 780
756 802
756 820
756 873
756 947
757 820
757 884
757 936
758 793
758 846
759 765
759 882
759 922
760 832
760 926
760 950
760 953
760 964
760 998
761 876
761 878
761 902
761 922
761 960
762 803
762 804
762 814
762 827
762 835
762 938
762 943
762 952
762 986
763 795
763 818
763 824
763 827
763 894
763 924
763 953
764 779
764 780
764 792
764 793
764 811
764 816
764 824
764 833
764 860
764 870
764 887
764 889
764 903
764 915
764 941
764 943
764 967
764 969
765 799
765 832
765 851
765 893
765 951
766 776
766 841
766 953
766 981
767 772
767 923
767 936
767 956
767 987
768 796
768 804
768 821
768 835
768 839
768 874
768 910
768 927
768 951
768 988
769 800
769 832
769 866
769 892
770 908
770 927
770 991
771 827
771 829
771 872
771 931
771 937
771 957
772 783
772 830
772 865
772 873
772 905
772 910
772 927
772 978
773 780
773 802
773 838
773 841
773 866
773 903
773 940
774 838
774 852
774 855
775 810
775 833
775 932
775 951
776 819
776 864
776 913
776 933
776 977
777 779
777 780
777 808
777 821
777 857
777 913
777 989
778 814
778 853
778 876
778 892
778 896
778 897
778 954
779 959
779 997
780 845
780 872
780 951
781 801
781 820
781 856
781 880
781 929
781 970
781 996
782 793
782 804
782 843
782 862
782 865
782 881
782 951
782 959
782 963
782 976
783 786
783 974
784 829
784 843
784 850
784 852
784 870
784 886
785 859
785 952
785 964
786 813
786 879
786 888
786 896
787 845
788 796
788 853
788 876
789 855
789 885
789 998
790 827
790 845
790 868
790 906
791 845
791 868
791 907
791 917
791 949
792 799
792 866
792 921
792 926
793 798
793 813
793 847
793 848
793 959
793 960
793 986
794 933
794 947
794 986
795 809
795 841
795 850
795 899
795 901
795 959
796 813
796 818
796 862
796 909
797 848
798 853
798 886
798 920
798 951
798 992
799 831
799 853
799 946
799 959
799 988
800 821
800 868
800 876
800 942
800 952
800 979
801 809
801 811
801 827
801 834
801 915
801 922
801 993
801 999
802 818
802 863
802 869
802 885
802 988
803 804
803 915
803 958
803 977
804 833
804 858
804 862
804 876
804 894
804 910
805 807
805 813
805 836
805 855
805 864
805 916
805 919
805 947
806 845
806 889
806 890
806 940
806 959
806 981
806 994
807 813
807 935
807 956
807 976
808 809
808 823
808 870
808 884
808 886
808 898
808 934
808 967
808 987
808 999
809 828
809 829
809 877
809 935
809 972
810 842
810 940
810 960
810 977
811 898
811 909
812 845
812 864
812 936
812 951
812 960
812 997
813 815
813 843
814 816
814 845
814 870
814 943
815 854
815 858
815 861
815 890
815 913
815 925
815 945
815 993
816 845
816 872
816 887
816 928
817 820
817 854
817 907
817 953
817 991
818 844
818 929
818 958
818 995
819 845
819 883
820 846
820 877
820 891
820 909
820 975
820 987
820 993
821 838
821 953
822 905
822 953
823 843
823 845
823 868
823 939
823 951
824 958
824 993
824 995
825 837
825 852
825 870
825 916
825 940
826 930
828 854
828 870
828 886
828 901
829 830
829 836
829 868
829 873
829 886
829 921
829 922
829 987
830 833
830 852
830 860
830 861
831 940
831 941
832 837
832 865
833 845
833 846
833 867
833 914
833 935
833 973
834 932
834 991
835 876
835 967
836 879
836 972
837 842
837 933
837 977
838 866
838 875
838 910
838 919
839 868
839 979
840 843
840 846
840 891
840 951
840 959
840 987
840 996
841 884
841 945
842 873
842 925
842 930
842 944
842 953
842 965
842 981
843 849
843 881
843 902
843 906
843 918
843 940
843 952
843 985
843 993
843 997
844 882
844 883
844 886
844 907
844 937
844 996
845 863
845 892
845 899
845 912
845 920
845 938
845 974
845 994
846 893
846 964
847 883
847 996
848 852
848 891
848 896
848 915
849 929
849 953
849 968
850 871
850 889
850 910
850 923
850 928
850 978
851 930
851 944
851 985
852 864
852 909
852 977
853 871
853 941
853 947
853 977
854 869
854 872
854 895
854 974
855 863
855 912
855 917
856 863
856 987
856 994
857 908
857 942
857 950
857 957
857 994
858 901
858 918
858 933
858 951
858 952
859 926
859 927
859 943
859 962
860 972
860 994
861 945
861 976
862 952
862 957
862 990
862 992
863 875
863 882
863 937
863 996
864 913
864 916
864 977
864 993
865 952
865 966
866 970
867 895
867 899
867 953
868 890
868 919
868 933
868 978
869 872
869 949
869 990
869 998
870 974
871 920
871 951
871 955
871 985
872 881
872 929
872 958
872 984
873 938
873 966
873 988
874 955
874 973
874 977
875 884
876 910
876 911
876 926
876 953
877 884
877 954
877 958
877 972
878 919
878 996
879 890
879 908
879 941
879 970
879 971
879 977
879 984
880 986
881 907
881 935
881 958
883 912
883 917
883 942
884 887
884 965
885 918
885 933
885 991
885 996
886 907
886 937
886 992
887 957
888 890
888 960
889 905
889 937
889 947
889 993
890 921
890 947
890 981
890 992
892 898
892 903
892 921
892 985
893 908
893 965
894 945
894 982
894 985
895 897
895 936
895 953
895 973
895 978
895 982
895 987
896 941
897 925
897 977
898 917
898 921
898 937
898 975
899 948
900 974
900 980
900 984
900 988
900 997
901 908
901 937
901 948
901 951
902 941
902 951
902 990
903 945
903 957
904 941
904 954
904 971
905 947
905 962
906 932
906 941
906 951
906 984
906 997
907 935
907 937
907 945
907 948
907 958
907 968
907 985
907 998
908 931
908 955
908 962
908 980
909 990
910 957
910 964
911 944
911 954
912 943
912 970
912 976
913 919
914 985
915 954
916 934
916 963
916 970
917 932
917 942
917 979
919 933
919 955
919 963
919 965
919 977
920 950
920 962
920 980
921 940
923 934
923 997
924 952
924 953
924 996
925 947
926 971
927 952
927 993
929 937
929 970
929 978
929 983
930 950
930 977
931 984
931 997
932 994
933 954
933 977
934 968
935 936
935 999
937 961
937 973
937 991
937 999
939 958
940 953
940 962
940 973
941 951
941 967
941 977
941 983
941 984
941 987
941 998
942 994
944 948
944 974
945 947
945 956
945 981
947 958
947 976
947 991
947 993
947 997
948 953
948 965
949 952
950 973
950 982
950 990
950 998
951 959
951 970
951 977
951 985
951 999
952 957
952 971
953 963
953 965
953 985
954 964
955 959
955 960
957 976
957 981
959 996
963 974
967 974
967 997
969 987
970 980
972 995
973 979
974 985
977 993
977 994
981 998
984 987
991 995
