0 5
0 19
0 21
0 29
0 31
0 57
0 79
0 88
0 90
0 93
0 121
0 275
0 285
0 294
0 304
0 307
0 308
0 315
0 321
0 329
0 344
0 353
0 377
0 378
0 388
0 389
0 421
0 450
0 484
0 548
0 553
0 570
0 593
0 620
0 621
0 737
0 782
0 813
0 820
0 861
0 862
0 930
0 968
1 2
1 49
1 56
1 64
1 65
1 69
1 149
1 204
1 237
1 255
1 260
1 269
1 328
1 340
1 345
1 350
1 358
1 366
1 380
1 394
1 400
1 411
1 415
1 416
1 453
1 498
1 531
1 543
1 550
1 557
1 565
1 587
1 601
1 633
1 663
1 714
1 733
1 741
1 837
1 847
1 852
1 869
1 874
1 889
1 893
1 896
1 906
1 914
1 918
1 920
1 942
1 946
1 950
1 961
1 964
1 983
2 10
2 91
2 149
2 269
2 340
2 342
2 349
2 355
2 374
2 410
2 511
2 531
2 633
2 829
2 849
2 850
2 852
2 858
2 874
2 895
2 912
2 918
2 939
2 955
2 975
3 14
3 115
3 239
3 280
3 337
3 382
3 406
3 452
3 466
3 624
3 646
3 740
3 745
3 766
3 802
3 824
3 897
3 917
3 966
4 32
4 47
4 63
4 206
4 240
4 287
4 311
4 383
4 407
4 521
4 566
4 571
4 650
4 785
4 926
5 63
5 99
5 104
5 108
5 129
5 172
5 196
5 200
5 231
5 247
5 289
5 341
5 364
5 408
5 443
5 463
5 497
5 503
5 512
5 586
5 623
5 627
5 642
5 705
5 789
5 873
5 921
5 924
5 985
6 8
6 48
6 101
6 219
6 259
6 363
6 386
6 403
6 525
6 587
6 630
6 674
6 741
6 764
6 809
6 875
6 880
6 914
7 66
7 67
7 183
7 184
7 308
7 314
7 333
7 370
7 581
7 582
7 584
7 690
7 702
7 706
7 712
7 731
7 768
7 781
7 808
7 827
7 882
7 909
7 971
7 989
8 48
8 96
8 101
8 163
8 219
8 261
8 266
8 283
8 386
8 417
8 600
8 674
8 699
8 702
8 715
8 735
8 738
8 755
8 764
8 809
8 875
8 951
9 75
9 101
9 222
9 252
9 267
9 279
9 282
9 284
9 335
9 360
9 371
9 551
9 731
9 774
9 775
9 794
9 800
9 844
9 865
9 987
10 91
10 105
10 204
10 327
10 340
10 350
10 356
10 478
10 499
10 504
10 513
10 516
10 531
10 555
10 557
10 587
10 605
10 619
10 852
10 855
10 913
10 938
10 946
10 956
10 975
11 51
11 134
11 135
11 155
11 158
11 200
11 250
11 543
11 545
11 608
11 637
11 677
11 678
11 767
11 803
11 890
11 895
11 957
11 981
11 992
12 23
12 327
12 349
12 366
12 374
12 464
12 478
12 513
12 538
12 555
12 574
12 583
12 650
12 741
12 849
12 913
12 938
12 942
12 955
12 975
12 983
13 42
13 43
13 68
13 77
13 94
13 98
13 99
13 169
13 235
13 273
13 312
13 476
13 498
13 529
13 564
13 599
13 629
13 648
13 671
13 687
13 713
13 716
13 721
13 724
13 811
13 930
13 960
13 965
14 115
14 201
14 239
14 320
14 337
14 454
14 466
14 574
14 624
14 646
14 711
14 740
14 750
14 917
14 966
14 973
15 113
15 140
15 229
15 302
15 325
15 326
15 375
15 440
15 456
15 509
15 528
15 546
15 574
15 610
15 613
15 625
15 634
15 651
15 688
15 690
15 734
15 746
15 765
15 836
15 870
15 927
15 928
15 933
15 994
16 59
16 132
16 159
16 167
16 203
16 221
16 229
16 237
16 245
16 262
16 278
16 343
16 391
16 448
16 456
16 528
16 542
16 625
16 634
16 641
16 647
16 668
16 746
16 757
16 763
16 817
16 848
16 883
16 927
16 933
17 30
17 38
17 165
17 186
17 187
17 229
17 288
17 305
17 419
17 428
17 530
17 556
17 579
17 629
17 708
17 761
17 797
17 798
17 823
17 830
17 839
17 851
17 977
18 202
18 211
18 218
18 225
18 278
18 302
18 326
18 492
18 516
18 542
18 610
18 625
18 651
18 672
18 678
18 690
18 693
18 713
18 734
18 757
18 825
18 828
18 933
19 29
19 57
19 121
19 257
19 275
19 294
19 315
19 344
19 378
19 389
19 419
19 488
19 930
19 970
20 192
20 230
20 246
20 286
20 493
20 504
20 505
20 531
20 618
20 692
20 719
20 758
20 830
20 832
20 845
20 879
20 900
20 941
20 984
21 27
21 29
21 79
21 294
21 304
21 308
21 315
21 321
21 324
21 337
21 353
21 377
21 389
21 445
21 553
21 720
21 820
21 861
21 862
21 879
21 930
21 970
22 50
22 59
22 70
22 112
22 124
22 141
22 159
22 176
22 179
22 195
22 198
22 202
22 209
22 225
22 243
22 262
22 265
22 283
22 337
22 397
22 440
22 456
22 458
22 460
22 488
22 508
22 519
22 527
22 539
22 540
22 561
22 574
22 575
22 591
22 638
22 651
22 664
22 668
22 669
22 675
22 683
22 687
22 690
22 695
22 697
22 765
22 787
22 798
22 806
22 829
22 831
22 848
22 863
22 888
22 905
22 908
22 928
22 949
22 994
23 35
23 72
23 91
23 133
23 145
23 339
23 349
23 356
23 453
23 538
23 565
23 583
23 649
23 663
23 714
23 780
23 837
23 850
23 855
23 866
23 908
23 914
23 918
23 950
23 952
23 964
23 984
24 85
24 215
24 234
24 298
24 317
24 347
24 354
24 644
24 727
24 788
24 857
24 864
25 33
25 34
25 36
25 37
25 81
25 87
25 100
25 148
25 241
25 242
25 245
25 248
25 291
25 299
25 315
25 318
25 322
25 324
25 348
25 367
25 376
25 389
25 404
25 441
25 526
25 532
25 536
25 544
25 578
25 592
25 645
25 795
25 801
25 814
25 833
25 835
25 937
25 980
25 995
26 43
26 47
26 83
26 111
26 131
26 177
26 273
26 281
26 432
26 433
26 437
26 444
26 446
26 451
26 469
26 480
26 481
26 498
26 506
26 520
26 523
26 524
26 530
26 564
26 599
26 647
26 648
26 656
26 657
26 658
26 687
26 716
26 724
26 725
26 786
26 846
26 948
26 986
26 993
27 29
27 31
27 57
27 61
27 79
27 88
27 93
27 110
27 121
27 236
27 275
27 294
27 304
27 306
27 308
27 309
27 312
27 315
27 317
27 321
27 353
27 378
27 388
27 389
27 445
27 484
27 548
27 553
27 570
27 593
27 621
27 660
27 813
27 820
27 862
27 898
27 970
28 86
28 161
28 299
28 339
28 382
28 402
28 420
28 602
28 654
28 670
28 691
28 704
28 894
28 947
29 61
29 168
29 275
29 285
29 315
29 321
29 344
29 377
29 389
29 570
29 621
29 710
29 807
29 820
29 930
30 165
30 187
30 208
30 218
30 267
30 288
30 305
30 409
30 428
30 535
30 556
30 708
30 797
30 826
30 839
30 930
30 954
31 88
31 113
31 275
31 307
31 315
31 329
31 344
31 388
31 389
31 484
31 548
31 553
31 570
31 667
31 861
31 970
32 84
32 206
32 240
32 258
32 287
32 310
32 355
32 427
32 521
32 650
32 773
32 785
33 45
33 73
33 81
33 87
33 138
33 242
33 245
33 248
33 291
33 322
33 324
33 355
33 376
33 477
33 536
33 578
33 645
33 801
33 812
33 821
33 835
34 36
34 87
34 241
34 242
34 318
34 348
34 366
34 375
34 376
34 404
34 592
34 812
34 833
34 835
34 934
34 995
35 65
35 69
35 82
35 112
35 149
35 200
35 201
35 210
35 257
35 260
35 269
35 342
35 345
35 356
35 368
35 375
35 380
35 401
35 402
35 405
35 426
35 469
35 494
35 499
35 531
35 555
35 568
35 587
35 596
35 605
35 703
35 741
35 795
35 837
35 841
35 849
35 850
35 852
35 854
35 855
35 866
35 869
35 879
35 889
35 896
35 906
35 908
35 911
35 912
35 914
35 920
35 932
35 938
35 939
35 946
35 964
35 975
36 37
36 57
36 81
36 91
36 100
36 148
36 242
36 248
36 318
36 322
36 324
36 348
36 351
36 367
36 448
36 477
36 532
36 536
36 544
36 573
36 578
36 592
36 645
36 726
36 795
36 812
36 814
36 815
36 821
36 833
36 905
36 980
36 995
36 998
37 81
37 87
37 242
37 291
37 348
37 367
37 376
37 441
37 477
37 532
37 536
37 573
37 575
37 592
37 611
37 645
37 795
37 801
37 812
37 821
37 835
37 842
37 934
37 953
37 995
37 998
38 175
38 186
38 187
38 208
38 288
38 305
38 386
38 399
38 419
38 460
38 535
38 537
38 556
38 579
38 708
38 762
38 826
38 839
38 954
39 173
39 188
39 233
39 240
39 258
39 287
39 310
39 311
39 407
39 436
39 476
39 508
39 566
39 650
39 661
39 773
39 785
39 896
40 45
40 55
40 60
40 90
40 126
40 292
40 359
40 395
40 552
40 560
40 563
40 699
40 700
40 782
40 834
40 943
40 963
41 42
41 94
41 131
41 177
41 273
41 444
41 447
41 462
41 472
41 476
41 480
41 483
41 498
41 518
41 520
41 524
41 529
41 530
41 564
41 656
41 671
41 716
41 725
41 772
41 911
41 975
42 56
42 62
42 105
42 111
42 131
42 273
42 281
42 312
42 318
42 432
42 437
42 451
42 467
42 473
42 476
42 480
42 498
42 520
42 524
42 529
42 530
42 533
42 589
42 647
42 648
42 658
42 667
42 671
42 769
42 802
43 68
43 76
43 83
43 84
43 98
43 99
43 105
43 111
43 112
43 131
43 136
43 169
43 182
43 212
43 233
43 235
43 255
43 312
43 432
43 433
43 434
43 444
43 447
43 462
43 476
43 480
43 481
43 498
43 506
43 520
43 524
43 530
43 564
43 589
43 603
43 629
43 647
43 654
43 656
43 667
43 671
43 713
43 744
43 780
43 802
43 811
43 853
43 945
43 948
43 959
43 965
43 972
43 976
43 983
43 984
43 993
43 996
44 95
44 106
44 144
44 274
44 299
44 382
44 420
44 429
44 507
44 515
44 602
44 670
44 691
44 759
44 783
44 892
44 918
44 936
44 947
45 363
45 367
45 441
45 532
45 536
45 573
45 578
45 801
45 812
45 835
45 974
45 980
45 995
46 107
46 123
46 135
46 155
46 171
46 216
46 300
46 361
46 393
46 475
46 524
46 548
46 608
46 636
46 678
46 694
46 707
46 764
46 767
46 803
46 957
47 287
47 384
47 390
47 407
47 408
47 427
47 608
47 661
47 902
47 987
48 96
48 101
48 102
48 163
48 219
48 283
48 363
48 403
48 525
48 529
48 674
48 755
48 807
48 830
48 859
48 875
48 881
49 56
49 77
49 84
49 92
49 102
49 103
49 114
49 116
49 118
49 134
49 153
49 157
49 160
49 162
49 178
49 181
49 213
49 214
49 220
49 233
49 270
49 313
49 319
49 331
49 372
49 409
49 412
49 418
49 421
49 557
49 568
49 576
49 594
49 604
49 632
49 641
49 652
49 655
49 665
49 666
49 668
49 676
49 685
49 698
49 710
49 720
49 721
49 722
49 728
49 732
49 770
49 778
49 838
49 840
49 842
49 843
49 872
49 903
49 948
50 95
50 108
50 150
50 203
50 218
50 228
50 231
50 253
50 262
50 275
50 320
50 325
50 429
50 459
50 467
50 486
50 492
50 561
50 620
50 634
50 651
50 675
50 679
50 690
50 693
50 697
50 791
50 829
50 899
50 928
51 133
51 216
51 253
51 300
51 453
51 543
51 545
51 617
51 677
51 684
51 761
51 818
51 851
51 884
51 929
51 957
51 992
52 124
52 218
52 225
52 268
52 290
52 355
52 440
52 448
52 451
52 486
52 491
52 539
52 542
52 574
52 608
52 620
52 664
52 672
52 690
52 697
52 718
52 746
52 776
52 836
52 928
52 933
53 85
53 215
53 234
53 256
53 274
53 346
53 347
53 354
53 383
53 384
53 727
53 788
53 857
54 56
54 58
54 102
54 109
54 116
54 118
54 153
54 160
54 162
54 178
54 181
54 214
54 220
54 253
54 270
54 334
54 409
54 568
54 603
54 604
54 639
54 655
54 720
54 728
54 770
54 778
55 60
55 90
55 123
55 126
55 150
55 292
55 296
55 316
55 359
55 387
55 428
55 560
55 563
55 682
55 686
55 699
55 782
55 834
55 896
55 943
55 963
56 78
56 92
56 103
56 114
56 118
56 160
56 181
56 199
56 224
56 270
56 293
56 416
56 594
56 628
56 652
56 660
56 665
56 720
56 976
57 61
57 93
57 285
57 304
57 307
57 321
57 445
57 484
57 555
57 570
57 820
57 862
57 898
57 930
57 970
58 89
58 92
58 102
58 114
58 118
58 146
58 153
58 162
58 178
58 220
58 270
58 331
58 384
58 409
58 421
58 441
58 568
58 594
58 603
58 614
58 639
58 652
58 717
58 770
58 872
58 985
59 77
59 92
59 98
59 103
59 114
59 116
59 118
59 134
59 162
59 214
59 220
59 224
59 319
59 331
59 384
59 423
59 540
59 609
59 632
59 649
59 652
59 655
59 660
59 665
59 685
59 698
59 710
59 720
59 749
59 756
59 778
59 801
59 842
59 843
59 856
59 872
60 126
60 170
60 203
60 217
60 292
60 316
60 387
60 482
60 552
60 563
60 594
60 699
60 700
60 943
60 986
61 88
61 170
61 275
61 285
61 308
61 309
61 315
61 321
61 388
61 813
61 820
61 861
61 970
62 68
62 76
62 94
62 98
62 99
62 105
62 107
62 111
62 112
62 117
62 131
62 136
62 169
62 232
62 235
62 255
62 273
62 324
62 328
62 330
62 394
62 432
62 433
62 434
62 437
62 444
62 446
62 451
62 462
62 476
62 480
62 481
62 498
62 500
62 506
62 508
62 514
62 517
62 520
62 522
62 523
62 524
62 529
62 530
62 533
62 539
62 558
62 564
62 572
62 581
62 589
62 603
62 647
62 648
62 651
62 654
62 658
62 671
62 713
62 716
62 723
62 724
62 752
62 772
62 780
62 802
62 853
62 889
62 923
62 948
62 962
62 972
62 974
62 976
62 979
62 984
62 986
62 993
62 996
63 104
63 105
63 129
63 172
63 196
63 200
63 247
63 289
63 408
63 443
63 463
63 468
63 503
63 512
63 547
63 611
63 627
63 643
63 659
63 705
63 867
63 873
63 924
63 982
63 985
64 65
64 82
64 91
64 193
64 260
64 356
64 365
64 408
64 410
64 485
64 494
64 510
64 531
64 619
64 680
64 733
64 741
64 849
64 852
64 854
64 866
64 874
64 896
64 907
64 908
64 914
64 940
64 961
64 997
65 74
65 82
65 112
65 149
65 176
65 260
65 318
65 365
65 366
65 478
65 605
65 619
65 662
65 680
65 730
65 760
65 824
65 841
65 849
65 869
65 889
65 914
65 918
65 920
65 952
65 956
65 975
66 67
66 184
66 185
66 190
66 333
66 370
66 505
66 582
66 584
66 702
66 706
66 712
66 743
66 781
66 808
66 827
66 909
66 958
66 971
66 983
66 989
67 81
67 183
67 184
67 333
67 370
67 428
67 582
67 584
67 702
67 706
67 712
67 743
67 768
67 781
67 808
67 827
67 882
67 909
67 958
67 971
67 989
68 98
68 131
68 177
68 432
68 472
68 476
68 480
68 498
68 500
68 520
68 523
68 524
68 529
68 533
68 564
68 589
68 656
68 667
68 671
68 824
68 945
68 960
68 966
68 972
68 984
69 78
69 363
69 394
69 453
69 469
69 485
69 499
69 520
69 587
69 663
69 672
69 703
69 837
69 889
69 896
69 914
69 983
70 142
70 150
70 151
70 179
70 265
70 271
70 272
70 448
70 467
70 486
70 496
70 539
70 549
70 620
70 630
70 688
70 726
70 760
70 779
70 798
70 910
70 927
71 139
71 143
71 164
71 192
71 334
71 449
71 480
71 498
71 504
71 505
71 618
71 640
71 830
71 832
71 845
71 879
71 900
71 926
71 937
72 91
72 149
72 210
72 257
72 350
72 366
72 444
72 557
72 605
72 619
72 649
72 680
72 695
72 837
72 847
72 866
72 912
72 946
72 955
73 87
73 242
73 248
73 322
73 441
73 477
73 595
73 625
73 645
73 708
73 795
73 801
73 812
73 814
73 815
73 835
73 980
73 995
74 99
74 478
74 494
74 499
74 555
74 605
74 619
74 649
74 730
74 837
74 855
74 869
74 889
74 896
74 911
74 914
74 918
74 931
74 952
74 955
74 983
75 128
75 252
75 267
75 279
75 282
75 335
75 360
75 371
75 635
75 731
75 747
75 774
75 775
75 794
75 800
75 865
75 885
75 925
75 964
76 83
76 99
76 111
76 175
76 182
76 193
76 212
76 273
76 300
76 330
76 417
76 432
76 433
76 434
76 446
76 447
76 451
76 476
76 479
76 480
76 481
76 498
76 518
76 520
76 522
76 524
76 529
76 530
76 533
76 558
76 564
76 599
76 603
76 648
76 656
76 667
76 687
76 713
76 716
76 725
76 769
76 772
76 786
76 802
76 859
76 928
76 945
76 948
76 959
76 965
76 972
76 984
76 986
76 993
76 996
77 102
77 118
77 122
77 162
77 178
77 181
77 197
77 199
77 372
77 384
77 632
77 652
77 665
77 676
77 720
77 721
77 728
78 89
78 92
78 102
78 109
78 116
78 146
78 153
78 160
78 220
78 224
78 241
78 277
78 384
78 401
78 409
78 498
78 576
78 594
78 604
78 608
78 609
78 615
78 628
78 652
78 685
78 728
79 88
79 93
79 308
79 309
79 344
79 389
79 553
79 570
79 669
79 820
79 836
80 124
80 140
80 151
80 184
80 203
80 205
80 209
80 228
80 231
80 244
80 429
80 476
80 540
80 600
80 651
80 669
80 734
80 760
80 765
80 779
80 813
80 848
80 883
80 887
80 949
80 967
81 148
81 242
81 248
81 291
81 318
81 324
81 367
81 376
81 383
81 429
81 451
81 542
81 578
81 592
81 795
81 801
81 812
81 821
81 835
81 995
82 257
82 349
82 356
82 368
82 394
82 411
82 415
82 485
82 538
82 587
82 619
82 703
82 714
82 730
82 777
82 874
82 876
82 913
82 914
82 997
83 111
83 131
83 174
83 177
83 312
83 498
83 529
83 564
83 581
83 725
83 786
83 811
83 957
83 965
83 972
83 986
84 114
84 197
84 209
84 384
84 412
84 594
84 628
84 639
84 652
84 666
84 689
84 690
84 716
84 717
84 749
84 843
84 856
85 147
85 215
85 254
85 274
85 298
85 316
85 347
85 354
85 383
85 451
85 519
85 555
85 644
85 727
85 788
85 857
85 860
85 864
85 871
85 893
85 951
86 106
86 161
86 228
86 299
86 420
86 495
86 540
86 748
86 754
86 760
86 790
86 816
86 936
87 106
87 248
87 291
87 367
87 442
87 532
87 544
87 573
87 578
87 783
87 801
87 821
87 835
87 928
87 995
88 110
88 285
88 307
88 308
88 315
88 321
88 330
88 377
88 389
88 570
88 813
88 956
88 970
89 160
89 178
89 181
89 199
89 216
89 220
89 270
89 372
89 384
89 409
89 594
89 601
89 615
89 632
89 666
89 685
89 717
89 721
89 722
89 749
89 756
89 770
89 771
89 778
89 810
89 842
89 843
89 856
90 126
90 170
90 217
90 292
90 296
90 316
90 387
90 426
90 482
90 551
90 552
90 560
90 563
90 699
90 782
90 829
90 834
90 943
90 963
91 119
91 246
91 328
91 340
91 350
91 395
91 496
91 511
91 535
91 538
91 550
91 583
91 587
91 633
91 649
91 653
91 680
91 703
91 730
91 733
91 849
91 850
91 855
91 908
91 912
91 942
91 946
91 952
91 956
91 997
91 999
92 122
92 160
92 197
92 199
92 233
92 349
92 384
92 390
92 423
92 439
92 520
92 609
92 614
92 639
92 652
92 698
92 771
92 778
92 842
92 843
93 304
93 306
93 309
93 315
93 389
93 548
93 820
93 832
93 970
94 98
94 136
94 177
94 255
94 433
94 435
94 473
94 476
94 498
94 525
94 529
94 530
94 564
94 603
94 647
94 654
94 667
94 716
94 765
94 772
94 976
94 984
95 150
95 179
95 231
95 236
95 290
95 332
95 401
95 460
95 527
95 540
95 542
95 625
95 760
95 883
95 891
96 163
96 166
96 219
96 261
96 386
96 403
96 498
96 553
96 674
96 763
96 764
96 875
96 880
96 954
97 140
97 143
97 180
97 223
97 302
97 379
97 430
97 479
97 490
97 502
97 519
97 606
97 697
97 739
97 805
97 904
97 923
97 990
97 991
98 105
98 131
98 162
98 182
98 212
98 235
98 255
98 281
98 294
98 312
98 434
98 435
98 437
98 444
98 462
98 472
98 480
98 498
98 506
98 508
98 514
98 520
98 524
98 529
98 533
98 558
98 564
98 581
98 599
98 647
98 667
98 723
98 769
98 772
98 786
98 799
98 802
98 853
98 892
98 974
98 984
99 137
99 273
99 281
99 433
99 447
99 462
99 476
99 480
99 506
99 524
99 581
99 671
99 687
99 695
99 716
99 780
99 948
99 993
100 148
100 208
100 242
100 248
100 318
100 324
100 532
100 536
100 544
100 770
100 780
100 814
100 815
100 833
100 980
100 995
101 163
101 219
101 259
101 261
101 266
101 283
101 363
101 403
101 417
101 540
101 645
101 673
101 674
101 715
101 738
101 764
101 807
101 809
101 859
101 881
101 951
102 103
102 114
102 146
102 181
102 305
102 384
102 576
102 586
102 607
102 609
102 639
102 924
103 114
103 122
103 127
103 134
103 137
103 178
103 214
103 220
103 228
103 233
103 262
103 313
103 319
103 372
103 394
103 409
103 412
103 423
103 456
103 586
103 604
103 609
103 614
103 639
103 655
103 666
103 671
103 717
103 770
103 932
104 129
104 366
104 463
104 468
104 497
104 503
104 789
104 849
104 867
104 924
104 958
105 131
105 169
105 232
105 262
105 273
105 437
105 451
105 473
105 476
105 498
105 508
105 514
105 517
105 520
105 564
105 629
105 671
105 687
105 725
105 733
105 811
105 929
105 974
106 144
106 299
106 339
106 358
106 495
106 515
106 517
106 577
106 602
106 691
106 748
106 783
106 804
106 816
106 892
106 894
106 933
106 947
107 158
107 171
107 216
107 250
107 373
107 393
107 396
107 461
107 466
107 475
107 617
107 636
107 637
107 677
107 884
107 979
107 981
108 243
108 247
108 341
108 384
108 443
108 468
108 512
108 642
108 873
108 921
108 924
108 925
108 985
109 122
109 137
109 146
109 160
109 162
109 220
109 319
109 372
109 396
109 546
109 549
109 568
109 576
109 594
109 728
109 843
109 972
110 275
110 294
110 304
110 308
110 321
110 353
110 377
110 389
110 516
110 580
110 621
110 820
110 828
110 861
111 117
111 177
111 212
111 255
111 435
111 451
111 462
111 480
111 486
111 498
111 506
111 514
111 520
111 523
111 524
111 533
111 539
111 667
111 719
111 725
111 878
111 965
112 149
112 203
112 204
112 210
112 257
112 285
112 327
112 350
112 395
112 400
112 541
112 587
112 619
112 765
112 956
112 983
113 138
113 141
113 189
113 253
113 262
113 263
113 271
113 278
113 302
113 303
113 343
113 414
113 516
113 528
113 529
113 591
113 620
113 623
113 625
113 651
113 681
113 692
113 705
113 726
113 753
113 763
113 792
113 798
113 804
113 806
113 829
113 888
113 905
113 933
113 969
114 116
114 162
114 181
114 293
114 372
114 384
114 393
114 396
114 406
114 607
114 609
114 614
114 633
114 639
114 665
114 685
114 722
114 749
114 756
114 778
114 838
114 840
114 843
114 903
115 201
115 239
115 337
115 452
115 548
115 646
115 711
115 745
115 750
115 788
115 824
115 886
115 917
115 966
115 973
116 118
116 134
116 137
116 146
116 153
116 181
116 195
116 197
116 214
116 220
116 233
116 270
116 293
116 319
116 331
116 384
116 412
116 416
116 421
116 492
116 568
116 576
116 586
116 604
116 615
116 632
116 652
116 655
116 665
116 669
116 672
116 676
116 710
116 717
116 720
116 732
116 756
116 838
116 842
116 856
116 857
116 891
116 964
117 131
117 177
117 189
117 255
117 273
117 330
117 434
117 435
117 447
117 481
117 498
117 520
117 529
117 530
117 533
117 564
117 622
117 773
117 797
117 948
118 127
118 131
118 160
118 220
118 372
118 384
118 396
118 614
118 710
118 838
118 844
118 873
118 916
118 939
119 150
119 340
119 350
119 358
119 381
119 415
119 584
119 587
119 631
119 741
119 849
119 889
119 911
119 912
119 913
119 914
119 950
119 967
119 975
120 142
120 267
120 276
120 284
120 317
120 335
120 731
120 747
120 765
120 774
120 775
120 794
120 800
120 908
121 125
121 275
121 294
121 309
121 315
121 329
121 389
121 553
121 570
121 813
121 820
121 970
122 215
122 220
122 372
122 438
122 520
122 614
122 615
122 698
122 721
122 737
122 843
123 133
123 135
123 155
123 171
123 216
123 242
123 250
123 278
123 361
123 372
123 393
123 425
123 493
123 566
123 636
123 640
123 684
123 767
123 877
123 895
123 953
123 979
124 243
124 326
124 343
124 439
124 486
124 489
124 585
124 623
124 641
124 664
124 784
124 888
124 901
124 913
124 988
125 285
125 294
125 304
125 307
125 308
125 309
125 315
125 321
125 593
125 907
125 930
125 970
126 170
126 217
126 234
126 292
126 296
126 316
126 359
126 369
126 387
126 506
126 552
126 563
126 632
126 699
126 700
126 782
126 834
126 889
126 963
127 162
127 199
127 214
127 409
127 476
127 568
127 586
127 594
127 604
127 665
127 720
127 771
127 992
128 135
128 171
128 250
128 338
128 352
128 361
128 381
128 392
128 475
128 617
128 677
128 684
128 707
128 777
128 818
128 884
128 981
129 172
129 247
129 283
129 286
129 289
129 364
129 408
129 468
129 503
129 512
129 533
129 642
129 867
129 872
129 873
129 921
129 982
130 170
130 175
130 209
130 243
130 244
130 262
130 448
130 467
130 474
130 501
130 516
130 540
130 554
130 634
130 664
130 690
130 765
130 793
130 804
130 806
130 825
130 927
130 933
131 182
131 244
131 283
131 312
131 347
131 433
131 435
131 476
131 492
131 498
131 506
131 514
131 517
131 520
131 529
131 564
131 572
131 630
131 647
131 648
131 654
131 656
131 658
131 667
131 671
131 687
131 713
131 723
131 746
131 780
131 801
131 853
131 945
131 948
131 960
131 962
131 984
132 278
132 328
132 527
132 528
132 542
132 546
132 555
132 575
132 597
132 611
132 625
132 651
132 672
132 891
133 155
133 167
133 171
133 345
133 347
133 392
133 393
133 425
133 460
133 530
133 559
133 617
133 636
133 637
133 640
133 677
133 678
133 684
133 689
133 767
133 803
133 890
133 953
133 979
133 992
134 135
134 141
134 157
134 162
134 220
134 233
134 384
134 535
134 568
134 576
134 594
134 609
134 614
134 639
134 652
134 698
134 710
134 721
134 749
134 934
135 155
135 250
135 258
135 277
135 361
135 392
135 393
135 545
135 636
135 637
135 640
135 677
135 678
135 684
135 818
135 877
135 884
135 890
135 953
135 979
135 981
135 992
136 150
136 212
136 231
136 437
136 447
136 451
136 498
136 520
136 522
136 523
136 529
136 599
136 658
136 869
137 220
137 412
137 576
137 594
137 607
137 632
137 665
137 666
137 698
137 720
137 778
138 142
138 173
138 236
138 237
138 263
138 337
138 431
138 448
138 509
138 528
138 554
138 561
138 574
138 580
138 634
138 651
138 657
138 690
138 709
138 779
138 784
138 798
138 806
138 828
139 192
139 226
139 230
139 246
139 334
139 493
139 504
139 505
139 618
139 742
139 763
139 830
139 832
139 845
139 879
139 900
139 926
140 209
140 213
140 221
140 229
140 244
140 253
140 262
140 264
140 272
140 283
140 302
140 303
140 414
140 456
140 460
140 580
140 610
140 630
140 634
140 673
140 683
140 693
140 696
140 734
140 751
140 757
140 848
140 868
140 871
140 928
140 935
141 154
141 168
141 228
141 263
141 272
141 320
141 398
141 439
141 470
141 486
141 527
141 561
141 580
141 625
141 693
141 709
141 718
141 736
141 753
141 776
141 789
141 793
141 812
141 871
141 882
142 150
142 173
142 198
142 244
142 259
142 268
142 320
142 338
142 397
142 448
142 460
142 467
142 486
142 542
142 546
142 634
142 651
142 681
142 686
142 798
142 883
142 933
143 180
143 223
143 251
143 277
143 297
143 429
143 430
143 479
143 490
143 502
143 518
143 570
143 695
143 739
143 744
143 805
143 904
143 923
143 990
143 991
144 150
144 161
144 287
144 339
144 353
144 382
144 420
144 495
144 748
144 754
144 783
144 894
144 936
144 947
145 149
145 213
145 257
145 269
145 327
145 358
145 375
145 380
145 381
145 401
145 478
145 590
145 619
145 622
145 631
145 633
145 837
145 854
145 889
145 908
145 909
145 913
145 915
145 918
145 940
145 947
145 956
146 153
146 176
146 372
146 384
146 396
146 568
146 609
146 652
146 655
146 721
146 842
146 843
147 234
147 254
147 256
147 274
147 347
147 358
147 383
147 519
147 541
147 644
147 788
147 857
147 864
147 870
148 291
148 367
148 376
148 428
148 544
148 801
148 812
148 821
148 835
148 980
148 995
149 160
149 193
149 204
149 210
149 269
149 350
149 356
149 368
149 379
149 380
149 381
149 402
149 405
149 411
149 426
149 469
149 510
149 524
149 538
149 550
149 555
149 574
149 583
149 587
149 631
149 652
149 703
149 852
149 889
149 893
149 906
149 913
149 914
149 946
149 956
149 959
149 962
149 983
150 236
150 244
150 253
150 264
150 355
150 429
150 440
150 467
150 486
150 488
150 516
150 534
150 539
150 542
150 554
150 567
150 569
150 585
150 591
150 620
150 638
150 641
150 659
150 668
150 682
150 695
150 734
150 787
150 846
150 883
150 891
150 927
150 935
150 964
150 968
150 995
151 179
151 203
151 228
151 299
151 424
151 439
151 542
151 567
151 591
151 638
151 779
151 928
152 168
152 173
152 209
152 211
152 226
152 231
152 262
152 263
152 276
152 302
152 352
152 431
152 439
152 450
152 498
152 542
152 561
152 613
152 625
152 638
152 673
152 688
152 709
152 765
152 779
153 157
153 224
153 293
153 372
153 384
153 485
153 652
153 732
153 737
153 748
153 770
153 771
153 843
153 872
154 164
154 169
154 173
154 262
154 335
154 423
154 516
154 540
154 569
154 575
154 613
154 651
154 662
154 682
154 693
154 696
154 760
154 763
154 796
154 870
154 928
154 934
155 300
155 361
155 461
155 545
155 588
155 636
155 818
155 957
156 185
156 195
156 302
156 331
156 355
156 509
156 542
156 546
156 549
156 575
156 611
156 680
156 696
156 701
156 726
156 734
156 822
156 836
156 870
156 891
156 902
156 905
156 949
157 162
157 277
157 372
157 586
157 594
157 604
157 607
157 614
157 615
157 658
157 720
157 988
158 216
158 249
158 271
158 373
158 461
158 545
158 672
158 677
158 707
158 718
158 777
158 803
158 884
158 929
158 957
159 203
159 205
159 209
159 231
159 244
159 262
159 440
159 450
159 528
159 542
159 546
159 597
159 625
159 638
159 672
159 697
159 709
159 901
159 935
159 943
160 178
160 181
160 214
160 372
160 396
160 397
160 409
160 412
160 416
160 423
160 444
160 576
160 607
160 632
160 665
160 666
160 698
160 717
160 721
160 722
160 728
160 745
160 755
160 770
160 771
160 856
160 903
161 170
161 231
161 507
161 577
161 602
161 670
161 704
161 748
161 783
161 790
161 816
161 908
162 169
162 181
162 197
162 199
162 233
162 270
162 331
162 372
162 384
162 408
162 416
162 421
162 423
162 586
162 594
162 607
162 609
162 628
162 632
162 639
162 652
162 660
162 663
162 676
162 698
162 710
162 717
162 721
162 728
162 732
162 749
162 778
162 779
162 838
162 840
162 850
162 851
162 859
162 903
163 169
163 219
163 261
163 283
163 309
163 363
163 386
163 395
163 417
163 674
163 711
163 735
163 738
163 755
163 764
163 806
163 807
163 860
163 875
163 880
163 881
163 910
163 951
163 970
164 175
164 203
164 210
164 228
164 231
164 243
164 254
164 263
164 272
164 301
164 424
164 431
164 442
164 467
164 488
164 516
164 549
164 561
164 567
164 574
164 623
164 625
164 651
164 673
164 679
164 690
164 692
164 697
164 726
164 736
164 760
164 779
164 784
164 791
164 793
164 825
164 870
164 871
164 878
164 902
164 910
164 927
165 186
165 187
165 208
165 288
165 399
165 419
165 428
165 534
165 535
165 556
165 574
165 708
165 761
165 762
165 797
165 823
165 826
165 839
165 851
165 929
165 954
166 168
166 179
166 203
166 218
166 244
166 325
166 355
166 549
166 575
166 613
166 616
166 651
166 776
166 846
166 854
166 949
166 967
166 994
167 352
167 361
167 373
167 393
167 617
167 640
167 677
167 684
167 689
167 707
167 818
167 957
168 203
168 205
168 228
168 244
168 253
168 281
168 338
168 355
168 429
168 431
168 448
168 456
168 527
168 542
168 559
168 567
168 630
168 742
168 848
168 870
168 945
169 222
169 370
169 444
169 529
169 530
169 558
169 564
169 599
169 647
169 654
169 656
169 687
169 976
169 984
170 292
170 296
170 359
170 369
170 412
170 453
170 552
170 560
170 563
170 699
170 700
170 794
170 834
170 943
170 963
171 207
171 209
171 300
171 352
171 393
171 552
171 564
171 617
171 631
171 677
171 957
172 200
172 240
172 286
172 341
172 443
172 463
172 468
172 512
172 642
172 867
172 955
172 982
173 175
173 205
173 228
173 231
173 264
173 267
173 278
173 302
173 467
173 476
173 502
173 562
173 659
173 682
173 694
173 804
173 902
173 967
174 182
174 312
174 434
174 435
174 451
174 472
174 476
174 483
174 498
174 508
174 520
174 524
174 529
174 530
174 564
174 595
174 609
174 658
174 671
174 716
174 967
174 995
174 996
175 191
175 262
175 263
175 264
175 290
175 321
175 362
175 412
175 431
175 460
175 465
175 470
175 471
175 534
175 540
175 542
175 549
175 554
175 564
175 567
175 598
175 611
175 634
175 651
175 653
175 662
175 667
175 672
175 673
175 681
175 692
175 757
175 779
175 787
175 793
175 798
175 806
175 907
175 928
176 438
176 482
176 598
176 630
176 634
176 651
176 653
176 657
176 690
176 692
176 742
176 763
176 798
176 848
176 871
176 907
176 927
176 994
177 232
177 351
177 476
177 498
177 506
177 520
177 547
177 581
177 589
177 599
177 651
177 713
177 723
177 769
177 786
177 799
177 802
177 959
177 986
178 215
178 384
178 399
178 639
178 652
178 667
178 701
178 756
178 843
179 191
179 194
179 195
179 201
179 243
179 264
179 278
179 290
179 448
179 470
179 474
179 610
179 623
179 693
179 718
179 757
179 787
179 868
179 871
179 899
179 928
180 223
180 277
180 297
180 379
180 430
180 479
180 490
180 502
180 606
180 739
180 744
180 805
180 854
180 904
180 923
180 934
180 948
180 990
180 991
181 220
181 270
181 293
181 319
181 331
181 372
181 383
181 384
181 421
181 452
181 484
181 604
181 607
181 614
181 615
181 632
181 639
181 655
181 660
181 666
181 698
181 717
181 721
181 728
181 737
181 778
181 994
182 273
182 480
182 520
182 522
182 529
182 542
182 544
182 564
182 629
182 671
182 713
182 955
182 984
183 184
183 314
183 333
183 370
183 590
183 702
183 706
183 712
183 781
183 808
183 827
183 909
183 965
183 971
183 989
184 192
184 333
184 353
184 582
184 584
184 622
184 636
184 706
184 712
184 743
184 781
184 808
184 827
184 894
184 909
184 958
184 971
185 199
185 203
185 502
185 528
185 597
185 630
185 651
185 662
185 668
185 757
185 785
185 792
185 891
185 952
186 208
186 262
186 288
186 305
186 399
186 428
186 535
186 556
186 708
186 761
186 762
186 797
186 823
186 826
186 839
186 880
186 977
187 208
187 305
187 399
187 419
187 535
187 639
187 677
187 762
187 772
187 797
187 823
187 839
187 851
187 953
187 977
188 258
188 287
188 310
188 323
188 390
188 407
188 413
188 436
188 521
188 537
188 566
188 571
188 595
188 650
188 661
188 773
189 195
189 210
189 244
189 262
189 355
189 373
189 424
189 488
189 528
189 574
189 597
189 613
189 674
189 683
189 694
189 760
189 765
189 901
189 933
190 192
190 230
190 286
190 376
190 413
190 455
190 493
190 504
190 514
190 719
190 832
190 845
190 879
190 900
190 926
190 941
190 964
191 256
191 263
191 264
191 355
191 362
191 469
191 574
191 598
191 611
191 613
191 630
191 686
191 690
191 848
191 928
191 933
191 979
192 230
192 291
192 449
192 505
192 618
192 719
192 830
192 832
192 845
192 879
192 900
192 911
192 990
193 198
193 328
193 366
193 401
193 494
193 516
193 565
193 619
193 622
193 661
193 714
193 845
193 850
193 883
193 889
193 896
193 914
193 943
193 964
193 975
194 233
194 244
194 456
194 542
194 569
194 574
194 600
194 623
194 673
194 703
194 746
194 757
194 798
194 868
194 901
194 963
195 202
195 209
195 244
195 263
195 271
195 278
195 302
195 343
195 359
195 362
195 397
195 424
195 429
195 431
195 440
195 458
195 491
195 559
195 574
195 594
195 651
195 668
195 690
195 692
195 729
195 765
195 796
195 798
195 804
195 805
195 806
195 868
195 944
196 247
196 286
196 289
196 408
196 468
196 547
196 705
196 757
196 789
196 873
196 921
196 924
196 982
197 220
197 421
197 465
197 576
197 586
197 607
197 609
197 614
197 652
197 704
197 889
198 228
198 260
198 262
198 263
198 302
198 456
198 549
198 591
198 613
198 625
198 683
198 690
198 764
198 846
198 910
199 220
199 233
199 331
199 342
199 372
199 396
199 412
199 609
199 652
199 665
199 722
199 756
200 341
200 634
200 775
200 789
200 867
200 924
200 932
201 337
201 406
201 454
201 466
201 624
201 646
201 665
201 711
201 745
201 774
201 781
201 824
202 209
202 213
202 253
202 263
202 265
202 355
202 489
202 546
202 574
202 654
202 681
202 686
202 763
202 806
202 819
202 848
202 870
202 933
203 228
203 243
203 323
203 325
203 348
203 418
203 438
203 439
203 440
203 448
203 450
203 456
203 457
203 458
203 465
203 471
203 491
203 527
203 546
203 567
203 568
203 569
203 591
203 600
203 616
203 620
203 626
203 655
203 664
203 671
203 672
203 736
203 742
203 746
203 763
203 785
203 798
203 806
203 846
203 883
203 916
203 922
203 927
203 944
203 948
203 988
203 994
204 253
204 368
204 531
204 565
204 619
204 702
204 714
204 855
204 889
204 908
204 914
205 209
205 228
205 253
205 262
205 278
205 336
205 391
205 398
205 414
205 438
205 448
205 450
205 459
205 597
205 598
205 606
205 612
205 690
205 729
205 746
205 753
205 757
205 899
205 910
205 920
205 935
206 228
206 287
206 310
206 407
206 436
206 521
206 650
206 661
206 874
207 391
207 393
207 617
207 631
207 640
207 677
207 693
207 818
207 928
207 981
208 288
208 305
208 399
208 419
208 535
208 556
208 573
208 708
208 797
208 823
208 826
208 839
208 954
209 228
209 236
209 244
209 249
209 278
209 283
209 302
209 424
209 431
209 439
209 458
209 467
209 483
209 501
209 528
209 561
209 565
209 612
209 634
209 653
209 662
209 692
209 694
209 729
209 753
209 791
209 870
209 883
209 887
209 901
209 910
209 916
209 949
209 988
209 994
210 356
210 358
210 469
210 510
210 587
210 703
210 874
210 876
210 889
210 914
210 918
210 919
210 955
211 213
211 243
211 264
211 332
211 489
211 501
211 542
211 548
211 549
211 554
211 571
211 675
211 690
211 692
211 763
211 792
211 868
211 899
212 273
212 312
212 432
212 433
212 461
212 476
212 498
212 520
212 529
212 558
212 647
212 658
212 729
212 854
212 925
212 960
212 984
213 253
213 263
213 271
213 277
213 278
213 290
213 336
213 338
213 355
213 362
213 439
213 448
213 467
213 471
213 516
213 580
213 630
213 672
213 673
213 675
213 692
213 714
213 718
213 793
213 798
213 806
213 883
213 928
213 933
214 259
214 313
214 372
214 384
214 576
214 604
214 614
214 676
214 692
214 710
214 732
214 770
214 798
215 234
215 254
215 256
215 347
215 354
215 541
215 543
215 573
215 617
215 644
215 727
215 788
215 857
215 864
216 249
216 352
216 461
216 488
216 617
216 637
216 677
216 689
216 803
216 818
216 929
216 950
216 957
216 979
217 359
217 387
217 482
217 498
217 552
217 617
217 782
217 943
217 963
218 229
218 243
218 253
218 424
218 467
218 470
218 489
218 540
218 563
218 569
218 613
218 625
218 638
218 653
218 663
218 742
218 779
218 792
218 796
218 802
218 806
218 817
219 259
219 261
219 266
219 283
219 356
219 363
219 375
219 386
219 403
219 525
219 674
219 715
219 738
219 809
219 859
219 880
219 881
219 951
220 233
220 248
220 265
220 317
220 337
220 372
220 423
220 495
220 528
220 550
220 604
220 609
220 639
220 655
220 665
220 688
220 717
220 737
220 842
220 843
220 856
220 872
220 941
221 231
221 263
221 264
221 362
221 591
221 625
221 641
221 651
221 697
221 701
221 763
221 824
221 992
222 227
222 252
222 267
222 276
222 295
222 317
222 335
222 360
222 371
222 483
222 487
222 588
222 635
222 747
222 774
222 775
222 794
222 800
222 844
222 865
222 874
222 978
223 251
223 277
223 297
223 362
223 479
223 502
223 606
223 739
223 744
223 749
223 805
223 904
223 923
223 990
224 270
224 293
224 331
224 384
224 421
224 594
224 604
224 614
224 624
224 632
224 652
224 665
224 671
224 710
224 721
224 843
224 855
224 902
225 236
225 355
225 467
225 516
225 526
225 573
225 574
225 630
225 651
225 692
225 709
225 746
225 765
225 798
225 870
225 938
225 994
226 230
226 324
226 450
226 455
226 493
226 505
226 602
226 618
226 830
226 832
226 845
226 879
226 900
226 926
226 989
227 279
227 295
227 317
227 335
227 371
227 458
227 483
227 794
227 800
227 810
227 885
228 290
228 326
228 336
228 391
228 397
228 398
228 438
228 440
228 459
228 460
228 465
228 470
228 509
228 516
228 534
228 540
228 546
228 559
228 565
228 580
228 591
228 597
228 598
228 603
228 611
228 620
228 623
228 630
228 641
228 651
228 657
228 659
228 675
228 682
228 697
228 709
228 718
228 726
228 738
228 753
228 758
228 760
228 765
228 779
228 787
228 791
228 793
228 798
228 806
228 808
228 822
228 829
228 846
228 848
228 868
228 871
228 916
228 935
228 949
228 988
229 234
229 263
229 302
229 325
229 362
229 429
229 467
229 539
229 540
229 561
229 613
229 616
229 620
229 686
229 690
229 692
229 753
229 774
229 798
229 806
229 831
230 261
230 334
230 413
230 455
230 504
230 505
230 618
230 719
230 746
230 758
230 793
230 830
230 832
230 845
230 926
230 975
231 237
231 271
231 302
231 303
231 330
231 332
231 338
231 343
231 489
231 516
231 534
231 539
231 540
231 542
231 554
231 575
231 580
231 591
231 598
231 599
231 614
231 620
231 626
231 634
231 668
231 673
231 679
231 690
231 718
231 729
231 757
231 779
231 796
231 836
231 868
231 876
231 949
232 273
232 432
232 514
232 517
232 523
232 524
232 529
232 564
232 648
232 654
232 671
232 780
232 802
232 959
233 251
233 372
233 604
233 637
233 721
233 737
233 749
234 254
234 274
234 347
234 727
234 788
234 857
234 864
234 881
235 476
235 515
235 518
235 520
235 564
235 603
235 647
235 658
235 671
235 772
235 780
236 265
236 325
236 355
236 362
236 442
236 465
236 467
236 528
236 542
236 620
236 635
236 690
236 755
236 757
236 765
236 791
236 848
236 870
236 888
236 933
236 944
236 994
237 253
237 268
237 422
237 431
237 574
237 576
237 634
237 641
237 675
237 682
237 686
237 690
237 804
237 821
237 927
237 928
238 267
238 279
238 284
238 324
238 371
238 483
238 588
238 635
238 731
238 794
238 800
238 837
238 865
239 371
239 454
239 466
239 646
239 693
239 711
239 750
239 897
239 966
240 258
240 287
240 310
240 390
240 407
240 571
240 650
240 832
241 248
241 291
241 367
241 532
241 536
241 544
241 795
241 933
241 934
241 980
241 995
242 248
242 291
242 318
242 322
242 324
242 348
242 367
242 441
242 477
242 536
242 544
242 645
242 647
242 795
242 812
242 815
242 819
242 821
242 835
242 937
242 942
242 995
242 998
243 263
243 264
243 268
243 537
243 540
243 561
243 613
243 620
243 634
243 651
243 697
243 751
243 791
243 794
243 798
243 858
243 933
243 949
244 262
244 265
244 272
244 278
244 290
244 367
244 429
244 456
244 457
244 480
244 496
244 509
244 549
244 598
244 610
244 612
244 613
244 626
244 641
244 695
244 726
244 760
244 787
244 817
244 828
244 846
244 868
244 870
244 883
244 988
244 990
245 248
245 403
245 536
245 544
245 795
245 801
245 835
245 980
245 995
246 283
246 309
246 334
246 413
246 449
246 501
246 505
246 618
246 830
246 832
246 845
246 879
246 926
246 941
247 289
247 341
247 443
247 463
247 468
247 547
247 627
247 642
247 832
248 318
248 324
248 367
248 376
248 404
248 464
248 536
248 542
248 544
248 555
248 573
248 578
248 592
248 645
248 652
248 716
248 801
248 812
248 814
248 815
248 819
248 821
248 833
248 835
248 846
248 863
248 934
248 937
248 980
248 995
248 998
249 361
249 425
249 611
249 637
249 677
249 777
249 803
249 918
249 953
249 979
249 981
249 992
250 373
250 393
250 475
250 545
250 608
250 617
250 657
250 684
250 712
250 803
250 818
250 877
250 894
250 908
250 957
250 979
251 277
251 430
251 467
251 479
251 502
251 744
251 805
251 923
251 990
252 267
252 279
252 317
252 335
252 371
252 588
252 775
252 794
252 800
253 264
253 278
253 323
253 326
253 327
253 336
253 380
253 456
253 459
253 467
253 470
253 491
253 492
253 528
253 537
253 545
253 569
253 574
253 585
253 598
253 611
253 616
253 630
253 653
253 664
253 669
253 690
253 692
253 729
253 736
253 745
253 763
253 765
253 776
253 792
253 804
253 806
253 822
253 823
253 825
253 831
253 848
253 870
253 871
253 883
253 891
253 899
253 901
253 907
253 928
253 933
254 262
254 274
254 298
254 354
254 383
254 541
254 722
254 727
254 743
254 860
254 864
254 883
255 302
255 446
255 447
255 451
255 472
255 517
255 524
255 530
255 533
255 599
255 607
255 687
255 752
255 786
255 831
255 965
255 976
256 274
256 298
256 346
256 347
256 541
256 644
256 727
256 788
256 795
256 857
256 864
257 340
257 350
257 557
257 714
257 850
257 854
257 889
257 912
257 932
257 942
257 950
257 955
257 982
257 997
258 262
258 287
258 310
258 311
258 390
258 427
258 436
258 521
258 539
258 566
258 571
258 595
258 650
258 773
258 785
258 978
258 987
259 261
259 266
259 283
259 417
259 706
259 715
259 764
259 875
259 951
260 368
260 381
260 394
260 437
260 476
260 485
260 532
260 596
260 605
260 619
260 633
260 703
260 818
260 854
260 870
260 875
260 889
260 900
260 913
260 956
260 961
260 975
261 283
261 335
261 363
261 386
261 403
261 476
261 525
261 703
261 714
261 715
261 735
261 738
261 764
261 809
261 859
261 880
261 881
261 951
262 263
262 264
262 301
262 302
262 320
262 343
262 422
262 470
262 486
262 488
262 509
262 539
262 563
262 574
262 623
262 625
262 638
262 675
262 683
262 690
262 719
262 729
262 746
262 760
262 765
262 792
262 804
262 806
262 822
262 825
262 831
262 848
262 863
262 864
262 870
262 871
262 883
262 891
262 910
262 916
262 927
262 949
263 271
263 302
263 355
263 357
263 370
263 397
263 399
263 429
263 460
263 471
263 491
263 516
263 562
263 585
263 623
263 625
263 673
263 674
263 686
263 701
263 726
263 742
263 746
263 791
263 796
263 798
263 831
263 863
263 883
263 891
263 899
263 994
264 284
264 336
264 355
264 429
264 539
264 546
264 562
264 598
264 608
264 613
264 641
264 657
264 675
264 825
264 848
264 862
264 871
264 910
264 933
265 625
265 626
265 690
265 729
265 757
265 777
265 928
265 968
265 979
266 363
266 386
266 403
266 417
266 691
266 735
266 738
266 764
266 859
266 875
266 881
266 951
267 270
267 276
267 282
267 284
267 317
267 371
267 483
267 487
267 551
267 635
267 674
267 716
267 731
267 747
267 780
267 794
267 810
267 844
267 885
267 925
268 278
268 292
268 303
268 528
268 559
268 590
268 651
268 699
268 765
268 860
269 357
269 381
269 411
269 550
269 837
269 850
269 854
269 866
269 869
269 889
269 912
269 915
269 921
270 384
270 396
270 576
270 594
270 614
270 628
270 652
270 721
270 798
271 278
271 355
271 436
271 467
271 491
271 496
271 539
271 575
271 613
271 634
271 692
271 718
271 753
271 779
271 949
271 980
272 278
272 359
272 540
272 580
272 585
272 623
272 630
272 651
272 692
272 776
272 779
272 806
272 863
272 933
273 403
273 406
273 432
273 444
273 446
273 451
273 472
273 498
273 514
273 518
273 520
273 522
273 523
273 524
273 529
273 530
273 558
273 564
273 581
273 599
273 612
273 629
273 647
273 656
273 671
273 752
273 769
273 786
273 896
273 959
273 974
274 346
274 347
274 366
274 519
274 541
274 644
274 727
274 788
274 857
274 860
274 864
275 285
275 294
275 306
275 308
275 309
275 315
275 344
275 379
275 389
275 593
275 813
275 820
275 862
275 970
276 284
276 295
276 371
276 483
276 551
276 731
276 774
276 775
276 794
276 800
276 810
276 885
276 905
276 925
277 297
277 379
277 430
277 479
277 502
277 606
277 744
277 805
277 904
277 909
277 923
277 990
278 283
278 289
278 336
278 338
278 343
278 397
278 424
278 429
278 431
278 448
278 458
278 460
278 465
278 467
278 540
278 542
278 546
278 567
278 585
278 591
278 603
278 613
278 656
278 657
278 679
278 680
278 681
278 682
278 683
278 690
278 694
278 696
278 709
278 753
278 763
278 828
278 829
278 871
278 899
278 910
278 928
278 955
278 994
279 282
279 284
279 295
279 313
279 317
279 335
279 425
279 635
279 731
279 774
279 775
279 794
279 810
279 844
279 865
279 925
280 357
280 454
280 466
280 505
280 624
280 646
280 745
280 750
280 766
280 824
280 897
281 383
281 432
281 444
281 451
281 472
281 476
281 480
281 498
281 520
281 524
281 529
281 530
281 564
281 671
281 725
281 786
281 960
281 962
282 284
282 295
282 303
282 317
282 335
282 371
282 437
282 551
282 588
282 635
282 731
282 747
282 774
282 775
282 794
282 925
283 363
283 386
283 403
283 529
283 683
283 735
283 809
283 859
283 875
283 951
284 291
284 317
284 335
284 371
284 483
284 551
284 635
284 704
284 741
284 774
284 775
284 794
284 800
284 827
284 885
284 925
284 933
285 306
285 307
285 308
285 321
285 344
285 377
285 378
285 389
285 445
285 500
285 548
285 570
285 593
285 813
285 823
285 861
285 862
285 898
285 970
286 289
286 341
286 364
286 426
286 468
286 512
286 549
286 618
286 627
286 643
286 867
286 873
286 897
286 985
287 310
287 311
287 390
287 407
287 427
287 436
287 566
287 571
287 595
287 650
287 661
287 773
287 785
287 794
287 851
287 978
287 987
288 399
288 419
288 535
288 556
288 680
288 708
288 761
288 797
288 823
288 826
288 914
288 954
289 463
289 468
289 627
289 705
289 789
289 819
289 873
289 882
289 921
289 924
289 985
290 374
290 431
290 448
290 542
290 636
290 651
290 690
290 763
290 796
290 836
290 902
291 318
291 536
291 544
291 768
291 790
291 795
291 801
291 812
291 814
291 815
291 819
291 833
291 835
291 995
292 312
292 369
292 387
292 482
292 552
292 560
292 563
292 699
292 700
292 782
292 793
292 834
292 890
292 963
293 384
293 594
293 604
293 606
293 609
293 615
293 660
293 709
293 951
293 952
294 307
294 308
294 309
294 329
294 353
294 362
294 389
294 445
294 525
294 570
294 593
294 648
294 820
294 978
295 317
295 335
295 360
295 371
295 483
295 588
295 635
295 731
295 735
295 753
295 794
295 800
295 865
295 885
296 316
296 482
296 560
296 563
296 699
296 782
296 834
296 896
296 939
296 943
297 379
297 479
297 490
297 502
297 610
297 744
297 805
297 812
297 837
297 850
297 863
297 904
297 990
297 991
298 346
298 347
298 354
298 383
298 500
298 541
298 641
298 788
298 857
298 864
298 898
299 380
299 420
299 515
299 554
299 577
299 602
299 670
299 691
299 754
299 759
299 783
299 790
299 816
299 947
300 352
300 483
300 545
300 640
300 677
300 725
300 818
300 877
300 957
300 979
300 981
301 526
301 600
301 611
301 625
301 760
301 798
301 804
301 850
301 913
302 320
302 326
302 342
302 362
302 384
302 391
302 398
302 429
302 455
302 456
302 471
302 600
302 613
302 619
302 634
302 675
302 681
302 718
302 742
302 760
302 765
302 787
302 798
302 806
302 831
302 863
302 883
302 891
302 933
302 935
302 944
302 967
302 977
302 980
303 431
303 467
303 526
303 534
303 540
303 561
303 613
303 623
303 651
303 760
303 765
303 784
303 935
304 306
304 307
304 353
304 355
304 378
304 388
304 389
304 445
304 484
304 570
304 593
304 621
304 667
304 820
304 862
304 898
304 930
304 970
304 997
305 372
305 399
305 428
305 563
305 761
305 797
305 821
305 823
305 826
305 839
305 851
305 954
305 977
306 309
306 321
306 377
306 512
306 548
306 553
306 570
306 593
306 621
306 820
306 862
306 940
307 308
307 309
307 329
307 344
307 389
307 526
307 548
307 553
307 570
307 576
307 820
307 920
308 309
308 315
308 329
308 344
308 353
308 377
308 378
308 388
308 389
308 441
308 445
308 484
308 548
308 553
308 593
308 621
308 706
308 813
308 820
308 861
308 862
308 864
308 930
309 315
309 335
309 344
309 353
309 377
309 388
309 389
309 445
309 484
309 548
309 651
309 820
309 898
310 311
310 407
310 538
310 650
310 661
310 665
310 773
310 785
311 407
311 575
311 595
311 599
311 651
311 661
311 773
311 868
311 987
312 523
312 536
312 647
312 656
312 658
312 687
312 713
312 731
312 752
312 780
312 822
312 975
312 993
313 412
313 639
313 652
313 665
313 685
313 732
313 800
313 840
314 333
314 372
314 377
314 582
314 584
314 702
314 706
314 731
314 743
314 768
314 781
314 808
314 882
315 321
315 329
315 364
315 378
315 388
315 484
315 548
315 570
315 593
315 602
315 619
315 621
315 639
315 698
315 820
315 834
315 861
315 867
315 869
315 952
315 970
316 337
316 387
316 450
316 482
316 552
316 560
316 699
316 700
316 834
316 898
316 943
316 983
317 335
317 371
317 487
317 547
317 588
317 731
317 794
317 800
317 863
318 324
318 351
318 367
318 496
318 544
318 578
318 795
318 801
318 814
318 832
318 835
318 995
319 384
319 428
319 576
319 594
319 604
319 632
319 660
319 717
320 516
320 528
320 578
320 612
320 690
320 709
320 729
320 746
321 329
321 344
321 378
321 389
321 476
321 553
321 570
321 621
321 813
321 862
321 877
321 898
321 934
321 970
322 324
322 348
322 404
322 441
322 532
322 573
322 645
322 656
322 795
322 812
322 814
322 819
322 980
322 995
323 355
323 450
323 540
323 554
323 574
323 598
323 625
323 626
323 651
323 690
323 746
323 798
324 389
324 404
324 477
324 532
324 536
324 573
324 611
324 795
324 801
324 812
324 814
324 815
324 833
324 934
324 937
324 980
324 995
325 367
325 467
325 534
325 569
325 591
325 625
325 651
325 692
325 804
325 949
326 355
326 429
326 542
326 598
326 607
326 613
326 638
326 673
326 726
326 760
326 776
326 928
326 949
327 341
327 374
327 381
327 422
327 510
327 605
327 619
327 733
327 776
327 850
327 854
327 908
327 912
327 918
327 931
327 946
327 983
328 401
328 415
328 494
328 511
328 557
328 619
328 631
328 703
328 837
328 841
328 950
328 961
329 344
329 378
329 389
329 548
329 593
329 676
329 820
329 840
329 861
329 862
329 898
330 367
330 472
330 476
330 524
330 533
330 564
330 572
330 603
330 647
330 654
330 660
330 769
330 976
330 994
331 372
331 384
331 560
331 568
331 594
331 609
331 639
331 672
331 685
331 710
331 721
331 722
331 737
331 771
331 838
331 854
331 872
332 516
332 597
332 625
332 651
332 672
332 709
332 782
332 798
332 870
332 891
332 933
333 370
333 524
333 584
333 702
333 706
333 743
333 768
333 781
333 808
333 824
333 827
333 882
333 909
333 958
334 413
334 449
334 505
334 618
334 832
334 879
334 891
334 900
334 926
335 360
335 371
335 464
335 483
335 588
335 635
335 731
335 747
335 774
335 775
335 783
335 794
335 800
335 810
335 844
335 865
335 872
335 885
335 925
335 984
336 351
336 516
336 528
336 580
336 760
337 340
337 406
337 454
337 624
337 646
337 711
337 745
337 824
337 949
337 973
338 459
338 467
338 474
338 549
338 561
338 567
338 574
338 625
338 709
338 736
339 382
339 420
339 515
339 602
339 670
339 671
339 691
339 704
339 748
339 754
339 783
339 790
339 895
339 936
339 947
340 366
340 381
340 405
340 469
340 496
340 516
340 531
340 582
340 619
340 680
340 731
340 852
340 854
340 876
340 896
340 983
340 997
341 364
341 468
341 497
341 503
341 512
341 627
341 643
341 705
341 764
341 873
341 921
341 924
341 985
342 356
342 358
342 402
342 550
342 555
342 601
342 625
342 633
342 649
342 854
342 889
342 908
342 952
343 453
343 478
343 542
343 545
343 630
343 651
343 763
343 806
343 817
344 480
344 813
345 366
345 374
345 380
345 381
345 395
345 400
345 557
345 605
345 619
345 649
345 714
345 733
345 854
345 906
345 950
345 961
346 347
346 354
346 389
346 519
346 551
346 644
346 727
346 788
346 864
347 354
347 383
347 519
347 541
347 691
347 763
347 788
347 857
347 860
347 864
347 988
348 404
348 633
348 812
348 814
348 821
348 937
348 995
349 395
349 478
349 587
349 605
349 633
349 714
349 788
349 854
349 858
349 869
349 889
349 903
349 911
349 955
350 365
350 368
350 385
350 402
350 411
350 550
350 619
350 663
350 714
350 790
350 810
350 869
350 911
350 912
350 918
350 931
350 946
350 975
351 370
351 404
351 517
351 536
351 544
351 725
351 795
351 801
351 812
351 821
351 917
351 995
352 461
352 475
352 543
352 617
352 640
352 677
352 678
352 684
352 707
352 803
352 818
352 953
353 389
353 593
353 616
353 813
353 820
353 898
354 383
354 519
354 559
354 644
354 727
354 788
354 811
354 857
354 860
355 366
355 422
355 431
355 439
355 442
355 456
355 457
355 459
355 470
355 486
355 509
355 539
355 542
355 546
355 549
355 561
355 591
355 597
355 598
355 612
355 623
355 651
355 657
355 672
355 675
355 693
355 696
355 718
355 757
355 765
355 822
355 848
355 870
355 929
355 935
355 967
356 366
356 394
356 469
356 513
356 550
356 557
356 566
356 579
356 596
356 605
356 631
356 663
356 730
356 733
356 744
356 833
356 847
356 852
356 878
356 889
356 893
356 896
356 914
356 915
356 918
356 924
356 931
356 939
356 942
356 950
356 955
356 964
356 975
356 983
356 997
356 999
357 406
357 431
357 466
357 522
357 624
357 711
357 824
357 917
357 966
358 395
358 531
358 538
358 587
358 733
358 837
358 869
358 912
358 914
358 942
358 952
358 955
358 964
359 552
359 560
359 563
359 699
359 732
359 782
359 943
360 371
360 483
360 487
360 561
360 588
360 731
360 747
360 775
360 800
360 810
360 865
360 885
360 999
361 392
361 543
361 545
361 617
361 634
361 636
361 640
361 677
361 689
361 767
361 777
361 818
361 890
362 537
362 574
362 580
362 611
362 613
362 672
362 694
362 713
362 746
362 757
362 779
362 798
362 861
362 863
362 891
362 923
363 386
363 417
363 525
363 674
363 690
363 715
363 738
363 755
363 764
363 807
363 809
363 859
363 875
363 881
363 925
363 951
364 406
364 463
364 497
364 503
364 512
364 547
364 789
364 873
364 921
364 924
364 985
365 385
365 605
365 703
365 714
365 741
365 837
365 841
365 891
365 906
365 914
365 915
365 918
365 945
365 956
366 368
366 374
366 381
366 401
366 402
366 415
366 426
366 442
366 464
366 478
366 513
366 531
366 587
366 631
366 703
366 847
366 849
366 850
366 869
366 871
366 924
366 939
366 964
367 384
367 441
367 532
367 544
367 718
367 800
367 801
367 812
367 814
367 819
367 821
367 835
367 934
367 937
367 995
368 381
368 385
368 402
368 464
368 511
368 565
368 633
368 692
368 730
368 750
368 794
368 837
368 849
368 856
368 889
368 908
368 913
368 914
368 931
369 387
369 482
369 527
369 552
369 563
369 618
369 699
369 782
369 834
369 943
370 564
370 702
370 706
370 768
370 827
370 882
370 909
371 483
371 588
371 635
371 731
371 747
371 774
371 775
371 794
371 800
371 844
371 862
371 884
371 885
371 907
371 925
372 396
372 409
372 552
372 576
372 604
372 607
372 609
372 652
372 655
372 665
372 676
372 698
372 720
372 756
372 770
372 778
372 856
372 872
372 888
373 393
373 461
373 475
373 633
373 677
373 710
373 763
373 803
373 818
373 884
373 957
373 992
374 381
374 394
374 469
374 565
374 603
374 631
374 730
374 750
374 852
374 854
374 878
374 889
374 893
374 896
374 908
374 912
374 914
374 975
375 415
375 494
375 496
375 509
375 513
375 565
375 587
375 605
375 631
375 663
375 889
375 914
375 918
375 919
376 544
376 578
376 625
376 795
376 801
376 812
376 833
376 937
376 995
376 998
377 389
377 533
377 593
377 665
377 692
377 813
377 820
377 862
377 930
378 389
378 484
378 570
378 581
378 678
378 765
378 800
378 862
378 970
379 430
379 479
379 502
379 855
379 923
379 990
379 991
380 400
380 402
380 411
380 464
380 538
380 596
380 619
380 680
380 840
380 850
380 854
380 866
380 869
380 876
380 893
380 908
380 911
380 912
380 915
380 942
380 996
381 451
381 496
381 583
381 587
381 596
381 605
381 655
381 657
381 733
381 848
381 852
381 855
381 889
381 893
381 896
381 906
381 912
381 914
381 918
381 920
381 940
381 952
381 955
381 964
382 491
382 495
382 509
382 515
382 577
382 602
382 670
382 691
382 748
382 754
382 783
382 790
382 816
382 936
382 947
383 519
383 644
383 677
383 788
383 857
383 864
384 409
384 416
384 423
384 453
384 568
384 594
384 609
384 613
384 614
384 615
384 628
384 632
384 639
384 652
384 655
384 660
384 665
384 666
384 676
384 685
384 699
384 710
384 717
384 721
384 722
384 728
384 737
384 749
384 770
384 778
384 838
384 840
384 842
384 856
384 872
384 903
385 394
385 405
385 422
385 565
385 566
385 605
385 624
385 696
385 703
385 850
385 854
385 889
385 912
385 918
385 983
386 657
386 674
386 715
386 735
386 738
386 764
386 807
386 853
386 880
386 914
386 951
387 482
387 552
387 560
387 563
387 625
387 699
387 700
387 782
387 834
387 912
387 943
388 389
388 548
388 570
388 613
388 781
388 813
388 831
389 484
389 498
389 548
389 553
389 570
389 593
389 621
389 690
389 709
389 719
389 796
389 862
389 898
389 970
390 436
390 548
390 595
390 650
390 661
390 773
390 785
390 987
391 540
391 542
391 611
391 613
391 672
391 763
391 883
391 944
392 543
392 637
392 648
392 649
392 677
392 707
392 803
392 909
392 929
392 953
392 979
392 981
392 992
393 429
393 503
393 543
393 617
393 637
393 677
393 866
393 884
393 890
393 929
393 957
394 410
394 411
394 426
394 460
394 510
394 538
394 555
394 573
394 583
394 587
394 596
394 631
394 649
394 714
394 866
394 876
394 908
394 911
394 914
394 915
394 946
394 956
395 401
395 411
395 464
395 478
395 511
395 630
395 714
395 730
395 837
395 858
395 908
395 912
395 920
395 955
396 409
396 421
396 568
396 576
396 586
396 628
396 632
396 652
396 660
396 666
396 676
396 685
396 710
396 717
396 737
396 771
396 843
396 861
396 903
396 911
397 429
397 516
397 559
397 651
397 686
397 819
397 949
398 448
398 449
398 527
398 613
398 651
398 690
398 786
398 804
398 818
398 831
399 419
399 535
399 761
399 762
399 797
399 823
399 954
399 977
400 464
400 587
400 619
400 631
400 634
400 680
400 739
400 784
400 850
400 869
400 896
400 914
400 995
400 999
401 426
401 494
401 587
401 601
401 631
401 849
401 852
401 855
401 860
401 874
401 878
401 912
401 914
401 931
401 975
401 983
401 997
402 490
402 513
402 714
402 730
402 809
402 849
402 854
402 855
402 866
402 878
402 918
402 964
403 432
403 468
403 632
403 674
403 764
403 809
403 875
403 951
403 957
404 532
404 659
404 795
404 801
404 807
404 810
404 812
404 819
404 821
404 835
404 980
404 995
405 426
405 513
405 550
405 587
405 698
405 703
405 733
405 854
405 876
405 889
405 908
406 452
406 454
406 466
406 624
406 646
406 711
406 740
406 824
406 973
407 427
407 566
407 590
407 592
407 650
407 661
407 773
407 785
407 918
407 978
407 987
408 512
408 547
408 642
408 643
408 690
408 921
408 982
409 476
409 652
409 721
409 829
409 842
409 843
410 469
410 530
410 583
410 619
410 622
410 631
410 680
410 733
410 837
410 889
410 908
410 911
410 914
410 940
411 467
411 598
411 619
411 849
411 912
411 977
412 576
412 604
412 609
412 660
412 666
412 717
412 732
412 838
412 856
412 875
413 449
413 455
413 493
413 504
413 505
413 618
413 719
413 758
413 809
413 821
413 830
413 845
413 879
413 900
414 448
414 516
414 539
414 540
414 593
414 612
414 634
414 651
414 662
414 765
414 798
414 933
415 494
415 556
415 733
415 855
415 908
415 918
415 931
415 955
416 456
416 586
416 665
416 721
416 845
416 903
417 525
417 615
417 674
417 735
417 738
417 764
417 807
417 809
417 859
417 880
417 951
418 449
418 516
418 613
418 625
418 630
418 651
418 664
418 668
418 734
418 763
418 804
418 910
418 988
419 535
419 556
419 761
419 823
419 826
419 839
419 851
419 918
420 515
420 577
420 656
420 670
420 748
420 754
420 759
420 762
420 790
420 816
420 892
420 894
420 936
421 632
421 721
421 728
421 830
421 838
421 843
421 872
421 903
422 447
422 448
422 451
422 454
422 456
422 540
422 613
422 616
422 620
422 625
422 651
422 765
422 834
422 848
422 907
423 609
423 614
423 676
423 717
424 534
424 591
424 620
424 634
424 672
424 690
424 692
424 709
424 765
424 836
424 933
425 443
425 617
425 677
425 678
425 689
425 777
425 803
425 804
425 818
425 895
425 981
426 485
426 513
426 555
426 565
426 680
426 741
426 785
426 878
426 955
426 964
426 997
427 571
427 595
427 661
427 662
427 713
427 785
427 886
427 978
428 797
428 823
428 826
428 845
428 851
429 442
429 450
429 460
429 474
429 488
429 516
429 575
429 611
429 623
429 664
429 693
429 696
429 736
429 757
429 772
429 806
429 829
429 887
429 902
429 910
429 944
429 988
430 479
430 490
430 502
430 606
430 739
430 744
430 805
430 923
430 991
431 445
431 457
431 539
431 546
431 561
431 562
431 597
431 651
431 688
431 693
431 695
431 760
431 776
431 828
431 836
431 848
431 862
431 876
431 923
431 928
432 444
432 451
432 472
432 480
432 518
432 520
432 529
432 564
432 599
432 647
432 653
432 667
432 671
432 724
432 769
432 834
432 853
432 948
432 960
432 993
433 517
433 524
433 528
433 564
433 667
433 716
434 444
434 476
434 518
434 520
434 524
434 564
434 666
434 671
434 780
434 959
434 984
435 451
435 452
435 498
435 514
435 529
435 533
435 564
435 621
435 671
435 713
435 752
435 780
435 802
436 451
436 521
436 566
436 595
436 650
436 661
436 677
436 773
436 785
436 858
436 978
436 987
437 463
437 472
437 476
437 498
437 517
437 520
437 529
437 554
437 599
437 671
437 713
437 780
437 950
437 984
438 526
438 590
438 600
438 613
438 620
438 634
438 692
438 883
438 933
438 935
439 459
439 474
439 540
439 610
439 612
439 625
439 630
439 688
439 690
439 706
439 745
439 901
440 516
440 534
440 620
440 630
440 657
440 690
440 692
440 746
440 757
440 765
440 836
440 912
441 544
441 726
441 798
441 801
441 812
441 814
441 835
441 980
441 995
442 580
442 613
442 626
442 634
442 651
442 753
442 806
442 921
442 933
443 468
443 643
443 789
443 849
443 867
443 921
443 924
443 961
444 446
444 520
444 529
444 533
444 558
444 564
444 589
444 713
444 724
444 746
444 780
444 786
444 972
445 466
445 553
445 820
445 970
446 451
446 476
446 480
446 498
446 520
446 529
446 533
446 560
446 651
446 656
446 671
446 687
446 713
446 752
446 772
446 780
446 926
446 972
447 466
447 472
447 476
447 481
447 498
447 514
447 520
447 522
447 529
447 533
447 564
447 608
447 647
447 656
447 658
447 671
447 713
447 725
447 827
447 960
447 968
447 972
448 460
448 516
448 520
448 546
448 549
448 574
448 598
448 613
448 623
448 634
448 659
448 667
448 709
448 746
448 870
448 871
448 900
449 455
449 493
449 505
449 618
449 719
449 830
449 845
449 867
449 875
449 879
449 900
449 926
450 489
450 534
450 542
450 546
450 574
450 610
450 679
450 686
450 760
450 798
450 828
450 870
450 891
450 905
450 922
450 928
450 933
450 935
451 472
451 518
451 530
451 647
451 667
451 671
451 716
451 889
451 972
451 984
452 516
452 564
452 597
452 624
452 646
452 750
452 766
452 824
452 886
452 897
453 464
453 485
453 555
453 596
453 608
453 663
453 841
453 847
453 850
453 874
453 918
454 646
454 711
454 750
454 766
454 897
454 907
454 917
454 966
454 973
454 997
455 504
455 505
455 532
455 618
455 634
455 758
455 879
455 900
455 926
456 514
456 534
456 540
456 542
456 562
456 611
456 616
456 675
456 709
456 751
456 792
456 801
457 480
457 509
457 534
457 549
457 630
457 687
457 746
457 757
457 765
457 836
458 472
458 526
458 554
458 559
458 623
458 673
458 710
458 760
458 763
458 765
458 826
458 933
458 949
459 549
459 625
459 683
459 692
459 753
459 806
459 949
460 528
460 534
460 548
460 561
460 590
460 630
460 672
460 746
460 889
460 933
461 677
461 818
461 895
461 929
461 957
461 979
462 514
462 518
462 520
462 524
462 529
462 564
462 648
462 725
462 780
462 802
463 497
463 503
463 512
463 627
463 642
463 643
463 705
463 867
463 868
463 873
463 899
463 921
463 985
464 501
464 596
464 633
464 852
464 869
464 908
464 914
464 940
464 983
465 467
465 471
465 520
465 546
465 649
465 718
465 848
465 928
465 949
466 542
466 646
466 711
466 750
466 824
466 886
466 966
467 474
467 516
467 539
467 542
467 598
467 600
467 607
467 610
467 613
467 624
467 632
467 688
467 697
467 760
467 763
467 765
467 784
467 791
467 848
467 916
467 949
467 994
468 512
468 547
468 627
468 642
468 643
468 745
468 789
468 867
468 921
468 982
469 485
469 549
469 550
469 596
469 619
469 651
469 800
469 908
469 913
469 914
469 918
469 950
469 975
470 542
470 575
470 590
470 638
470 651
470 657
470 672
470 690
470 779
470 806
470 847
470 933
471 509
471 537
471 542
471 608
471 620
471 651
471 692
471 697
471 760
471 806
471 988
472 480
472 481
472 498
472 518
472 520
472 524
472 558
472 564
472 572
472 589
472 603
472 647
472 665
472 667
472 742
472 772
472 780
472 918
472 959
472 962
472 974
473 476
473 500
473 514
473 518
473 523
473 564
473 654
473 671
473 713
473 965
474 501
474 542
474 564
474 616
474 619
474 620
474 668
474 690
474 760
474 969
474 994
475 480
475 617
475 677
475 803
475 818
475 838
475 957
475 979
476 480
476 481
476 498
476 508
476 514
476 517
476 520
476 523
476 524
476 529
476 530
476 533
476 564
476 572
476 581
476 603
476 654
476 671
476 713
476 723
476 772
476 799
476 802
476 945
476 948
476 959
476 960
476 962
476 965
476 974
476 976
476 984
477 532
477 543
477 573
477 795
477 801
477 812
478 507
478 622
478 631
478 703
478 854
478 878
478 932
478 994
479 490
479 502
479 546
479 606
479 696
479 739
479 744
479 805
479 904
479 923
479 990
479 991
480 498
480 500
480 517
480 518
480 522
480 523
480 524
480 529
480 558
480 564
480 581
480 603
480 616
480 629
480 653
480 654
480 656
480 667
480 671
480 687
480 716
480 724
480 725
480 752
480 769
480 772
480 786
480 945
480 948
480 963
480 970
480 972
480 984
480 996
481 498
481 517
481 523
481 538
481 647
481 671
481 747
481 883
482 552
482 560
482 768
482 782
482 834
482 943
482 963
483 551
483 582
483 731
483 775
483 794
483 800
483 844
483 865
483 925
484 570
484 578
484 711
484 720
484 779
484 941
485 538
485 619
485 622
485 713
485 733
485 791
485 817
485 854
485 889
485 908
485 918
485 920
485 955
485 983
486 549
486 693
486 798
486 994
487 569
487 572
487 635
487 775
487 800
487 810
487 844
487 865
488 516
488 600
488 779
488 804
488 848
488 891
488 969
489 516
489 561
489 575
489 625
489 651
489 653
489 690
489 746
489 757
489 902
490 502
490 591
490 606
490 610
490 739
490 805
490 904
490 956
490 991
491 546
491 554
491 565
491 600
491 625
491 686
491 693
491 792
491 910
491 933
492 540
492 562
492 620
492 662
492 692
492 870
492 944
493 504
493 505
493 618
493 900
493 926
493 941
494 505
494 513
494 530
494 537
494 538
494 607
494 630
494 680
494 765
494 854
494 866
494 889
494 893
494 896
494 906
494 908
494 914
494 939
495 524
495 670
495 704
495 759
495 783
495 790
495 816
495 859
495 892
495 894
495 936
496 498
496 529
496 587
496 631
496 649
496 703
496 854
496 911
496 914
496 952
496 955
497 540
497 547
497 642
497 705
497 734
497 738
497 801
497 843
497 848
497 867
497 904
497 921
497 985
498 514
498 520
498 522
498 524
498 529
498 533
498 558
498 564
498 589
498 599
498 629
498 647
498 648
498 654
498 656
498 667
498 671
498 687
498 713
498 723
498 724
498 725
498 769
498 772
498 786
498 799
498 802
498 853
498 894
498 913
498 945
498 948
498 959
498 960
498 972
498 974
498 976
498 986
498 993
498 996
499 596
499 714
499 733
499 854
499 855
499 889
499 912
499 920
499 979
500 518
500 520
500 524
500 529
500 530
500 562
500 564
500 658
500 671
500 725
500 772
500 962
500 965
500 972
501 516
501 542
501 567
501 574
501 610
501 683
501 709
501 836
501 867
502 739
502 794
502 904
502 910
502 991
503 512
503 529
503 636
503 642
503 873
503 921
503 985
504 505
504 618
504 765
504 830
504 845
504 879
504 900
504 908
505 529
505 618
505 758
505 830
505 832
505 836
505 845
505 879
505 900
505 926
505 941
506 518
506 520
506 533
506 564
506 658
506 671
506 780
507 515
507 691
507 704
507 748
507 754
507 759
507 881
507 936
508 514
508 520
508 524
508 529
508 564
508 647
508 649
508 656
508 658
508 716
508 780
508 799
508 802
508 974
508 984
508 993
509 542
509 549
509 561
509 574
509 610
509 681
509 697
509 760
509 765
509 793
509 904
510 581
510 583
510 730
510 849
510 893
510 915
510 918
510 956
511 513
511 523
511 649
511 800
511 837
511 841
511 849
511 854
511 858
511 955
511 997
512 523
512 642
512 643
512 705
512 789
512 867
513 555
513 557
513 619
513 730
513 741
513 841
513 850
513 852
513 854
513 876
513 889
513 908
513 919
513 931
513 938
513 940
513 946
513 950
513 966
513 993
513 997
514 517
514 520
514 533
514 546
514 558
514 564
514 572
514 629
514 647
514 656
514 658
514 667
514 671
514 713
514 716
514 761
514 780
514 799
514 811
514 972
514 984
514 986
514 993
514 996
515 577
515 602
515 704
515 754
515 757
515 783
515 790
515 854
515 892
515 894
515 913
515 936
515 947
516 528
516 537
516 539
516 540
516 546
516 569
516 585
516 623
516 630
516 673
516 686
516 697
516 742
516 765
516 772
516 829
516 870
516 871
516 901
516 916
517 524
517 533
517 629
517 687
517 713
517 716
517 723
517 780
517 848
517 853
517 962
517 965
518 522
518 523
518 524
518 529
518 564
518 572
518 581
518 658
518 667
518 723
518 731
518 752
518 962
518 986
518 993
518 996
519 541
519 727
519 757
519 857
519 860
519 864
520 522
520 523
520 524
520 529
520 530
520 533
520 557
520 564
520 572
520 581
520 603
520 629
520 647
520 658
520 667
520 718
520 724
520 752
520 769
520 780
520 820
520 853
520 948
520 962
520 975
520 976
520 986
520 993
520 996
521 566
521 571
521 650
521 661
521 773
521 785
521 870
521 938
521 987
521 991
522 524
522 529
522 564
522 603
522 654
522 656
522 752
522 772
522 802
522 984
522 996
523 529
523 544
523 658
523 829
523 948
523 996
524 529
524 533
524 558
524 564
524 599
524 629
524 647
524 654
524 667
524 668
524 723
524 724
524 725
524 752
524 783
524 799
524 802
524 811
524 853
524 888
524 948
524 960
524 974
524 976
524 986
524 993
525 674
525 715
525 755
525 760
525 807
525 809
525 871
525 875
526 534
526 553
526 586
526 623
526 669
526 729
526 753
526 863
526 883
526 902
526 927
526 949
526 961
527 673
527 679
527 681
527 686
527 692
527 751
527 760
527 765
527 867
527 888
527 910
527 928
528 537
528 542
528 544
528 546
528 559
528 561
528 574
528 597
528 683
528 690
528 692
528 693
528 695
528 787
528 796
528 847
528 863
528 883
528 887
528 935
528 994
529 530
529 558
529 564
529 572
529 581
529 589
529 599
529 603
529 647
529 648
529 671
529 676
529 687
529 713
529 717
529 724
529 769
529 772
529 780
529 786
529 799
529 800
529 853
529 892
529 945
529 948
529 960
529 965
529 972
529 976
529 993
529 996
530 587
530 654
530 723
530 725
530 752
530 780
530 786
530 799
530 802
530 945
530 974
531 565
531 663
531 703
531 849
531 854
531 869
531 889
531 912
531 913
531 914
531 918
531 975
532 573
532 795
532 801
532 812
532 814
532 819
532 835
532 916
532 934
532 995
532 998
533 564
533 572
533 581
533 589
533 658
533 671
533 713
533 723
533 853
533 959
534 574
534 575
534 611
534 613
534 651
534 653
534 669
534 686
534 694
534 695
534 804
534 811
534 835
534 848
535 549
535 579
535 761
535 762
535 797
535 798
535 839
535 954
536 573
536 578
536 592
536 645
536 770
536 795
536 801
536 806
536 812
536 815
536 821
536 835
536 937
536 980
536 995
536 998
537 539
537 542
537 546
537 613
537 620
537 716
537 726
537 746
537 753
537 791
537 830
537 910
537 967
538 619
538 622
538 649
538 703
538 753
538 850
538 874
538 889
538 906
538 912
538 914
538 931
539 546
539 554
539 567
539 623
539 626
539 630
539 638
539 651
539 669
539 672
539 673
539 690
539 736
539 779
539 784
539 798
539 871
539 910
539 914
539 916
539 927
539 969
540 542
540 554
540 574
540 575
540 590
540 598
540 613
540 616
540 625
540 626
540 638
540 651
540 657
540 662
540 668
540 679
540 690
540 695
540 697
540 708
540 726
540 734
540 746
540 757
540 763
540 765
540 804
540 825
540 829
540 848
540 870
540 871
540 883
540 891
540 913
540 916
540 949
540 968
540 988
541 644
541 727
541 788
541 860
542 554
542 567
542 574
542 580
542 612
542 615
542 620
542 625
542 634
542 651
542 662
542 664
542 669
542 672
542 688
542 690
542 696
542 701
542 709
542 734
542 742
542 753
542 760
542 763
542 765
542 774
542 784
542 796
542 804
542 806
542 817
542 828
542 831
542 863
542 868
542 883
542 888
542 891
542 899
542 902
542 905
542 916
542 922
542 927
542 928
542 933
542 962
542 968
542 984
542 994
543 545
543 547
543 608
543 636
543 637
543 640
543 677
543 767
543 818
543 884
543 895
543 953
544 573
544 592
544 644
544 795
544 801
544 812
544 821
544 833
544 835
544 889
544 980
544 998
545 608
545 636
545 640
545 677
545 767
545 818
545 884
545 937
545 953
545 957
546 559
546 613
546 625
546 634
546 673
546 690
546 696
546 746
546 760
546 887
546 910
546 933
546 936
546 949
547 619
547 643
547 789
547 873
547 921
547 985
548 570
548 614
548 628
548 813
548 820
548 861
548 930
549 574
549 612
549 620
549 663
549 673
549 675
549 679
549 682
549 779
549 791
549 883
549 905
549 935
549 969
550 557
550 622
550 663
550 841
550 855
550 874
550 889
550 911
550 912
550 914
550 940
550 950
550 956
550 999
551 709
551 775
551 794
551 800
552 560
552 563
552 564
552 605
552 699
552 700
552 782
552 803
552 834
552 943
553 570
553 593
553 898
554 575
554 590
554 597
554 610
554 612
554 613
554 690
554 696
554 701
554 726
554 901
554 933
554 968
555 583
555 596
555 619
555 714
555 733
555 854
555 855
555 889
555 912
555 914
555 927
555 939
555 983
556 700
556 708
556 762
556 826
556 839
557 646
557 648
557 663
557 795
557 854
557 869
557 889
557 893
557 914
557 938
557 953
557 955
557 975
557 983
558 667
558 713
558 748
558 780
558 972
559 591
559 611
559 616
559 669
559 694
559 791
559 828
559 928
560 563
560 699
560 700
560 782
560 816
560 963
561 591
561 620
561 657
561 690
561 792
561 806
561 843
561 868
561 902
561 922
562 574
562 625
562 628
562 630
562 634
562 657
562 672
562 682
562 693
562 798
562 848
562 916
563 612
563 639
563 699
563 700
563 834
563 943
564 572
564 581
564 590
564 599
564 637
564 647
564 654
564 656
564 658
564 671
564 687
564 713
564 716
564 723
564 724
564 752
564 772
564 780
564 785
564 786
564 811
564 853
564 926
564 945
564 948
564 960
564 962
564 965
564 972
564 984
564 986
564 996
565 596
565 605
565 622
565 663
565 854
565 866
565 874
565 889
565 912
565 914
565 918
565 931
565 940
565 952
565 965
565 975
565 983
566 571
566 978
566 987
567 600
567 641
567 651
567 657
567 692
567 746
567 751
567 765
567 798
567 812
567 883
567 886
567 891
567 902
567 933
567 960
567 981
567 994
568 576
568 586
568 594
568 609
568 628
568 632
568 660
568 749
568 936
569 620
569 686
569 757
569 760
569 792
569 798
569 828
569 870
569 933
569 994
570 571
570 593
570 621
570 769
570 820
570 910
570 957
571 595
571 650
572 581
572 647
572 658
572 667
572 671
572 725
572 780
572 799
572 949
572 984
573 585
573 680
573 795
573 801
573 812
573 821
573 835
573 995
574 575
574 580
574 585
574 586
574 590
574 597
574 600
574 651
574 653
574 672
574 675
574 682
574 692
574 695
574 701
574 724
574 736
574 742
574 746
574 776
574 779
574 791
574 793
574 798
574 804
574 888
574 928
574 994
575 630
575 681
575 760
575 765
575 806
575 870
575 969
576 604
576 615
576 632
576 639
576 652
576 676
576 840
576 842
576 843
577 783
577 790
577 849
577 892
577 894
577 936
577 947
578 812
578 835
578 937
578 995
579 625
579 689
579 708
579 762
579 798
579 823
579 826
579 977
580 613
580 641
580 651
580 662
580 664
580 690
580 729
580 806
580 883
580 891
580 905
580 973
581 642
581 687
581 723
581 725
581 780
581 811
582 584
582 600
582 613
582 702
582 712
582 743
582 768
582 808
582 827
582 882
582 909
582 958
583 601
583 605
583 619
583 741
583 854
583 889
583 908
583 911
583 914
583 931
583 946
583 982
583 997
584 706
584 787
584 808
584 827
584 882
584 958
585 598
585 638
585 641
585 672
585 763
585 779
585 798
585 804
585 822
585 927
585 933
585 949
586 614
586 615
586 628
586 632
586 700
586 722
586 737
586 840
586 843
586 911
587 601
587 663
587 684
587 733
587 854
587 858
587 889
587 908
587 911
587 952
587 960
588 794
588 800
588 867
589 647
589 658
589 687
589 694
589 780
589 799
589 972
589 986
590 610
590 626
590 632
590 634
590 760
590 804
590 883
590 888
590 891
590 988
591 612
591 651
591 726
591 760
591 863
591 916
591 927
591 991
592 645
592 795
592 801
592 812
592 814
592 835
592 995
593 621
593 720
593 763
593 820
593 862
593 970
594 652
594 720
594 721
594 722
594 756
594 840
594 843
595 650
595 661
596 619
596 649
596 732
596 837
596 854
596 878
596 889
596 956
597 611
597 625
597 638
597 681
597 686
597 692
597 798
597 846
597 870
597 910
597 933
598 613
598 634
598 669
598 694
598 734
598 746
598 836
598 891
598 905
598 969
599 623
599 629
599 634
599 667
599 713
599 752
599 786
599 855
599 974
600 673
600 688
600 760
601 605
601 703
601 837
601 858
601 876
601 878
601 889
601 911
601 912
601 914
601 920
601 940
601 952
601 956
601 961
601 964
602 670
602 748
602 754
602 759
602 783
602 816
602 858
602 892
602 894
602 936
603 623
603 671
603 780
603 808
603 945
603 972
604 632
604 660
604 666
604 840
604 917
604 987
605 619
605 663
605 730
605 733
605 741
605 829
605 855
605 869
605 885
605 911
605 914
605 927
605 955
606 739
606 805
606 904
606 923
607 628
607 632
607 639
607 720
607 721
607 843
607 872
607 887
608 636
608 640
608 677
608 678
608 929
608 957
609 615
609 632
609 685
609 705
609 710
609 727
609 728
610 679
610 683
610 726
610 746
610 910
610 967
610 978
611 625
611 630
611 651
611 709
611 763
611 787
611 798
611 836
611 850
611 883
611 887
611 905
611 968
612 620
612 653
612 693
612 831
612 910
612 927
612 935
613 625
613 653
613 659
613 662
613 664
613 686
613 694
613 695
613 756
613 765
613 787
613 848
613 863
613 871
613 899
613 916
613 967
613 976
614 639
614 652
614 655
614 720
614 721
614 732
614 867
614 872
615 639
615 652
615 676
615 710
615 778
616 620
616 653
616 662
616 681
616 682
616 690
616 726
616 798
616 871
616 916
616 933
616 956
617 677
617 678
617 684
617 689
617 774
617 777
617 818
617 877
617 884
617 890
617 981
618 719
618 758
618 832
618 845
618 879
618 900
618 926
618 941
618 949
619 622
619 631
619 640
619 703
619 837
619 841
619 850
619 878
619 889
619 911
619 912
619 913
619 914
619 918
619 920
619 931
619 939
619 964
620 651
620 668
620 669
620 673
620 682
620 683
620 689
620 705
620 709
620 760
620 763
620 787
620 907
620 970
620 994
621 733
621 820
622 631
622 707
622 733
622 850
622 854
622 908
622 914
622 919
622 939
622 955
623 651
623 695
623 724
623 742
623 751
623 753
623 798
623 828
623 870
623 887
623 899
623 901
623 928
623 933
623 988
624 646
624 750
624 766
624 824
624 886
624 897
624 917
624 966
625 626
625 651
625 653
625 659
625 662
625 673
625 679
625 682
625 692
625 726
625 787
625 792
625 793
625 836
625 851
625 863
625 870
625 877
625 883
625 891
625 905
625 910
625 922
625 928
625 994
626 662
626 669
626 690
626 753
626 763
626 804
626 949
626 987
627 634
627 641
627 642
627 867
627 921
627 980
627 985
628 639
628 721
628 778
628 840
629 648
629 752
629 780
629 945
629 962
630 634
630 659
630 664
630 675
630 692
630 742
630 829
630 868
630 891
630 912
630 994
631 636
631 733
631 780
631 858
631 889
631 911
631 912
631 914
631 938
631 999
632 639
632 660
632 665
632 666
632 710
632 717
632 720
632 749
632 770
632 838
632 842
632 843
633 733
633 741
633 854
633 874
633 896
633 908
633 911
633 914
633 950
633 956
633 975
634 651
634 668
634 675
634 688
634 696
634 729
634 736
634 751
634 771
634 776
634 902
634 907
634 988
635 731
635 760
635 774
635 794
635 800
635 810
635 885
636 677
636 818
636 992
637 677
637 707
637 777
637 818
637 898
637 957
637 969
638 675
638 690
638 848
638 866
638 891
638 914
638 933
638 976
638 988
639 666
639 722
639 732
639 737
639 749
639 767
639 770
639 778
640 677
640 764
640 803
640 877
640 883
640 981
641 668
641 682
641 806
641 916
641 922
641 994
642 705
642 789
642 860
642 892
642 921
642 982
642 991
643 867
643 873
643 891
643 982
643 985
644 674
644 727
644 788
644 857
644 859
644 860
645 812
645 814
645 934
645 939
645 980
645 995
646 711
646 740
646 745
646 750
646 766
646 824
646 886
646 966
646 968
647 671
647 713
647 769
647 780
647 786
647 794
647 799
647 811
647 869
647 878
647 959
647 974
648 671
648 811
648 959
648 960
648 965
649 658
649 742
649 908
649 914
649 918
649 938
649 950
649 955
649 956
650 661
650 773
650 785
650 978
650 982
651 659
651 672
651 679
651 686
651 688
651 694
651 701
651 709
651 718
651 736
651 779
651 792
651 793
651 804
651 822
651 848
651 887
651 899
651 907
651 913
651 928
651 933
651 949
651 955
651 968
652 660
652 665
652 666
652 676
652 685
652 709
652 717
652 728
652 749
652 756
652 778
652 843
652 856
652 858
653 668
653 690
653 746
653 760
653 806
653 886
653 891
654 658
654 980
655 705
655 778
655 838
655 842
655 933
656 658
656 713
656 716
656 725
656 769
656 960
657 673
657 686
657 726
657 746
657 795
657 806
657 825
657 848
657 901
657 968
658 671
658 687
658 752
658 799
658 805
658 853
658 993
658 996
659 679
659 690
659 694
659 709
659 742
659 857
659 905
659 967
659 988
659 994
660 666
660 685
660 717
660 756
660 840
661 773
661 785
661 987
662 688
662 696
662 709
662 746
662 765
662 898
662 910
662 933
663 733
663 841
663 849
663 866
663 889
663 911
663 912
663 913
663 942
663 946
663 950
664 668
664 692
664 798
664 849
665 676
665 685
665 721
665 722
665 728
665 820
665 843
665 848
665 903
666 676
666 679
666 717
666 821
667 671
667 716
667 724
667 725
667 853
667 875
667 945
667 948
667 960
667 962
667 974
667 993
668 695
668 739
668 742
668 765
668 907
668 935
668 949
669 673
669 806
669 949
669 967
670 691
670 783
670 816
670 914
670 956
670 965
671 687
671 703
671 723
671 725
671 752
671 769
671 780
671 786
671 811
671 853
671 877
671 900
671 948
671 959
671 960
671 962
671 965
671 972
671 974
671 976
671 986
671 996
672 695
672 751
672 791
672 798
672 899
673 675
673 696
673 736
673 746
673 760
673 762
673 765
673 778
673 798
673 868
673 879
673 891
673 927
673 928
674 715
674 738
674 807
674 875
674 881
674 920
674 951
675 701
675 764
675 765
675 806
675 863
675 871
675 891
675 928
675 994
676 721
677 678
677 684
677 689
677 707
677 723
677 763
677 767
677 777
677 818
677 839
677 877
677 884
677 890
677 895
677 929
677 953
677 957
677 964
677 979
677 981
677 992
678 979
679 746
679 798
679 848
679 907
680 703
680 847
680 850
680 855
680 889
680 893
680 908
680 955
680 975
681 705
681 725
681 726
681 734
681 757
681 828
681 868
681 922
682 863
682 866
682 899
683 701
683 709
683 726
683 760
683 816
683 933
683 938
683 944
684 730
684 740
684 778
684 818
684 895
684 928
684 929
684 953
684 957
685 756
685 831
685 979
686 709
686 765
686 776
686 828
686 928
686 950
686 960
687 769
687 801
687 802
687 807
687 875
687 948
687 976
687 993
688 760
688 765
688 784
688 814
688 863
688 888
689 777
689 803
689 818
689 877
689 895
689 957
690 692
690 701
690 718
690 721
690 734
690 742
690 746
690 751
690 765
690 768
690 776
690 791
690 798
690 804
690 806
690 815
690 817
690 829
690 846
690 863
690 871
690 886
690 887
690 910
690 962
690 967
691 702
691 748
691 790
691 894
692 694
692 696
692 709
692 726
692 729
692 736
692 742
692 746
692 751
692 753
692 760
692 763
692 787
692 793
692 798
692 804
692 863
692 891
692 892
692 967
693 718
693 822
693 852
693 922
693 928
693 933
693 944
694 709
694 760
694 765
694 829
694 885
694 994
695 697
695 822
695 870
695 914
696 753
696 902
696 935
697 763
697 836
697 907
697 928
698 737
698 756
698 842
698 843
699 700
699 782
699 885
699 943
700 782
700 943
701 726
701 729
701 828
701 866
701 883
701 928
702 706
702 712
702 743
702 808
702 989
703 714
703 733
703 750
703 849
703 889
703 915
703 932
703 938
703 939
703 961
703 964
703 975
704 754
704 783
704 790
704 841
704 894
704 936
705 867
705 873
705 921
706 736
706 743
706 781
706 808
706 827
706 958
706 971
706 989
707 803
707 818
707 877
707 933
707 957
708 761
708 797
708 826
708 839
708 977
709 739
709 776
709 779
709 784
709 910
710 721
710 771
710 894
711 740
711 745
711 750
711 766
711 824
711 886
711 897
711 917
711 966
711 973
712 808
712 827
712 958
713 716
713 724
713 725
713 786
713 959
713 960
713 984
713 993
713 996
714 727
714 730
714 733
714 837
714 847
714 849
714 858
714 876
714 878
714 889
714 908
714 932
714 938
714 983
715 755
715 764
715 775
715 779
715 807
715 809
715 875
715 882
716 725
716 786
716 802
716 976
717 721
717 770
717 798
717 842
718 751
718 752
718 870
718 876
718 888
718 901
718 949
719 758
719 830
719 845
719 900
720 721
720 732
720 818
720 840
720 842
720 843
721 728
721 737
721 749
721 840
721 859
722 999
723 772
723 984
724 752
724 767
724 780
725 752
725 876
725 960
725 965
725 974
726 768
726 784
726 817
726 837
726 891
726 910
726 913
726 928
726 968
727 788
727 812
727 857
727 860
728 766
728 820
728 870
728 872
728 890
729 757
729 760
730 841
730 858
730 918
731 747
731 774
731 794
731 800
731 810
731 831
731 844
731 885
731 994
732 838
732 856
733 852
733 854
733 855
733 870
733 896
733 912
733 914
733 931
733 940
733 955
733 984
734 798
735 738
735 755
735 859
735 875
735 881
735 951
735 976
736 746
736 784
736 829
736 933
736 935
737 770
737 820
737 856
737 877
737 904
738 755
738 875
739 805
739 914
739 923
739 965
739 977
739 990
739 991
740 824
740 886
740 897
740 973
741 847
741 854
741 855
741 858
741 866
741 889
741 918
741 931
741 932
741 939
741 955
741 975
742 806
742 910
742 949
743 768
743 781
743 808
743 827
743 838
743 882
743 958
743 989
744 904
744 990
744 991
744 992
745 750
745 806
745 897
745 939
745 966
746 779
746 792
746 806
746 828
746 846
746 869
746 870
746 910
746 970
747 794
747 800
748 754
748 759
748 783
748 790
748 894
748 936
748 947
748 957
749 872
749 956
750 766
750 824
750 914
750 917
750 940
750 966
751 757
751 777
751 798
751 868
752 780
752 786
752 942
753 763
753 765
753 804
753 806
753 837
753 919
753 944
753 969
754 790
754 894
754 973
755 764
755 807
755 859
755 875
756 765
756 778
757 780
757 817
757 928
757 969
757 973
758 812
758 879
758 900
758 936
759 783
759 866
759 894
759 936
760 780
760 792
760 798
760 863
760 868
760 871
760 891
760 894
760 905
760 928
760 933
760 935
760 944
760 988
760 994
761 762
761 797
761 826
761 851
761 855
761 975
762 826
762 839
762 954
763 846
763 848
763 870
763 922
764 807
764 859
764 875
764 881
765 779
765 796
765 806
765 868
765 891
765 967
765 988
766 824
766 886
766 897
766 899
766 917
766 966
767 884
767 890
767 929
768 781
768 827
768 882
768 909
768 989
771 838
771 872
771 903
772 786
773 785
773 908
773 987
774 775
774 794
774 800
774 810
774 844
775 794
775 844
775 865
775 901
775 925
776 848
777 979
779 787
779 806
779 817
779 825
779 870
779 916
779 933
780 799
780 802
780 811
780 945
780 974
780 986
780 988
780 996
781 882
781 909
781 971
782 834
782 870
782 963
782 966
783 790
783 816
783 892
783 894
783 936
783 947
784 828
784 871
785 848
785 978
786 844
786 962
786 986
787 928
788 857
788 860
788 864
788 906
788 969
788 998
789 867
789 912
789 921
789 935
790 816
790 894
790 936
790 947
791 798
791 928
791 933
793 841
793 870
793 871
793 922
793 943
793 949
794 800
794 810
794 844
794 864
794 865
794 885
794 925
795 801
795 812
795 815
795 833
795 835
795 980
795 995
796 806
796 887
796 891
796 937
797 815
797 823
797 839
797 954
797 977
798 806
798 870
798 887
798 899
798 910
798 922
798 949
798 974
799 802
799 920
799 959
799 972
800 810
800 844
800 885
800 925
801 806
801 812
801 814
801 815
801 819
801 821
801 833
801 835
801 846
801 934
801 937
801 988
801 995
802 874
803 818
803 845
803 895
803 929
803 933
803 953
803 979
804 833
804 927
804 972
804 994
805 899
805 904
805 923
805 985
805 991
806 822
806 902
806 913
806 970
807 859
807 875
807 951
808 827
808 882
808 939
808 989
809 859
809 951
809 997
810 894
810 933
812 814
812 817
812 819
812 821
812 833
812 835
812 934
812 937
812 980
812 995
812 998
813 820
813 970
814 815
814 819
814 821
814 833
814 835
814 899
814 934
814 937
814 954
814 980
814 995
814 998
815 835
815 980
815 995
816 936
817 825
817 843
817 870
818 877
818 884
818 890
818 895
818 929
818 953
818 981
819 821
819 835
819 885
819 995
820 861
820 922
820 970
821 833
821 835
821 995
822 867
822 876
822 905
823 826
823 839
823 851
823 899
823 954
824 886
824 917
824 966
824 973
825 943
825 988
826 851
827 882
827 909
827 956
827 958
827 971
828 928
830 832
830 879
830 900
830 941
831 922
831 949
832 879
832 900
832 926
832 941
832 994
833 934
833 980
833 995
834 943
834 963
834 978
835 894
835 934
835 937
835 975
835 980
835 995
836 846
836 888
836 891
836 928
836 967
837 841
837 852
837 854
837 876
837 908
837 912
837 913
837 938
837 939
837 940
837 964
837 983
837 999
839 840
839 851
839 977
841 847
841 858
841 878
841 908
841 911
841 914
841 915
841 940
841 961
844 865
844 885
845 889
845 900
845 926
845 941
847 876
847 889
847 896
847 914
847 952
847 956
847 999
848 888
848 901
848 902
849 858
849 869
849 889
849 893
849 904
849 911
849 912
849 915
850 908
850 920
850 942
850 950
850 956
850 961
850 983
850 997
851 954
852 889
852 914
852 918
852 935
852 940
852 942
852 946
852 975
852 983
853 865
853 936
854 876
854 889
854 893
854 911
854 912
854 914
854 915
854 918
854 920
854 938
854 942
854 955
854 956
854 961
854 964
854 975
854 983
855 889
855 896
855 910
855 912
855 918
855 975
856 872
856 994
857 861
857 922
858 866
858 908
858 911
858 912
858 946
858 955
858 956
858 975
859 875
859 951
862 970
863 870
863 880
863 888
863 900
863 995
863 997
866 911
866 914
866 918
866 931
866 956
866 983
867 873
867 921
867 924
867 985
868 879
868 999
869 896
869 908
869 911
869 912
869 915
869 932
869 949
869 952
870 916
870 935
870 969
870 972
871 912
871 923
873 921
874 889
874 925
874 955
875 880
875 881
875 917
876 914
876 919
876 931
876 939
876 952
876 956
877 929
877 957
877 979
877 992
878 889
878 893
878 906
878 912
878 920
878 932
878 946
878 997
879 900
879 926
879 941
882 958
882 971
882 989
883 967
884 890
884 953
884 957
886 917
886 966
886 983
887 918
887 955
888 970
889 896
889 897
889 906
889 908
889 913
889 915
889 918
889 919
889 920
889 939
889 940
889 946
889 955
889 983
889 999
890 929
890 992
891 910
891 920
891 933
891 967
891 970
891 971
892 894
892 947
893 914
893 928
894 936
894 947
895 944
895 957
895 972
895 979
895 992
896 908
896 918
896 920
896 942
896 955
896 977
897 917
897 966
899 923
899 928
899 994
900 926
900 941
901 928
902 928
903 918
904 923
904 990
904 991
905 977
906 911
906 913
906 914
906 919
907 949
908 914
908 952
908 961
908 975
908 997
909 971
909 989
910 928
910 988
911 912
911 956
911 983
912 914
912 920
912 946
912 952
912 975
913 914
913 918
913 956
913 983
914 915
914 918
914 919
914 920
914 931
914 938
914 939
914 942
914 946
914 950
914 952
914 956
914 983
914 997
914 999
915 956
918 920
918 964
919 955
919 956
919 961
920 983
922 994
923 990
923 991
926 967
927 933
927 943
927 988
928 929
928 933
928 945
929 957
930 970
932 946
932 956
932 961
933 967
933 988
934 937
934 995
935 991
935 994
936 947
937 980
937 995
938 942
938 975
939 975
942 955
943 963
943 985
944 964
946 955
949 968
949 981
952 997
953 957
953 992
955 961
956 975
956 983
956 999
958 959
959 976
959 984
960 965
961 967
961 975
964 997
965 972
965 993
968 988
971 989
975 997
976 995
979 992
979 993
980 983
980 995
980 998
984 993
990 991
995 998
