1250 1421
909 1128
29 32
886 1144
144 278
756 1300
1224 1405
663 843
1009 1251
379 1084
280 553
404 848
631 1305
1245 1464
1104 1488
763 1195
472 494
1124 1174
969 1300
1277 1416
950 1021
1161 1241
932 1381
204 679
89 463
985 1015
1009 1372
415 633
580 966
165 687
533 625
906 1136
357 628
436 921
983 1090
62 222
848 1131
1147 1198
746 854
806 905
6 61
27 120
557 1103
178 289
351 446
1318 1430
716 867
306 703
495 1393
1004 1270
52 1052
1036 1488
1103 1249
828 1044
869 1082
13 572
445 983
1314 1432
151 536
357 870
1286 1370
296 631
1362 1365
869 1432
451 690
592 629
915 1319
445 875
973 1260
813 1042
577 765
1299 1430
661 1173
755 1037
39 601
433 757
235 247
331 709
138 580
367 403
167 1281
1246 1274
905 981
222 1476
209 231
1047 1330
1220 1258
293 1127
876 1219
1137 1223
416 1463
400 701
1040 1327
564 580
968 1158
627 865
173 429
882 889
885 1389
590 717
428 655
732 1066
704 1233
1117 1402
191 419
449 714
45 1304
62 719
353 373
559 707
1185 1398
1088 1236
508 661
1044 1395
361 1136
1264 1398
942 1118
1076 1347
732 1308
367 658
909 941
430 714
982 1456
839 882
882 1481
11 730
145 959
28 145
314 502
921 1180
912 1360
148 210
103 733
492 545
299 379
142 661
128 497
1115 1167
1015 1229
826 1064
201 1241
75 607
49 1372
825 839
131 916
1215 1290
216 502
534 1306
1016 1080
754 1309
568 661
1120 1137
932 1086
1097 1419
780 1483
1141 1196
74 274
192 495
1266 1376
390 739
1393 1417
417 613
49 217
257 395
40 397
124 1034
686 737
911 1121
278 454
985 1070
28 508
195 685
902 1301
828 1086
62 1324
709 906
1146 1432
46 562
588 616
354 449
395 975
832 976
974 1325
48 113
1101 1137
20 280
525 1435
816 1153
681 965
1168 1312
846 1032
1145 1328
193 1110
255 564
208 452
89 760
1152 1489
42 685
787 802
767 860
832 1218
1300 1323
782 1397
959 1030
250 341
1005 1146
1244 1428
1010 1261
688 1210
1133 1331
190 704
1026 1205
1138 1446
162 871
97 247
982 1135
786 1223
187 406
791 1338
173 471
841 930
68 943
126 130
76 538
117 576
236 527
250 462
241 642
895 1395
309 517
831 858
1218 1267
850 871
321 527
159 465
1126 1449
1038 1336
236 648
208 586
115 358
1422 1447
56 717
97 718
157 540
105 350
229 645
759 874
1003 1463
855 1336
798 802
583 648
803 880
868 1275
300 525
90 715
186 194
184 350
191 1292
339 1190
115 479
903 1003
999 1465
152 546
303 715
69 548
151 1075
283 477
43 495
222 726
1385 1393
540 1301
230 358
51 90
1104 1114
801 1113
892 1460
381 490
102 846
110 670
836 1299
1051 1224
77 264
316 546
319 551
107 143
1278 1388
884 1003
1109 1350
33 1362
293 498
213 246
220 959
125 133
954 1412
899 1476
47 213
33 315
360 673
981 1057
60 152
879 1009
488 1124
235 678
837 1012
343 477
381 503
427 619
850 1476
86 326
449 903
261 1081
237 495
311 444
751 945
902 1114
401 603
1053 1283
1118 1412
326 1183
49 380
796 1132
937 1071
49 151
923 944
1090 1350
1131 1351
979 1482
144 388
811 851
962 1020
1022 1071
1146 1366
1164 1420
54 616
1368 1415
1284 1421
1317 1369
33 678
52 691
758 1082
78 1094
250 383
1217 1367
1010 1074
227 399
1293 1362
259 388
1256 1480
41 394
459 907
538 1200
299 689
1247 1431
266 512
173 284
519 692
1110 1133
86 581
34 391
576 674
1106 1428
873 897
185 294
11 1161
1265 1421
28 576
138 219
1279 1319
1122 1372
1196 1321
308 630
841 1093
156 761
57 230
131 179
895 1100
242 1444
677 1143
1133 1157
1191 1327
698 1431
108 168
786 1049
794 1139
868 1088
228 233
1176 1204
11 235
365 467
516 636
409 510
213 635
378 702
787 870
938 1039
294 708
982 1082
261 531
522 572
319 472
769 1203
843 1152
48 652
672 1270
834 1103
300 1398
203 1465
827 1329
51 842
395 1406
257 1176
1176 1217
178 654
52 249
716 1461
783 993
1054 1456
911 1444
859 988
1012 1230
850 1168
1001 1337
803 827
1047 1453
104 826
135 139
417 1057
1299 1445
829 1230
787 1233
1007 1273
952 1337
193 494
1153 1327
358 598
578 830
602 1224
1017 1466
297 588
863 999
954 1117
219 668
1264 1279
18 614
293 553
441 488
778 1305
831 1168
339 440
559 709
1111 1451
753 1477
863 1120
949 1123
61 432
838 1063
511 668
958 1357
306 1202
975 1297
818 825
6 681
107 1487
26 330
499 779
471 717
896 1418
1125 1241
75 488
338 1356
679 1420
935 1346
1097 1179
473 497
244 445
856 1467
137 319
44 91
579 664
1090 1405
703 730
773 1469
642 720
979 1308
91 617
1046 1069
168 800
897 946
374 676
508 905
869 884
468 540
65 564
824 1141
829 1485
51 400
89 1446
787 1488
417 494
362 558
1203 1403
241 268
53 446
1125 1483
540 564
932 1088
374 797
847 1246
107 453
415 569
53 1385
263 966
598 690
16 271
895 1142
848 1067
447 494
163 735
789 1426
806 841
405 497
613 1429
418 436
249 1152
705 1139
872 1316
1219 1360
1284 1489
1012 1030
281 582
1122 1427
918 1139
665 693
329 744
117 336
1101 1489
153 518
922 1029
932 1451
87 164
902 1316
1017 1266
60 475
46 577
1061 1309
250 572
936 1314
1151 1202
67 636
282 524
1321 1384
484 1153
770 1281
861 874
319 1345
1012 1043
432 468
869 1260
860 1440
868 1035
937 1394
1093 1382
324 642
539 567
978 1166
199 647
1073 1440
1214 1379
326 459
272 1391
518 629
786 1346
462 468
899 1223
352 596
300 406
1174 1199
131 368
392 409
788 1163
956 976
161 476
350 1166
768 925
551 927
1279 1400
864 1158
795 1287
602 1158
776 1045
3 304
1056 1328
552 1300
1130 1277
321 650
935 1038
1121 1457
252 779
222 607
337 594
92 763
59 586
749 767
878 1177
186 1364
327 1303
1292 1460
430 529
523 720
223 428
1248 1390
1095 1296
861 1129
795 1300
295 425
536 551
1169 1218
1074 1358
296 1064
342 951
1011 1046
161 610
109 420
1 392
512 1362
859 1406
630 1354
36 615
10 1380
39 95
77 387
149 492
1185 1347
1055 1237
112 610
57 674
571 1124
612 896
829 1419
557 731
837 1014
408 608
974 1248
1301 1414
330 1183
487 1426
495 1250
292 433
748 1467
167 667
594 734
1127 1463
547 659
958 1425
120 1080
1245 1455
1247 1299
1002 1468
1131 1353
362 613
1016 1137
1296 1420
721 960
974 1140
1194 1409
58 616
1125 1309
844 1296
506 742
60 167
170 564
772 898
1140 1294
1126 1130
1310 1476
1217 1248
637 673
754 1258
1222 1363
334 672
1235 1302
1046 1137
897 1014
484 616
1155 1309
616 735
189 927
846 1197
782 1441
293 984
928 1266
191 744
23 342
112 865
46 511
323 1277
753 861
992 1143
763 1320
1029 1439
158 688
1040 1305
770 1444
1114 1254
166 283
985 1140
509 622
1154 1326
94 114
885 909
114 766
224 1163
39 592
806 1259
80 1118
386 407
809 1264
24 994
160 589
1112 1450
90 530
577 877
909 1387
325 1336
480 981
917 982
428 525
779 1277
1147 1444
185 538
11 1405
518 684
809 1156
1172 1208
550 636
154 407
679 1046
1047 1213
972 1039
442 581
312 700
1191 1342
1084 1216
462 644
753 1116
1195 1461
725 1283
1253 1439
926 1044
917 1224
139 664
1269 1383
188 297
1301 1335
776 1221
251 353
430 584
1121 1404
843 1396
43 323
903 1181
328 950
765 1476
861 1184
979 1176
1116 1181
959 1463
1179 1466
136 901
406 496
423 665
1030 1343
64 732
633 660
891 1184
705 765
946 1120
22 506
1345 1391
439 1060
986 1458
487 542
442 1065
1266 1475
254 1014
801 1412
408 434
1199 1458
149 668
218 273
1119 1169
1270 1338
857 1428
98 622
258 611
879 1187
805 1009
533 550
893 1122
385 386
534 1418
417 604
923 1001
274 555
1079 1477
361 443
834 892
1414 1467
1386 1405
1224 1343
1069 1469
83 206
1275 1308
461 1320
1247 1475
887 903
763 1133
238 265
535 717
886 1203
559 845
130 668
847 1477
1036 1413
102 340
841 908
772 1074
445 679
560 666
197 577
1250 1372
620 1205
155 617
81 402
821 966
315 340
576 610
287 507
1414 1480
111 281
33 627
470 628
943 1077
1242 1373
1025 1375
1085 1426
684 1082
832 980
782 1388
909 1200
771 970
1038 1085
208 335
889 962
268 349
844 1485
433 453
59 212
382 636
777 1431
221 1213
16 286
351 505
898 903
609 800
416 1388
755 854
37 574
965 1078
69 297
874 1448
662 1040
168 239
813 1209
52 64
1230 1268
512 988
653 698
391 698
606 623
108 117
283 347
434 516
305 402
931 1322
936 1437
645 699
342 698
284 693
119 131
850 1104
602 1039
1237 1284
261 709
945 1112
752 983
15 424
328 655
746 1168
138 531
1067 1223
105 354
270 421
1001 1394
550 704
622 809
140 540
835 1102
90 719
926 991
645 712
865 981
68 142
1114 1456
1389 1395
40 80
45 424
229 770
1070 1349
163 416
108 480
803 1005
118 673
250 829
599 717
640 718
177 1482
810 1166
958 1293
170 311
515 723
363 1120
729 1177
1364 1459
89 322
127 614
808 1241
756 1051
352 961
866 1182
100 1420
93 212
1132 1338
459 535
538 599
450 715
150 194
329 425
570 1305
661 669
280 1472
559 658
1111 1400
77 389
127 735
724 725
89 214
808 1362
424 433
429 777
1004 1008
253 322
263 1010
146 196
774 1485
1264 1349
185 1090
1384 1414
582 726
568 828
642 777
1222 1352
260 446
227 269
757 1252
77 739
438 489
25 845
780 1421
1229 1476
272 951
824 1427
1380 1416
841 842
560 600
579 613
128 677
109 435
367 959
909 1242
1143 1180
1162 1193
798 1182
187 1028
171 495
525 1252
98 690
354 616
939 1306
818 1245
150 328
988 1427
117 151
1221 1369
1312 1487
866 1437
143 288
129 390
234 443
43 875
113 382
428 1211
192 446
431 691
475 734
229 1267
1442 1489
807 978
1027 1247
667 675
1059 1199
1353 1417
797 1199
570 742
267 741
583 681
495 568
563 739
611 1453
1263 1379
722 732
359 680
1177 1312
22 240
132 637
473 701
94 116
183 868
352 411
272 388
1321 1441
259 863
746 1210
6 417
28 701
551 742
346 1276
17 283
915 1433
959 1210
346 458
532 1402
783 984
323 474
1216 1280
1260 1323
809 1387
267 1104
649 1169
938 1272
1153 1197
91 353
910 1210
1111 1200
1144 1148
321 815
847 861
747 923
272 401
1091 1221
511 646
544 594
571 697
1385 1439
829 992
376 458
340 535
892 1277
861 944
23 599
1081 1213
105 409
289 718
1070 1283
1292 1396
1336 1439
398 890
38 355
19 76
136 661
777 923
1035 1447
109 235
859 1221
1282 1324
432 659
745 1119
36 430
99 715
756 985
868 1226
57 489
15 492
956 1046
1076 1340
873 1277
892 1290
1097 1170
30 736
1074 1415
525 944
286 433
5 154
142 654
37 1126
856 1229
1329 1412
128 261
988 1119
31 328
490 842
56 92
608 834
277 734
51 391
763 1122
746 1478
699 1366
826 1178
1359 1412
70 377
234 485
1361 1458
865 1291
216 845
923 1232
749 1079
1437 1453
1051 1417
858 1251
894 945
70 269
949 1369
190 334
129 324
588 609
68 573
923 1124
40 740
931 948
12 678
246 616
306 630
521 555
366 681
240 276
1138 1426
935 1363
470 738
682 917
805 1482
208 1263
939 1482
846 1254
1025 1485
99 273
326 1255
706 722
123 401
491 568
463 735
100 683
141 455
378 627
806 1074
479 679
985 1076
498 692
145 1328
176 678
797 1254
1017 1257
0 681
957 977
456 695
934 1259
46 568
555 674
791 1210
305 499
71 332
749 1213
191 1151
370 399
843 848
526 1141
15 171
894 1079
1422 1427
92 391
1140 1485
285 705
99 286
973 1079
1052 1372
78 1395
1121 1206
81 646
1436 1483
1114 1432
1054 1152
1026 1090
938 977
229 517
537 633
776 915
896 980
982 1020
333 345
48 590
10 69
1233 1275
350 928
212 698
653 700
938 1327
1075 1332
495 528
302 362
1047 1270
539 800
1294 1376
439 633
755 1098
1357 1432
501 693
28 769
372 579
14 834
380 403
781 1272
110 313
910 1157
813 1453
154 356
310 603
24 246
318 464
755 1219
989 1386
259 1052
820 1348
248 1122
413 472
984 1456
1218 1394
1163 1458
982 1383
533 1291
99 541
238 1114
1281 1450
558 1055
219 606
93 201
499 1414
268 727
746 1291
161 372
952 1396
55 848
213 239
1032 1096
131 614
20 783
1194 1279
784 1115
89 324
412 1243
116 198
30 912
780 1410
797 825
866 1413
1215 1338
208 1184
239 268
161 614
288 655
1250 1295
873 1345
389 478
205 657
540 610
366 494
858 956
171 255
314 563
313 604
767 774
823 1349
675 956
928 1136
389 599
644 1377
716 728
320 728
614 717
237 730
33 671
129 150
106 1149
1052 1064
441 1139
262 1433
914 1359
821 902
817 1426
1161 1236
1133 1137
190 510
584 666
121 676
262 615
935 1418
1229 1370
0 615
1270 1408
1372 1419
343 725
68 520
155 674
551 1428
1115 1470
67 561
1015 1303
227 513
867 1139
1027 1128
209 1139
949 1437
56 402
1061 1126
1226 1422
169 693
21 566
854 1321
351 441
950 1029
203 277
141 631
122 352
774 1032
1161 1478
1202 1250
1186 1242
152 231
915 1422
239 873
1223 1309
753 1094
500 685
1077 1191
263 449
394 932
867 1381
889 1140
722 734
56 644
892 916
1031 1489
1130 1202
758 1330
481 527
252 704
1033 1040
632 696
370 696
843 1145
848 1489
337 519
824 866
342 634
777 791
1251 1384
798 850
220 644
435 532
772 1386
149 175
1121 1274
99 354
123 711
508 522
819 909
851 861
975 1156
1302 1322
181 1066
564 575
113 639
168 309
202 1354
1299 1438
29 645
364 1123
529 702
773 1328
138 588
193 258
349 771
163 352
858 877
247 760
1176 1452
481 661
439 930
599 653
103 715
184 411
511 540
1118 1218
304 476
311 1418
78 658
147 263
606 1043
45 481
952 1451
86 253
979 1059
41 776
1051 1164
954 1231
577 1244
10 379
791 944
870 1237
859 1344
754 1062
518 1051
193 500
647 936
270 720
836 1360
1055 1404
1394 1395
912 1355
373 552
132 197
1412 1449
870 1129
1131 1170
732 1424
854 1121
1076 1234
1148 1339
642 713
988 1121
845 1301
614 651
113 1123
297 715
1308 1476
953 1248
282 1080
533 662
1006 1111
235 739
634 1239
758 780
1038 1063
336 1316
826 1180
905 1473
380 605
421 1131
770 1019
838 1419
506 680
1113 1358
10 513
238 377
1291 1401
90 213
28 1321
969 1121
1115 1175
872 1417
1254 1482
927 1124
655 665
806 1063
1086 1117
190 336
1344 1412
549 1437
96 149
695 737
299 737
331 1443
628 912
1409 1477
798 1360
328 391
507 622
6 111
92 151
522 1196
28 624
732 740
888 1253
0 562
1034 1078
242 324
1071 1374
1019 1184
97 1397
854 1376
754 1438
1024 1033
1316 1407
461 627
447 729
760 1189
1133 1434
765 1038
85 1279
116 629
281 696
272 1142
681 1310
473 866
772 1428
982 1009
992 1202
959 1025
30 296
71 334
90 347
799 807
7 578
315 694
922 1372
724 1387
985 1428
37 457
18 178
229 627
201 565
464 1433
206 643
772 1320
1226 1261
744 1221
1038 1439
785 1030
802 1428
76 533
141 928
614 1377
994 1369
1288 1321
193 300
864 1030
767 1097
794 1200
1033 1216
804 1393
408 1393
752 1203
843 1092
1255 1265
592 692
1103 1433
1199 1370
430 630
388 633
186 418
931 1326
117 584
1146 1214
268 716
1417 1448
441 644
792 1396
410 1065
859 928
960 980
210 482
965 1095
1051 1098
1190 1442
893 926
351 643
395 649
1269 1442
183 241
226 877
174 192
399 539
784 875
734 1283
1033 1350
324 890
423 603
1057 1155
587 711
770 832
384 1291
766 1356
981 1281
1215 1219
1146 1348
533 596
650 1181
13 72
271 367
49 254
861 1364
207 611
260 437
850 1471
504 834
812 950
1083 1413
157 201
1319 1397
362 606
804 951
1148 1286
260 558
951 1415
452 499
816 1190
1055 1472
869 1053
1416 1451
1034 1120
46 491
478 902
1058 1477
925 1362
1266 1426
455 1184
975 1479
338 370
1305 1354
842 1364
192 1484
1166 1195
723 891
1017 1072
884 1482
607 679
1245 1461
211 450
832 1026
71 147
694 1321
754 1372
974 1375
86 684
826 1248
320 622
922 1185
1082 1174
1138 1483
1372 1421
1136 1410
814 1359
915 1182
841 967
925 1375
560 725
818 1249
890 1354
238 445
362 740
936 1241
1087 1373
433 620
784 1372
1059 1311
787 852
761 1388
270 333
767 910
285 641
937 1321
76 467
62 340
418 1436
122 354
1082 1187
15 228
433 741
913 1378
536 1391
297 328
206 469
646 741
1212 1381
749 1391
1220 1242
397 1205
1109 1145
765 1106
400 456
1408 1441
483 1393
13 461
370 698
1109 1266
1 306
622 1444
345 641
350 985
198 1345
1309 1327
813 1389
186 473
103 475
1269 1376
340 647
938 1276
597 983
31 77
110 370
1001 1332
149 298
866 1107
904 1399
100 1345
747 927
926 1158
940 1093
1074 1285
46 62
526 1453
787 999
366 417
762 1171
789 1045
1009 1048
47 142
126 435
52 257
1352 1387
249 771
411 604
311 1420
610 750
1057 1210
293 319
1139 1279
416 884
426 1343
1152 1218
751 874
319 722
799 1359
1322 1400
112 658
93 150
225 306
464 588
450 653
708 1177
937 1000
320 543
480 532
70 368
970 1362
228 725
794 1402
121 599
995 1126
1122 1167
582 1482
865 1282
956 1400
100 661
463 484
1268 1406
1032 1166
1004 1067
48 1144
1094 1226
280 484
1058 1303
758 1011
823 1177
35 387
68 335
133 730
441 846
840 1346
900 1131
399 849
89 623
20 35
70 381
16 1084
102 333
272 1010
439 1187
327 680
602 656
1223 1232
128 736
909 1072
803 1319
1114 1181
773 888
424 505
465 506
809 841
437 444
1242 1366
777 1303
771 963
296 441
595 737
15 162
531 1247
760 1070
378 739
844 1478
980 1073
190 688
157 511
498 575
1034 1309
404 1142
156 811
1226 1250
157 1450
754 1440
974 1443
342 678
980 1194
1026 1081
542 739
1094 1481
99 398
1231 1486
1060 1079
310 352
848 1196
185 586
1031 1317
998 1140
1003 1218
918 1376
219 584
90 470
783 922
55 1415
1269 1310
424 989
126 1295
253 1107
896 1213
1309 1382
214 361
766 1103
1193 1207
1165 1374
1024 1398
497 686
20 532
543 573
355 1276
212 702
391 704
432 705
1084 1156
1125 1157
767 1449
1218 1385
113 696
982 1145
154 468
1336 1377
1234 1329
65 130
801 1218
1054 1398
367 697
776 1390
179 1171
1078 1203
402 425
1028 1345
401 466
958 1286
158 1233
1063 1339
211 305
933 1229
26 259
55 731
306 313
757 1003
982 1387
803 1119
882 1412
314 433
744 1478
852 1277
286 371
62 892
953 1063
1058 1116
132 133
137 248
1076 1399
147 670
262 1182
31 495
265 433
1180 1227
1359 1458
512 539
1037 1178
443 705
847 1054
967 1348
332 608
851 1173
268 852
925 1122
307 551
274 374
881 1052
298 731
413 718
347 593
292 657
932 1246
204 315
935 1288
314 675
1270 1278
649 665
544 1137
165 552
201 246
390 670
188 721
477 558
759 1476
609 714
1101 1176
770 1076
756 1178
107 732
1270 1399
296 1422
186 796
645 1310
247 254
164 219
845 1371
881 1065
891 1487
1087 1133
1086 1174
52 688
874 1025
1094 1294
1099 1372
510 1014
763 1194
54 734
183 619
389 724
62 329
549 676
67 444
1180 1482
830 1369
138 324
998 1182
814 1361
597 609
363 442
929 1082
275 329
846 1313
992 1138
145 219
293 1100
1143 1307
1244 1359
48 286
1105 1429
761 1390
229 563
1105 1200
143 294
671 679
349 628
855 1254
103 1161
538 1089
868 964
940 1069
1212 1262
1112 1324
136 520
106 348
1306 1311
129 517
877 905
27 469
319 348
52 233
1093 1203
124 1341
950 1154
29 286
53 643
755 915
367 510
773 969
1067 1150
1158 1268
795 1216
215 412
352 646
233 466
613 687
866 867
1005 1211
263 574
996 1391
156 182
395 464
185 654
1021 1155
809 1272
251 456
1158 1160
624 701
283 408
987 1278
885 1267
477 1176
389 1100
291 528
17 1457
1077 1208
163 1282
152 598
759 1276
193 370
1067 1163
36 652
220 998
982 1321
182 477
987 1399
431 1181
1142 1458
1315 1386
86 365
413 531
1056 1391
624 714
223 370
171 180
222 899
750 1055
837 943
601 703
334 359
905 1343
979 1292
311 604
242 770
710 875
1078 1271
116 365
536 722
214 671
926 1402
819 1047
170 601
32 142
703 835
812 1007
762 1415
177 496
1359 1405
1097 1405
519 1428
116 486
245 371
751 768
225 429
505 712
1011 1109
1338 1467
1250 1354
1120 1244
1031 1172
162 494
229 255
926 1415
1041 1365
327 561
824 1367
153 1199
188 897
1016 1308
969 1233
31 684
1106 1467
424 615
921 1421
714 1357
55 223
157 1439
931 1062
150 268
647 1074
461 618
817 1485
1092 1424
830 1424
116 620
639 661
14 572
709 1134
148 572
888 1136
1034 1190
750 1431
920 1317
137 679
1107 1180
917 1019
447 612
961 1062
259 561
4 271
42 563
78 220
97 233
773 782
864 1129
808 968
500 623
923 1480
118 292
128 980
1014 1073
21 625
131 231
296 564
881 1483
227 693
356 578
461 631
705 1257
106 403
639 903
85 1283
83 456
303 459
248 523
418 446
294 639
791 1445
906 1432
701 734
587 1386
291 341
530 623
977 1312
903 1097
1128 1481
820 1099
842 858
108 341
1190 1312
476 508
899 1099
250 690
1198 1432
783 1153
43 360
366 1279
1063 1207
149 1281
345 927
474 583
966 1045
28 762
630 1096
243 421
418 688
910 1379
177 296
1003 1341
877 973
786 1343
421 693
536 643
173 591
407 529
214 363
145 529
580 686
857 1223
912 930
1225 1390
1151 1212
1049 1164
980 1330
314 1469
119 476
998 1384
1001 1389
75 406
624 648
574 1056
882 1172
866 935
387 412
15 540
884 989
1164 1272
942 1159
1090 1094
749 764
601 637
787 1056
1139 1444
251 524
575 584
563 1284
346 532
783 1287
1132 1441
884 1110
218 1249
557 715
956 1215
255 350
773 1279
40 196
965 1449
1254 1286
58 479
285 1424
168 610
1210 1216
921 1113
186 664
967 1229
184 591
903 1473
170 427
1140 1157
441 890
699 1414
67 420
573 780
499 602
72 269
710 1051
211 1367
594 610
1022 1057
313 597
804 834
1048 1460
685 1408
1349 1388
394 670
172 328
1125 1414
1344 1458
65 387
519 557
491 724
498 1437
315 498
380 893
774 783
600 667
1166 1307
732 786
1050 1361
327 508
98 685
41 151
192 549
63 435
546 552
890 1116
942 1306
790 912
241 441
315 390
361 506
493 662
4 205
1191 1192
69 105
1201 1422
860 1129
239 516
71 380
1019 1122
1198 1353
788 960
122 345
922 1189
172 462
1362 1461
932 1382
1004 1487
261 396
1332 1474
64 1279
821 1258
867 1374
1335 1479
1008 1084
792 1200
998 1305
776 963
511 1446
671 681
108 275
1369 1477
261 517
94 111
758 1323
992 1261
233 455
885 1135
85 291
200 278
1066 1210
1272 1315
1184 1202
609 971
875 1090
858 1446
207 402
264 707
1007 1017
167 1040
745 751
1001 1431
1149 1366
546 1036
319 579
422 1266
249 520
416 1451
722 969
89 1056
806 1377
429 1390
534 689
971 1444
1205 1382
844 851
94 124
238 1041
66 291
480 1328
857 1049
1299 1431
464 566
268 654
235 477
312 697
778 1170
41 648
3 127
517 577
1069 1090
272 517
1225 1337
755 1159
170 240
211 241
1030 1098
1269 1380
1214 1444
954 1224
71 648
1091 1458
838 1049
411 716
865 923
1085 1155
133 479
919 1388
556 1336
86 367
1273 1391
289 726
858 1112
844 985
968 1280
123 1188
949 1001
761 950
57 605
165 367
5 149
232 1360
1090 1391
372 1111
840 1216
914 1165
1148 1332
554 593
757 1181
330 885
177 377
710 1106
803 1068
1169 1391
536 724
484 534
1088 1466
186 840
1215 1278
939 1343
354 424
772 937
216 719
801 1409
1043 1171
1062 1184
353 724
119 557
427 673
121 603
281 555
129 198
1361 1453
326 1237
1131 1405
1351 1408
231 1148
81 386
475 542
518 1178
1268 1410
1120 1246
39 389
366 555
839 1004
89 506
14 332
750 1420
473 617
1001 1002
27 42
679 722
887 900
1066 1131
1159 1359
978 1018
23 1091
293 686
485 1122
31 686
1134 1302
44 1379
75 729
1238 1359
28 388
322 606
470 733
800 1133
846 1249
693 778
1052 1125
164 397
477 628
876 1128
1296 1485
1351 1421
516 556
1142 1247
760 953
20 160
273 340
1059 1249
902 1302
349 564
887 1142
890 1413
983 1375
1143 1364
447 614
894 1303
125 563
993 1016
105 325
377 518
1196 1375
795 1031
800 1375
583 623
294 520
261 343
481 575
917 1142
277 287
1068 1311
350 1031
42 686
1411 1421
129 574
1397 1486
638 680
46 805
220 692
261 693
469 1396
285 821
319 405
439 736
356 701
521 805
9 630
14 708
77 239
230 1272
968 1201
151 713
871 1268
1060 1204
790 1343
838 1091
645 696
103 413
526 1270
870 1043
59 572
787 1045
1081 1263
897 1442
754 868
224 639
532 755
826 973
45 179
616 1163
468 1036
836 1166
813 1448
761 763
1280 1328
511 588
1085 1089
237 1288
450 578
340 706
892 1448
74 1230
363 1104
354 1055
402 537
517 524
407 652
1028 1228
219 601
945 1230
1366 1489
801 1451
390 419
956 1096
95 242
1389 1392
1048 1099
795 1407
475 1173
819 983
857 1238
51 320
395 655
37 947
81 199
394 430
1046 1110
125 242
1152 1277
443 817
1037 1061
57 781
179 478
717 1056
1030 1287
288 650
40 548
67 193
751 825
916 1121
360 674
1055 1236
814 881
948 1110
277 905
46 255
445 489
823 1344
1148 1400
348 556
745 1424
848 879
528 1426
1018 1290
765 844
770 1188
916 1242
190 384
143 272
1182 1398
1270 1282
764 1410
923 1403
818 1121
100 612
62 91
72 513
70 669
779 900
364 621
809 1008
5 459
555 603
925 1368
352 503
467 490
969 1411
296 379
29 264
316 1260
424 564
1086 1178
795 965
1089 1183
368 669
509 608
192 672
57 218
1337 1433
213 731
1142 1194
784 1486
1202 1245
245 683
892 1019
196 269
915 1188
1020 1433
1056 1127
920 1266
541 681
1052 1422
1066 1320
66 159
458 683
38 97
771 914
62 454
886 1389
829 855
87 218
457 983
1133 1266
69 349
891 915
333 624
813 1261
813 1032
112 396
293 1225
208 629
884 912
875 1092
106 352
345 634
1186 1479
446 686
219 1461
1251 1379
55 535
407 694
539 621
599 635
84 226
636 702
825 1392
17 401
762 1043
1001 1325
242 519
173 648
453 702
1234 1267
865 912
777 799
119 533
822 1444
1023 1205
775 1103
448 479
126 428
236 825
838 1159
68 194
207 538
638 990
762 1285
416 648
970 1234
435 661
434 702
1058 1283
5 30
846 875
870 1232
884 1167
142 530
271 415
909 931
881 1098
1079 1113
979 1175
932 1063
1271 1283
209 705
1155 1337
1215 1388
19 315
1228 1327
239 318
58 1475
533 536
846 996
1247 1340
156 320
873 1395
1043 1281
1255 1460
246 479
850 1411
292 595
125 189
591 662
1169 1393
976 998
327 552
41 195
640 783
588 593
505 595
823 1399
35 151
210 906
1092 1294
949 1245
350 428
520 839
907 1248
79 608
1034 1060
361 1489
786 958
841 894
560 652
856 1468
1231 1345
348 503
955 1181
494 557
86 503
812 1361
1254 1477
92 254
345 434
1344 1407
1122 1294
96 144
454 606
786 850
636 1320
1066 1133
216 734
422 1068
274 675
141 560
31 688
72 689
834 1012
839 1127
844 1471
880 899
171 439
314 976
971 1246
695 1082
421 550
662 676
305 375
1038 1192
81 630
769 775
37 560
1004 1315
897 1189
434 1199
957 1203
888 1369
201 668
449 504
920 1321
321 504
20 1330
992 1426
472 902
1195 1260
837 1323
472 673
941 1380
595 743
15 168
894 1305
73 109
584 850
773 1015
1320 1413
850 969
270 394
163 268
25 563
1341 1472
940 1128
379 566
1124 1474
272 440
305 388
964 1256
7 694
1178 1185
908 1095
273 584
1334 1432
1098 1192
96 628
182 402
302 467
1429 1440
99 404
161 464
1214 1259
892 1208
1200 1324
1045 1450
372 684
401 1385
485 561
564 625
786 1455
1204 1214
954 1039
140 297
329 1216
67 1216
1096 1388
10 187
170 176
1011 1021
1090 1314
276 572
689 741
782 932
367 690
1153 1370
162 995
476 633
1157 1260
1014 1440
682 701
167 521
0 115
184 461
230 577
156 362
450 580
383 1344
988 1158
840 1031
377 1004
891 1225
490 652
149 359
176 233
761 1115
1449 1489
871 1283
1361 1376
0 7
1206 1273
1058 1109
362 588
18 549
262 1175
389 462
174 308
280 1458
795 1409
110 552
886 1002
383 647
756 1158
1055 1225
733 1174
368 524
1022 1048
84 765
1206 1394
194 896
366 1417
156 375
818 989
1164 1397
1062 1120
7 23
466 537
1018 1279
135 437
314 668
723 873
1262 1410
186 668
819 1106
934 1056
299 545
860 878
669 1310
104 306
142 598
147 676
362 601
169 206
1079 1410
456 1431
941 951
208 1302
851 1408
758 951
49 491
1291 1451
1217 1236
241 432
1208 1416
927 1174
567 602
345 489
457 730
9 311
1344 1462
19 504
294 443
772 1236
63 547
183 612
771 782
1029 1306
315 502
29 145
31 743
1354 1362
328 441
507 672
130 722
1152 1413
1031 1352
1265 1290
23 101
64 102
236 1377
761 1262
1342 1473
1275 1483
90 505
823 1359
964 1298
158 676
309 320
1367 1422
1133 1255
138 438
967 1488
1089 1185
822 1070
579 1083
1226 1419
233 446
887 970
973 1010
1112 1317
488 672
787 968
594 1098
14 523
41 397
170 1036
225 972
230 1316
887 1091
393 556
832 1155
1019 1247
389 1080
26 762
994 1419
779 1265
1 180
1040 1306
814 1488
785 1201
714 732
848 1486
29 400
411 465
1068 1489
1026 1263
12 167
397 503
868 1320
819 906
1024 1338
1077 1201
98 126
994 1432
312 809
253 1168
113 865
748 1147
75 344
63 1044
987 1392
1042 1328
849 933
1014 1266
527 882
580 745
747 922
112 411
310 655
165 237
807 1461
1297 1325
149 1232
787 1223
133 470
1139 1382
77 309
228 707
775 1105
1116 1169
1336 1438
374 532
140 365
281 304
43 661
769 1327
244 422
851 1100
483 704
469 769
469 540
754 1167
21 121
845 1285
167 1407
298 658
1287 1401
265 481
172 253
215 889
232 304
177 368
944 1035
517 702
734 1225
1042 1341
1201 1334
552 659
870 1234
906 928
610 637
787 1465
18 725
54 419
59 763
114 433
408 651
802 807
205 588
864 1456
12 422
394 487
485 871
499 540
438 530
385 1192
1078 1156
350 417
608 941
899 1413
1069 1336
1055 1401
360 610
1053 1328
814 817
819 1161
912 1352
53 1362
258 599
280 358
519 603
257 374
307 720
391 1357
279 887
565 1244
1048 1398
1143 1221
301 417
793 1108
466 484
278 433
985 1049
135 613
1083 1355
888 1116
0 425
38 717
74 374
833 1180
962 1065
1261 1398
1154 1235
102 1375
391 1249
127 910
20 30
303 318
363 369
5 395
431 503
114 567
81 390
447 713
120 318
553 614
792 896
1136 1460
761 1317
363 490
794 942
371 610
1231 1468
252 393
379 434
90 331
134 374
779 1307
894 1294
488 606
1233 1248
1274 1286
25 1141
718 1068
23 277
451 724
1122 1417
1141 1430
160 511
1034 1304
846 1253
440 565
25 323
173 221
178 565
798 1478
774 855
6 458
56 575
166 218
792 1138
102 691
391 565
850 1079
110 286
808 853
1107 1415
701 727
80 114
835 956
804 1377
30 293
117 447
1024 1151
543 555
1013 1258
634 673
606 611
413 445
284 331
325 332
318 1376
583 627
624 628
390 1215
756 784
481 579
104 629
940 1130
986 1017
246 1207
136 581
838 853
1024 1272
292 1094
488 740
1436 1482
1098 1423
652 848
160 645
822 1030
242 455
808 1095
1174 1418
145 522
1074 1214
296 691
301 1035
898 1025
1077 1256
175 630
619 1344
1095 1273
192 984
835 1090
80 248
940 1143
1060 1208
136 823
972 1095
824 931
82 294
106 651
161 358
484 1277
429 1341
174 297
704 1280
1048 1090
891 1106
316 646
1023 1262
1014 1213
575 577
401 461
117 702
483 759
194 656
861 1348
6 605
1095 1286
367 584
26 254
243 777
468 1161
662 1404
168 603
214 490
1036 1093
420 824
115 713
249 713
1283 1458
773 1393
587 708
1249 1322
31 490
380 644
793 813
1051 1337
111 190
808 1350
80 611
1155 1394
1000 1291
37 1180
842 1348
785 814
647 880
447 526
9 300
355 708
69 85
506 611
68 614
450 716
670 719
554 773
784 1235
39 98
228 1017
369 727
176 598
930 1060
157 319
644 666
1358 1470
1141 1472
363 424
401 716
1041 1305
506 732
60 386
280 655
373 617
362 953
1112 1185
656 942
936 996
977 997
366 843
213 372
39 448
116 668
811 964
319 1027
19 506
456 507
1168 1467
357 730
942 1420
1112 1306
100 845
136 502
274 732
1110 1233
28 676
1358 1483
781 1179
795 848
1034 1130
454 555
937 1426
145 443
577 625
40 686
1134 1482
208 499
213 614
256 1213
138 440
608 1143
28 568
919 1005
437 736
907 1439
1218 1301
163 204
316 446
310 402
1096 1311
1100 1201
105 384
290 1332
154 276
30 469
250 738
1418 1483
480 1200
917 972
875 1204
980 1257
128 223
111 579
59 389
224 456
243 469
745 865
984 1147
5 826
1001 1316
495 690
1135 1316
1369 1483
462 513
1327 1486
482 1394
351 682
79 223
1278 1301
1445 1478
947 1201
840 1075
105 397
256 300
302 645
794 1373
959 1440
861 1282
910 1440
270 585
46 1106
767 1391
784 806
1009 1153
145 590
1005 1448
1 545
823 1148
856 1096
1470 1484
688 694
1032 1258
1213 1333
130 174
1215 1379
819 1150
764 1214
339 1479
239 309
859 1222
380 699
910 1453
22 725
1064 1102
742 1051
198 429
299 481
386 894
229 1176
311 720
314 725
179 537
253 486
874 1062
98 612
43 676
170 717
1127 1279
519 605
233 248
782 1244
904 941
334 596
793 881
127 1020
278 435
231 323
229 250
1080 1288
854 1470
787 1480
30 40
1046 1411
1106 1462
226 366
178 554
1393 1411
21 607
150 492
155 607
771 839
301 661
683 726
1316 1393
639 656
28 502
231 336
976 1244
382 734
597 659
1108 1363
201 430
1034 1185
1061 1288
385 739
1066 1366
197 459
477 742
606 1418
1110 1180
826 1421
20 503
858 1373
1233 1250
449 616
1141 1432
8 385
247 667
164 632
1212 1312
1332 1414
1024 1261
1101 1481
20 624
911 1357
295 1088
966 1027
1144 1299
1218 1248
473 1094
220 685
335 635
555 675
1239 1307
1170 1207
356 465
531 1486
1013 1489
1202 1425
746 1145
806 1196
97 699
73 113
476 503
1336 1361
26 1333
69 758
578 635
58 111
794 1199
968 1086
973 1430
1102 1315
147 1351
613 629
236 642
1239 1320
898 1027
615 638
639 1032
312 637
207 355
487 1392
850 1215
196 462
822 1382
789 1205
684 1448
752 1323
783 1161
199 1110
956 1089
639 1382
1097 1213
295 525
949 1049
436 1467
140 422
926 1331
33 296
893 925
1173 1208
271 353
1283 1339
45 535
704 1403
537 997
1139 1331
951 1280
545 592
1116 1347
1317 1337
214 492
520 535
109 412
778 1473
105 707
408 479
867 993
191 481
793 815
416 828
316 890
94 548
23 79
888 1052
1275 1461
824 1296
884 1347
142 710
1002 1339
788 821
91 664
227 259
149 605
844 1167
882 1422
369 608
943 1109
14 380
833 1237
976 1057
198 726
1256 1340
120 1301
579 832
667 1470
711 722
914 1347
150 197
788 942
1194 1401
92 192
405 423
1138 1240
262 374
468 708
984 1002
93 565
468 479
860 1232
299 670
617 1474
813 891
123 444
133 1132
202 737
250 485
656 944
969 1404
370 550
1217 1240
67 549
282 437
394 678
535 654
1068 1117
309 311
111 326
42 492
897 1006
437 496
982 1050
1149 1227
827 1176
925 1482
51 460
291 378
936 1348
578 1374
1230 1300
889 1007
87 90
1026 1241
23 334
379 1430
50 208
110 222
197 635
389 1071
1189 1420
829 848
414 606
283 1318
240 453
185 517
892 1133
966 1082
84 1374
781 1302
874 1264
1042 1077
118 463
434 440
1212 1259
766 913
1184 1426
251 1487
84 327
48 404
1230 1313
204 1146
894 1364
961 1125
106 345
166 396
336 1036
897 1369
1205 1485
938 1141
616 1090
836 1093
421 622
739 1426
863 967
1207 1302
300 332
200 394
422 1261
126 179
664 1023
567 1090
235 351
54 276
369 1105
513 561
778 1273
1153 1187
828 1390
831 907
872 908
1364 1370
569 641
107 287
1366 1416
829 1211
276 510
787 985
152 474
1273 1373
228 698
283 405
785 1326
107 179
62 931
525 692
194 592
796 926
856 1206
381 418
429 1398
279 407
652 918
5 1299
17 407
110 598
905 1098
261 996
476 692
168 539
190 298
388 579
176 400
80 426
140 477
1064 1091
126 542
14 72
249 649
1049 1227
334 464
144 303
135 254
470 473
24 423
44 72
4 710
366 537
27 842
1458 1489
641 1001
355 644
547 585
271 650
225 1473
471 711
784 1171
806 930
111 139
976 1341
1317 1405
1036 1392
547 935
580 883
939 1230
851 1117
278 1484
477 610
821 1174
756 1459
88 542
907 1362
948 1171
676 712
1071 1470
45 1074
40 501
530 594
1337 1360
886 1195
1004 1416
971 1239
243 271
175 1305
1333 1362
159 314
238 607
128 735
909 1300
1162 1480
754 1426
237 1136
122 166
1 105
746 1013
746 784
990 1410
792 900
916 1195
236 1436
934 1478
1020 1252
1121 1304
211 625
1299 1347
43 223
175 379
1216 1312
268 341
1307 1467
765 1147
14 690
69 397
1295 1349
261 338
835 839
90 685
1272 1365
153 741
411 511
1073 1421
144 692
405 733
446 734
212 567
1075 1201
808 1086
1174 1180
324 744
785 1139
76 642
38 158
1091 1145
829 1145
989 1134
92 623
166 572
17 449
1158 1320
982 1131
94 174
159 569
785 1489
626 678
237 1391
884 973
736 809
221 629
326 682
1334 1438
1246 1325
588 1096
662 1045
803 984
1111 1137
1014 1204
921 976
508 578
852 1142
304 519
189 303
4 523
386 588
864 1381
831 1204
191 349
984 1446
1273 1320
94 645
127 593
116 175
169 1233
19 242
1137 1395
51 194
875 1395
6 717
451 1104
1153 1376
1139 1212
210 483
127 714
968 1330
383 411
780 1279
131 833
148 248
0 121
873 1443
47 1364
31 602
320 476
927 1154
177 427
526 581
1166 1170
789 1220
902 1097
575 702
819 1328
700 882
879 1113
1011 1269
455 1051
818 874
342 356
798 1161
954 1408
83 132
1039 1223
423 954
934 941
63 419
782 1301
394 667
1354 1463
53 374
1051 1462
784 1347
70 543
176 710
916 1237
1138 1350
1201 1406
5 333
393 415
123 325
1010 1057
922 1173
913 1353
243 326
888 1296
392 1129
1113 1414
38 79
150 320
444 501
471 1129
814 1468
1168 1471
96 205
103 1147
132 616
762 783
211 680
918 1296
763 1422
1198 1350
232 739
759 899
83 387
382 912
270 442
781 1183
860 1476
27 455
335 571
968 1009
937 1430
978 1202
909 1368
62 678
444 743
117 385
857 912
991 1141
961 1235
15 108
888 1430
597 729
700 1379
1130 1192
206 578
1382 1413
200 275
1294 1300
771 1030
912 969
86 927
347 1197
750 907
227 637
342 624
903 920
1297 1305
1464 1482
474 743
745 977
209 445
421 624
808 1033
104 688
489 499
1000 1203
525 681
783 976
1329 1378
910 1431
757 923
836 1216
247 858
1350 1437
830 913
1107 1487
1195 1334
912 982
51 128
754 1039
386 643
919 1372
86 351
745 1219
778 1167
344 646
951 1324
578 584
1157 1200
775 869
186 474
769 1320
5 133
265 474
1180 1268
1345 1372
503 531
940 1323
181 480
527 888
871 1452
967 1160
865 1149
805 869
505 577
235 716
271 410
123 246
161 538
820 1406
837 1050
807 878
210 659
738 1044
218 254
789 1275
589 692
921 1165
766 1291
346 705
253 477
898 1447
972 1396
1118 1450
304 708
942 1224
670 765
1310 1391
826 1278
1079 1458
1015 1214
1287 1407
399 716
886 1063
1073 1155
844 1332
517 708
80 670
503 773
135 377
255 1462
281 431
211 601
1264 1396
510 934
450 654
458 478
232 660
570 655
107 665
797 883
717 1348
1052 1338
1124 1214
955 1405
26 676
45 726
296 308
535 590
858 1472
853 899
264 504
319 1194
737 953
317 367
322 711
1045 1069
1388 1408
660 706
192 372
62 491
96 1307
886 1197
6 330
204 611
345 550
1040 1112
424 614
1105 1241
294 733
772 1297
8 147
338 547
348 740
370 499
1316 1397
755 835
273 566
980 1182
1279 1478
811 1144
792 902
859 892
864 1007
1103 1289
248 509
597 663
776 894
874 1429
1108 1367
772 1418
937 1485
57 389
38 147
272 314
277 392
34 671
172 635
908 1198
1013 1251
999 1316
135 982
224 273
358 502
110 400
41 566
5 643
1047 1249
937 1377
11 394
59 1374
11 165
94 1331
952 1362
508 1385
181 990
795 1378
437 687
349 574
827 1367
187 512
885 1308
1093 1486
1000 1029
912 916
688 1437
1049 1150
1288 1432
1392 1489
872 965
289 644
325 338
1125 1145
163 276
786 1450
1204 1438
1207 1480
288 1439
1102 1198
959 1378
819 1075
98 295
318 564
268 706
961 1424
1378 1483
940 1486
954 1155
102 121
65 239
1123 1378
1283 1330
68 244
202 473
861 1341
861 1112
188 346
840 1026
914 1204
942 1037
437 1050
863 1158
1266 1282
68 136
1148 1263
205 636
427 712
382 1235
438 578
1037 1166
935 1384
350 465
393 1101
868 1394
991 1464
1002 1330
124 832
1287 1462
265 542
447 519
421 1055
1004 1110
83 242
162 535
401 588
953 1293
280 527
406 666
805 1166
1145 1234
257 543
861 1475
1129 1226
499 830
347 473
691 1000
316 894
880 936
345 363
1210 1336
673 1131
215 253
285 497
343 704
1351 1460
895 951
946 1411
1018 1287
171 368
658 715
775 1300
1182 1395
819 1343
860 1344
904 1121
348 674
876 1059
977 1111
1010 1059
1316 1331
1335 1344
1372 1411
212 261
570 723
281 620
451 543
860 1465
1223 1288
555 600
63 663
57 323
138 1251
1024 1078
1101 1298
1409 1414
428 495
9 548
124 269
146 782
349 616
1001 1296
1323 1347
407 557
252 454
785 1183
1253 1288
871 957
84 318
29 382
991 1022
755 1011
793 1303
784 1483
455 490
567 731
534 554
1342 1481
55 290
1056 1124
794 1124
659 670
337 390
867 1373
773 1186
966 1086
129 855
776 1191
776 962
841 1320
333 621
30 583
200 506
978 1325
379 508
79 216
769 1188
1077 1304
1170 1266
1343 1423
37 744
548 694
367 390
1100 1207
298 519
253 1271
1117 1376
984 1261
297 560
330 508
130 154
247 739
522 678
1132 1361
1077 1425
1063 1261
894 1489
290 291
639 1199
1246 1382
602 1317
270 578
808 1156
868 1207
314 355
121 226
434 686
420 522
277 702
59 745
823 912
603 1397
568 622
1167 1210
344 648
946 982
1116 1393
75 231
357 1112
448 705
783 1220
939 1208
84 465
222 658
851 1095
87 699
684 689
1370 1431
614 630
1433 1487
292 579
383 697
99 938
995 1224
16 940
234 345
764 1328
46 65
304 589
510 694
1043 1157
149 651
1119 1152
135 487
589 694
319 833
88 412
828 939
10 721
1319 1442
216 597
357 536
436 600
384 410
1351 1394
1386 1388
118 1193
129 305
67 1413
934 1227
48 1134
748 808
588 590
354 423
170 602
767 821
1011 1218
95 428
81 264
125 307
364 552
1045 1179
244 672
431 498
749 1073
964 998
771 832
241 603
793 1116
867 1065
774 837
686 724
493 595
364 673
479 660
825 1297
71 1360
897 1173
932 1194
949 1363
1004 1299
1103 1278
2 1260
74 611
162 495
800 1011
63 718
285 794
252 388
988 1476
1258 1300
461 727
172 624
42 551
391 668
828 1194
15 1091
321 380
937 1366
1066 1251
291 437
802 1178
310 450
1077 1117
1175 1423
268 453
746 1017
820 966
1114 1184
66 1258
152 278
279 319
709 1135
27 512
371 1076
1281 1297
33 34
1010 1477
1091 1136
996 1313
182 1325
254 676
820 1087
1406 1413
551 670
432 453
1177 1361
762 1082
935 1010
71 676
436 1097
988 1021
1007 1071
57 1451
850 1316
1158 1203
146 742
531 553
261 692
1204 1319
992 1436
1019 1310
752 1195
169 874
912 1147
764 1020
977 1313
404 448
54 335
240 525
18 412
534 743
193 413
234 1205
759 1090
5 1116
863 1147
968 1200
1069 1252
272 679
346 628
1127 1193
327 349
1313 1383
296 807
198 235
277 528
208 694
645 695
182 1459
1283 1440
6 708
1002 1198
372 1031
850 1329
798 910
1331 1373
195 351
174 1460
114 1180
1245 1306
455 921
823 1088
422 744
455 692
1048 1435
933 1219
661 760
1062 1104
924 1399
380 518
812 929
1257 1316
429 639
1322 1445
52 423
406 655
464 633
906 978
942 1160
56 1067
90 126
837 878
45 649
119 598
100 356
41 1173
499 590
1161 1204
1037 1397
949 1284
159 936
1234 1453
220 357
253 305
332 598
464 983
170 536
1094 1150
202 717
983 1053
793 1158
1032 1440
1235 1274
256 724
1092 1225
1031 1215
1105 1164
902 1101
888 937
547 644
865 1448
63 531
782 1413
54 711
804 943
243 1135
1241 1469
848 986
1018 1397
586 720
682 1182
682 953
354 599
1020 1177
519 666
1071 1408
183 488
656 937
1129 1349
1029 1411
881 1284
185 497
479 486
797 1290
811 959
897 999
1083 1418
303 489
5 566
106 1143
472 712
474 1310
711 728
2 268
7 612
203 258
260 792
227 615
494 730
812 1305
223 910
639 825
971 1298
1186 1223
902 1464
797 1182
88 722
953 1429
275 319
21 668
821 1475
325 1308
287 558
806 1123
787 844
952 1177
1205 1357
1153 1167
31 43
60 744
951 952
244 1090
46 617
1061 1349
335 454
161 1092
2 281
136 510
356 513
669 744
562 618
199 566
402 1154
751 1308
372 723
792 1080
1186 1236
943 1478
745 968
536 565
250 733
1327 1360
977 1247
84 212
811 1443
778 1037
611 631
891 914
99 685
1176 1312
472 1196
112 395
931 1252
912 973
84 333
750 911
423 516
20 806
880 1435
1095 1323
515 519
952 1311
864 1198
237 282
8 459
1055 1143
1308 1323
852 1080
802 1488
126 185
986 1309
805 968
875 1212
290 293
873 1368
362 398
1095 1215
100 169
191 516
251 567
979 1040
531 621
145 814
1322 1379
843 1381
865 1140
1426 1436
1192 1269
586 1459
1283 1387
1076 1094
157 1053
688 689
776 1327
158 231
762 1163
844 1202
130 398
1018 1089
457 527
80 540
462 642
720 1166
797 861
976 1092
33 236
1297 1443
371 460
216 586
491 525
288 462
1079 1449
174 360
831 1384
31 540
812 1105
22 720
58 414
218 366
484 522
332 653
206 248
1222 1390
859 1338
513 701
462 1113
383 591
295 707
65 659
851 1339
1025 1226
151 204
417 589
804 998
1043 1280
21 360
1351 1396
2 81
347 530
1307 1326
226 240
572 648
613 1403
816 1008
819 1279
160 374
860 1280
266 541
842 1411
40 723
771 942
862 1060
807 1124
48 318
34 420
900 1352
569 1252
30 1203
943 1170
136 1370
781 879
1421 1468
612 1070
13 253
271 777
918 1113
340 1136
49 435
305 361
1010 1345
270 1306
1 98
125 430
204 723
405 713
1233 1353
976 1468
1022 1355
93 626
349 552
528 554
513 1185
1170 1189
55 1273
1216 1305
194 385
433 667
784 1419
78 210
714 1360
41 557
863 894
887 1022
178 562
752 1063
664 721
1082 1234
39 632
388 1311
770 1376
611 794
79 1199
869 1355
998 1240
1378 1461
541 735
219 455
1272 1479
320 1261
194 627
100 211
759 1079
135 168
252 753
1253 1358
945 1205
497 557
801 1197
787 1033
1026 1315
1048 1074
124 689
957 1444
905 1025
302 466
940 1248
11 519
871 1377
165 168
903 1329
1343 1372
880 1382
966 1385
441 517
416 689
1056 1315
209 625
383 512
622 794
75 167
33 399
466 1449
1058 1095
1118 1146
1030 1033
197 241
842 1211
166 699
933 1329
559 859
108 694
757 874
1138 1209
176 340
98 649
1132 1431
1006 1026
1109 1447
171 1164
947 1385
292 407
916 988
816 821
637 1344
234 402
5 313
447 1449
115 710
1228 1260
51 429
266 354
1310 1329
46 1290
58 361
75 530
512 531
195 595
444 1299
796 1458
519 655
137 361
823 1332
937 939
343 466
914 1221
1134 1453
12 595
573 891
67 302
905 1401
77 724
808 1468
1238 1281
902 1332
747 1458
616 709
1020 1058
1159 1402
837 1351
472 701
1071 1289
76 206
1029 1292
779 1117
567 709
1092 1348
1138 1464
412 1360
1031 1109
107 724
124 139
308 714
327 727
967 1353
1094 1394
1034 1114
225 716
514 590
791 1127
1047 1053
285 501
111 1368
412 542
1140 1281
675 1181
182 1019
259 714
311 904
378 665
1427 1459
718 999
9 539
267 1063
28 552
229 542
363 542
1094 1286
1020 1071
285 622
706 881
123 560
546 663
1420 1456
692 717
458 550
91 1251
922 1179
461 555
284 370
804 1308
126 161
164 453
1005 1069
103 443
29 265
853 1429
59 373
243 453
938 1015
833 1487
468 837
1034 1477
270 327
657 736
1117 1246
794 1236
333 383
1088 1188
1093 1303
802 1356
43 284
1027 1474
889 1244
1403 1465
795 1316
1292 1368
27 461
75 209
901 1254
978 1437
126 174
131 518
186 225
862 1262
222 407
3 1272
87 448
328 574
820 1265
474 628
427 516
372 617
124 515
210 518
41 746
163 214
495 687
1107 1480
300 448
780 1085
420 513
203 515
103 577
392 451
958 1091
851 965
221 569
880 1437
1016 1032
1098 1367
1227 1252
633 742
855 1380
8 461
278 285
766 1271
169 1052
1160 1198
1225 1327
772 793
340 641
942 975
363 1039
757 929
182 698
572 624
1042 1327
484 511
780 1327
360 704
1055 1266
958 1333
524 583
37 990
890 906
23 826
1046 1153
1158 1394
1340 1371
1078 1371
295 467
81 1181
189 714
70 1288
636 1174
823 1037
262 1458
45 706
881 1207
814 1153
860 1040
309 1166
65 311
252 366
40 483
788 871
67 357
844 1446
70 362
116 478
866 1464
874 1059
506 663
753 769
123 373
744 949
491 540
969 1333
475 532
1202 1275
89 725
1353 1444
718 933
976 1457
317 360
57 1187
124 194
1159 1349
51 389
16 368
444 549
862 1062
895 1010
867 1177
941 1126
1307 1449
106 261
746 887
839 1115
1059 1347
18 148
1119 1398
663 889
797 1118
833 1300
767 946
827 997
868 998
1107 1280
474 1367
21 604
1015 1462
745 783
833 1421
915 1231
63 722
187 263
111 1436
763 1362
885 1059
291 320
475 666
213 666
490 1203
1205 1414
592 662
580 1362
2 1385
29 1488
196 204
330 433
805 1480
261 562
1025 1483
1281 1409
1207 1231
104 615
763 1483
904 1193
632 734
945 1194
110 1332
461 623
22 1219
101 280
1128 1352
1054 1137
449 734
1089 1360
1144 1296
836 914
256 339
868 1132
214 342
871 1137
222 691
534 734
778 1323
1084 1366
781 1365
99 742
899 1320
771 1320
1206 1248
755 1312
903 1210
82 280
1123 1250
1302 1481
59 333
100 105
270 745
8 745
402 406
302 468
140 406
1220 1304
258 627
332 576
1280 1318
221 745
956 965
596 622
932 985
56 119
646 1153
250 1153
833 979
898 1374
276 573
147 651
68 129
367 691
341 1456
1067 1331
45 411
726 1038
12 234
86 183
3 414
830 1095
849 1108
33 293
1025 1041
245 1344
1384 1388
408 584
141 469
191 586
292 638
355 694
262 466
1155 1272
88 350
468 571
198 481
327 366
225 584
492 699
118 192
1145 1227
818 869
1241 1460
174 538
1048 1331
48 133
745 1293
867 990
849 1350
995 1404
477 1478
833 1342
1039 1218
151 261
192 299
1250 1401
147 785
754 1463
2 138
119 723
260 662
1051 1457
507 539
825 885
346 1116
93 670
1041 1412
1141 1350
201 240
104 536
90 143
55 1088
657 1422
1092 1350
228 1016
374 1070
275 539
225 718
786 1014
906 1345
178 606
252 555
104 428
785 1055
315 611
1263 1353
139 385
97 388
938 1004
437 722
14 390
616 724
41 493
454 662
113 369
758 1073
379 488
324 552
802 1345
1043 1471
1110 1232
351 426
769 939
922 1181
15 211
1133 1364
1114 1122
1100 1187
331 447
1103 1458
1177 1407
377 563
50 205
289 450
146 667
349 501
528 732
767 1243
495 555
288 1245
926 1007
972 1123
1096 1418
24 152
1077 1176
1230 1418
655 958
125 729
106 450
64 453
1279 1310
50 326
421 727
1088 1190
744 1151
544 797
217 439
98 222
991 1028
189 340
694 741
215 743
762 912
182 337
59 1435
885 1248
33 214
945 1262
365 687
959 1197
98 343
53 1095
395 566
193 351
910 1426
505 1377
140 461
771 1267
769 1423
24 286
851 967
870 980
106 584
124 638
91 461
910 1318
72 182
292 451
504 630
1144 1485
278 287
1157 1424
868 1321
1276 1375
195 518
1248 1313
632 1044
184 625
525 689
1440 1483
1044 1254
469 757
815 1165
381 644
381 415
1067 1386
265 469
868 1442
835 1265
116 117
816 986
847 1090
1050 1153
175 697
1016 1276
1236 1316
1148 1432
1252 1260
1152 1322
443 862
963 1157
264 365
981 1440
997 1155
642 698
320 647
179 1462
535 572
58 647
614 636
907 1346
76 960
1011 1440
192 354
1245 1378
68 547
1010 1215
315 424
449 1407
554 706
20 247
144 542
273 427
481 1359
779 824
314 953
1136 1327
181 609
129 190
901 935
474 1356
978 1118
472 529
1332 1387
296 303
1202 1277
440 1479
806 1048
756 1456
424 717
723 1279
756 1227
19 668
313 886
542 709
929 1118
280 709
612 953
73 904
138 1299
661 1303
637 717
117 193
375 717
287 604
97 443
797 1349
336 725
776 997
468 652
1149 1279
528 666
165 614
22 40
841 897
142 1125
247 424
915 1112
1066 1244
68 681
233 260
983 1475
35 504
291 430
1038 1411
103 379
724 1480
20 381
336 846
897 1179
262 668
704 1013
1089 1349
836 903
118 623
68 1031
1000 1011
103 271
1068 1411
213 668
853 1257
765 1373
340 443
23 507
933 957
336 738
1306 1468
184 1135
868 1013
340 1382
431 975
7 684
977 1414
122 634
989 1239
516 561
1068 1303
975 1075
377 631
1290 1352
786 1324
283 444
209 266
1195 1263
434 613
866 1024
986 1126
208 566
230 325
801 1309
815 1207
128 277
78 685
4 507
652 957
46 1147
416 680
311 398
951 1024
987 1435
618 1080
733 1030
972 1312
392 737
263 623
51 178
543 677
796 857
226 970
768 1024
892 1319
128 169
914 1078
1301 1487
12 223
605 737
808 1325
173 585
176 331
255 1149
93 296
253 285
411 642
1025 1030
1269 1427
596 624
54 341
114 126
191 346
223 527
435 706
605 629
1116 1333
93 417
833 981
893 1032
948 968
304 637
538 575
1090 1317
1398 1433
1181 1435
100 578
661 874
556 1383
1067 1333
545 699
94 534
1182 1256
561 643
342 1279
285 479
51 312
925 1105
343 457
436 648
59 698
969 1148
1134 1444
944 1091
484 581
714 1272
1127 1441
103 889
342 1171
65 368
656 809
563 581
749 1000
1115 1323
485 927
144 597
500 1464
383 650
1317 1457
888 1051
874 1116
621 707
225 707
445 710
918 930
923 1274
768 1400
501 1285
95 368
260 664
886 1126
359 414
985 1334
586 605
541 1357
317 417
248 317
915 1046
104 309
97 1316
128 666
785 936
494 723
222 264
793 1285
1054 1060
133 192
916 1126
143 385
874 1358
1163 1232
27 439
1154 1412
486 724
931 1111
516 603
996 1240
980 1232
474 606
465 557
896 1009
310 619
895 1309
843 1119
135 1032
413 488
1117 1358
217 1367
537 554
266 734
128 1258
219 622
272 485
510 542
443 1306
479 734
952 1183
966 1081
1098 1237
432 622
91 329
982 1291
261 511
32 688
991 1259
755 1248
884 1133
989 1186
746 1428
23 804
605 671
316 568
179 270
76 586
110 584
863 1087
844 845
176 386
388 565
701 1025
761 1039
814 902
24 517
838 1030
1123 1428
1197 1377
395 689
116 1274
372 971
353 463
1213 1321
949 982
935 1084
176 278
200 635
62 1159
585 1200
544 933
1132 1369
244 412
137 286
218 1177
1398 1488
1076 1437
293 533
1194 1200
1073 1139
327 531
549 1398
733 990
851 1211
202 536
859 1331
260 477
960 1383
724 1106
94 710
1238 1327
971 983
1036 1378
286 651
148 192
327 423
189 947
30 136
104 122
90 187
754 1399
983 1222
793 1098
757 1175
674 1406
789 1393
803 1291
963 1280
603 708
369 541
1169 1385
262 415
187 241
1154 1225
371 587
216 713
1198 1268
293 896
81 259
609 644
287 593
886 1410
1101 1106
844 1450
1224 1442
866 1468
649 716
962 1176
1094 1332
1168 1281
51 501
252 262
2 316
134 472
361 434
853 1125
261 1250
1108 1122
450 1122
385 498
660 703
937 1240
338 423
164 499
1129 1410
1230 1233
867 1181
232 670
1202 1400
825 1184
603 1071
185 329
267 893
284 308
456 792
814 1291
330 424
108 311
115 1253
767 1179
242 311
855 1063
173 440
992 1297
804 1246
1217 1415
1318 1467
249 435
1068 1292
1120 1482
1142 1241
550 1366
474 553
18 273
1007 1053
828 1310
1144 1287
1003 1311
500 956
357 907
1088 1126
272 311
2 450
1091 1131
139 684
823 828
59 432
61 1030
59 203
50 612
1144 1179
182 502
901 1421
808 1193
12 1030
191 1261
865 946
1170 1316
691 1318
1274 1410
1067 1309
1273 1414
418 671
1378 1467
1276 1419
113 560
13 622
968 1074
522 728
147 1339
43 464
287 1090
848 1423
557 685
870 916
474 916
578 744
36 461
528 1152
13 743
789 964
302 580
1276 1311
491 1270
668 674
52 405
1165 1480
7 110
209 510
706 1316
52 526
112 577
277 644
824 1042
413 690
56 123
766 1222
478 526
390 642
837 1102
1398 1435
23 1114
40 300
979 1451
793 1032
339 596
366 699
58 354
37 231
47 424
360 655
43 719
1099 1223
1352 1440
813 866
861 1351
1203 1317
234 1455
494 591
443 1040
1271 1451
78 124
1196 1277
74 419
915 1035
10 663
1154 1280
114 720
117 237
2 21
1082 1148
232 712
3 889
394 545
1046 1225
1018 1392
378 537
751 1048
584 642
849 1354
291 1292
132 481
791 1120
85 140
1244 1331
361 489
177 668
1221 1347
226 530
80 735
391 597
1177 1277
74 661
215 371
700 1123
242 245
455 1292
1212 1234
439 530
370 659
867 1465
1082 1161
994 1048
18 207
1353 1395
203 1421
382 669
929 1067
1006 1287
44 381
169 790
100 956
1230 1409
1316 1449
106 441
806 1118
1320 1339
143 508
160 677
103 1375
297 423
786 1368
75 81
150 669
155 1013
186 326
205 1359
269 620
912 955
53 736
1101 1416
101 218
686 908
653 731
873 1000
957 1371
965 1232
915 1411
1130 1299
127 392
393 548
81 690
208 731
98 105
175 554
1068 1360
1197 1245
815 914
699 968
1045 1376
745 1084
383 439
882 1089
775 963
1220 1350
203 508
1030 1189
175 446
328 688
56 983
474 742
634 731
152 691
854 963
960 1130
845 914
1218 1425
674 1032
302 406
981 1189
1220 1471
714 845
530 1024
977 1484
1192 1372
1266 1321
1278 1412
323 465
1054 1438
343 380
108 513
316 691
531 616
154 629
61 401
173 642
486 1102
1014 1487
267 277
678 1272
931 1489
714 737
967 1146
1264 1369
51 127
188 627
105 858
320 517
3 581
176 280
262 283
464 683
259 1217
417 571
532 817
817 1444
793 858
347 512
163 691
979 1277
314 594
484 517
995 1221
21 1281
310 1118
415 417
327 533
74 124
433 1225
1470 1487
16 119
848 915
564 1156
245 356
262 525
181 600
234 463
368 692
929 988
1462 1488
266 415
82 594
159 289
83 1462
197 315
3 715
42 643
262 646
124 187
98 723
404 995
142 995
988 1460
886 1412
251 938
922 1106
1175 1286
347 646
913 1286
20 251
762 824
901 1168
1099 1412
326 1462
664 703
475 538
922 998
1233 1348
451 595
32 611
1025 1355
689 1406
140 144
183 780
310 555
545 1361
801 1058
746 1122
298 437
251 362
1135 1348
887 1017
799 904
804 1248
2 560
337 550
867 1304
194 501
1008 1014
120 323
1202 1294
980 1181
1321 1474
1376 1410
111 503
367 429
405 721
1026 1297
1246 1300
778 966
1237 1480
8 496
1209 1418
519 971
434 604
799 1025
978 1256
315 912
862 1310
590 851
249 558
323 507
760 1299
1008 1135
1049 1136
1202 1415
572 1248
952 1469
9 613
129 678
256 453
808 1195
1014 1300
114 1272
441 1438
1385 1472
411 741
497 781
903 1203
989 1243
708 735
78 568
97 581
312 506
163 383
65 1043
1070 1087
1097 1190
462 679
1009 1077
429 502
102 107
140 399
871 1372
24 224
1118 1249
276 445
6 584
873 1189
759 1316
110 641
633 682
1465 1478
794 1310
780 1375
761 1096
995 1034
318 563
278 1393
455 797
629 684
1076 1373
21 276
759 1437
1021 1208
826 969
74 1105
850 1326
108 689
311 523
261 931
141 1280
244 469
553 1224
496 690
1148 1370
642 744
349 1165
633 695
237 695
1345 1426
560 1385
107 356
764 1380
766 1224
1146 1445
198 474
271 464
1379 1387
128 644
40 531
162 1460
582 585
909 980
119 595
246 636
1296 1389
134 166
1257 1434
25 933
116 526
1298 1435
80 603
1372 1384
1168 1325
1187 1338
390 536
9 1339
596 641
1349 1373
339 719
1427 1441
948 1443
143 255
129 357
1141 1343
786 1115
469 1179
598 1064
161 834
782 1410
40 544
296 470
298 1068
218 550
1040 1153
920 1236
987 997
973 1099
467 473
164 435
936 1217
1335 1451
326 470
9 534
69 319
910 935
294 666
693 1166
35 671
1027 1456
985 1459
1098 1107
685 709
1196 1413
242 368
560 943
35 563
945 1013
315 617
917 951
1175 1475
779 1475
18 101
1191 1419
217 1479
284 486
354 959
256 387
1190 1231
508 608
857 1021
848 1467
1404 1419
806 1470
980 1357
307 325
86 97
430 661
951 1070
8 443
261 623
789 1008
808 1021
99 561
753 1085
1088 1304
1179 1193
115 505
755 1131
101 112
109 202
396 1198
1067 1137
432 626
1392 1422
110 575
695 1265
110 346
201 730
311 336
622 723
1410 1476
1160 1301
52 341
833 906
659 790
810 1188
557 742
1329 1487
264 1163
1062 1143
778 1384
1098 1362
957 1386
31 174
177 457
1051 1250
803 919
392 567
755 1373
1278 1414
278 1448
1030 1083
837 917
380 678
182 693
1224 1299
148 291
360 470
1118 1317
956 1255
240 819
1282 1425
158 457
886 930
306 355
349 991
199 229
1171 1328
228 701
869 963
132 175
1090 1376
340 878
823 1261
190 1348
1194 1433
745 1341
1051 1384
1474 1487
932 1167
756 1207
902 1261
305 1042
167 812
38 698
695 702
750 1392
918 976
238 463
909 1156
804 874
504 1107
232 648
213 406
232 419
333 1225
6 76
591 995
295 704
135 486
570 643
281 540
267 642
649 707
19 540
370 1292
411 1293
201 288
329 702
155 586
124 1007
891 1408
1238 1452
761 1298
883 995
33 596
478 946
660 694
197 667
257 718
964 1334
315 659
876 992
1202 1391
770 1239
97 436
1224 1446
781 1105
473 723
786 1183
132 430
151 443
964 1226
95 548
848 1280
894 1396
1219 1452
56 556
1353 1452
446 482
883 1237
938 1173
284 420
248 497
1108 1355
27 498
187 487
142 1239
574 667
159 425
486 554
128 846
291 315
573 1196
892 949
83 551
410 680
762 839
261 557
154 431
1 1155
44 559
1019 1404
343 892
904 1188
291 436
7 677
411 501
58 908
1321 1476
1274 1401
474 557
1098 1175
191 205
159 667
140 388
711 1143
834 1479
243 516
841 1374
1188 1189
272 665
126 345
348 1212
926 1189
733 794
1039 1066
10 399
469 684
1076 1133
102 927
1172 1366
845 971
46 1261
619 628
970 1380
679 1433
1157 1472
147 1343
172 1107
958 1262
1011 1125
120 688
1104 1316
1255 1485
993 1485
95 106
1199 1361
1042 1377
149 342
176 445
1363 1432
654 743
912 1267
184 565
1278 1361
3 1456
211 402
524 633
611 1275
1032 1305
798 1138
1340 1421
72 243
946 1036
1073 1077
963 1205
512 515
803 987
286 697
594 813
596 630
876 913
941 1042
172 302
292 633
1050 1214
28 294
847 1151
747 1213
604 1393
860 1090
159 225
240 1116
1124 1136
95 469
51 1365
171 464
185 362
929 1045
368 520
65 711
175 1108
321 408
1333 1394
49 474
648 1062
1145 1343
582 708
1115 1437
1148 1385
619 1004
400 408
512 649
572 929
746 816
916 1227
465 537
897 985
676 757
731 1218
472 698
818 1106
749 1235
642 1109
1162 1404
1277 1391
110 1248
788 934
122 319
163 1111
466 883
867 1227
562 591
1101 1394
1221 1459
1233 1284
820 886
1381 1448
565 596
828 1235
924 943
60 609
266 714
1080 1227
804 1292
265 1014
639 703
1045 1125
874 1243
440 722
555 709
25 480
758 1297
379 483
217 421
76 445
516 717
1175 1356
820 1128
567 719
778 1131
962 1477
798 817
1001 1405
852 1053
193 1380
76 566
559 1474
48 504
356 620
323 443
1068 1351
562 725
980 1238
1348 1405
381 384
1081 1290
91 322
239 974
8 553
935 943
431 915
1165 1405
57 445
272 370
752 1007
755 1012
139 743
488 897
161 502
1063 1128
787 1193
873 1233
441 556
1026 1246
193 454
212 504
643 956
951 1072
197 869
420 618
958 1196
538 610
1030 1072
923 946
68 166
221 445
235 343
1095 1201
988 1075
191 502
432 628
1392 1424
868 1424
25 735
627 1069
835 1018
1155 1188
200 507
341 446
1225 1432
10 346
139 985
791 911
1164 1193
1282 1414
1015 1070
457 513
1023 1190
1169 1244
93 236
89 1285
956 1136
33 1390
1433 1475
232 287
42 163
214 647
1041 1328
234 333
800 973
1201 1317
342 1098
650 1214
953 986
54 631
307 811
1189 1199
955 1032
927 1199
295 693
990 1255
219 1112
1069 1319
14 185
1127 1260
280 570
681 685
459 572
431 473
1131 1379
269 411
348 475
878 1458
149 531
1265 1315
30 1068
902 1263
1136 1201
1229 1392
1196 1215
640 997
1039 1268
13 347
54 644
16 123
150 352
348 596
389 634
807 1110
34 406
254 409
1221 1393
209 932
364 540
849 1292
102 540
410 656
484 642
112 999
267 644
902 1155
995 1346
146 354
132 419
123 599
358 1176
1027 1271
204 709
245 481
28 483
160 373
1346 1401
678 713
125 537
770 1470
259 537
317 707
64 261
262 542
864 876
1122 1400
879 1413
887 1237
1281 1393
376 1058
752 820
29 425
48 438
442 594
9 483
638 654
55 333
1135 1460
302 439
500 720
684 1295
178 669
1088 1119
1033 1183
145 492
189 269
927 1467
774 959
961 1051
634 656
644 1078
124 325
148 682
330 659
762 1070
3 35
1020 1365
151 687
200 549
582 1139
535 1064
53 1024
1318 1473
323 390
801 1183
125 671
254 556
562 672
648 675
880 1476
695 1430
531 541
786 1319
335 629
789 836
467 785
780 1016
33 264
464 487
956 1178
254 677
980 1306
1233 1486
773 1242
298 683
413 441
16 741
360 514
272 438
81 870
1385 1476
903 1207
89 1219
1148 1240
193 522
50 739
480 552
775 1143
257 1217
761 979
598 692
271 334
109 272
202 234
293 581
745 1385
1063 1438
1266 1272
796 1094
269 345
969 1251
1148 1482
969 1022
1048 1315
960 1431
1241 1444
982 1486
190 237
410 469
847 1261
561 638
1173 1431
137 576
423 704
271 576
82 411
1291 1423
229 1104
894 969
746 805
1386 1431
116 409
849 1226
396 692
332 707
49 355
1016 1339
30 76
293 715
812 1280
199 299
204 643
1238 1388
379 1398
317 520
350 468
971 1044
1016 1460
1291 1436
854 1398
788 1044
1156 1211
1106 1390
1307 1380
820 996
844 1390
811 1176
663 1049
391 590
28 538
1344 1447
19 718
1182 1385
253 656
41 248
906 1450
791 1234
925 1463
1140 1388
324 536
71 127
329 651
403 600
2 256
310 372
821 1342
1217 1342
564 1457
229 420
308 713
280 651
112 249
310 493
989 1047
1027 1339
971 1407
317 654
759 999
377 439
456 732
294 670
767 1119
182 200
822 1055
1190 1222
1309 1402
44 495
333 369
219 496
184 246
120 490
1035 1055
207 378
919 1109
303 611
984 1238
275 549
478 1137
495 552
1336 1397
333 490
49 731
186 211
989 1060
834 1186
235 332
1288 1356
787 1074
952 1407
534 665
4 436
1117 1474
537 670
743 1004
822 1297
872 889
225 1078
77 160
841 1310
118 686
1207 1404
362 1312
508 612
1033 1251
525 781
296 729
189 337
529 671
1183 1195
40 214
138 557
587 612
1213 1303
972 1362
511 738
898 1184
46 150
109 206
138 678
358 681
817 1195
724 738
1070 1146
402 687
75 329
789 1133
1042 1313
1055 1252
217 678
673 692
115 401
376 671
553 1270
675 738
64 584
67 101
844 1190
1023 1421
550 743
369 402
912 1324
62 925
84 684
700 916
170 458
271 281
422 679
494 518
17 630
135 585
723 792
1196 1204
253 348
538 746
768 1437
785 852
955 1034
344 1109
177 703
58 523
89 590
1224 1424
681 916
98 595
1039 1149
472 513
713 1393
284 1216
232 531
25 1221
869 1088
1094 1435
198 654
1256 1268
810 1447
758 991
749 1171
328 360
567 642
586 655
952 978
4 7
88 644
224 239
981 1450
906 1276
192 472
37 1352
804 1228
269 655
207 1009
477 604
236 249
315 542
549 709
941 1233
48 198
886 1297
779 1171
58 657
858 1464
228 1297
1013 1109
1202 1274
6 201
542 935
129 537
781 1217
196 298
36 80
215 311
1295 1438
920 1295
426 760
1006 1335
959 994
1124 1327
40 724
81 496
595 946
908 1177
120 195
770 1472
312 365
396 1002
855 1058
22 266
187 370
1066 1470
486 666
1019 1166
917 1118
1216 1414
323 379
111 725
980 1174
816 1480
831 1051
220 668
729 774
8 260
261 440
641 661
991 1188
122 510
180 717
861 1078
534 720
952 1233
113 663
388 602
25 550
80 220
1341 1459
1385 1465
72 1039
15 276
268 456
1035 1352
842 957
78 561
331 741
9 727
446 728
947 1010
234 1074
817 1129
1075 1424
173 569
300 610
673 855
1261 1291
1211 1470
884 1075
488 1075
276 667
586 1381
1183 1371
224 736
432 914
513 610
778 1322
965 1414
163 497
373 1273
591 678
899 1319
668 669
958 1145
818 842
801 1198
212 1032
367 677
4 625
179 1380
836 1384
1317 1428
780 1489
1243 1250
83 100
1006 1014
268 819
288 505
1007 1424
141 226
1373 1481
1345 1419
976 1027
635 734
192 393
137 457
175 749
625 1443
155 511
187 1217
204 632
672 737
751 1030
775 1387
146 398
275 283
266 463
1099 1218
1140 1256
768 1384
670 812
343 454
1048 1438
432 1169
769 791
292 637
1073 1202
1446 1447
250 1394
766 1459
1363 1449
38 757
337 1282
918 1035
18 1007
596 755
55 1303
793 1269
834 1041
287 414
204 645
152 189
138 291
1058 1459
63 642
285 718
357 594
164 428
582 712
886 1352
894 1213
932 1468
125 473
820 998
1265 1385
96 186
349 366
1075 1224
335 431
767 879
1341 1380
1066 1175
832 1008
852 923
35 435
296 476
783 823
826 1459
1029 1293
447 645
175 186
961 1095
853 1067
803 1475
1 33
873 982
770 1298
1205 1455
1422 1453
503 954
1061 1447
1190 1332
1102 1219
887 1065
123 669
909 1349
236 546
217 304
1024 1299
175 307
1202 1342
268 269
273 613
1288 1345
1186 1334
1232 1450
449 546
583 775
550 598
296 718
1 275
474 724
147 329
759 1122
606 651
1017 1417
1103 1457
891 1012
982 1167
1047 1296
80 275
1088 1297
539 826
122 686
645 727
774 1137
820 1253
419 680
1433 1453
1292 1477
335 686
560 1299
887 1428
783 1307
819 1001
395 673
6 632
861 1146
279 498
1065 1407
778 1148
831 1011
1037 1079
94 452
118 809
1188 1248
167 442
43 635
98 342
1137 1431
1159 1190
610 719
980 1484
56 1099
221 678
169 222
381 401
845 1259
778 1269
26 173
776 1425
380 442
1032 1122
130 267
963 1022
987 1379
835 1251
1174 1471
995 1203
766 1380
389 1430
635 668
244 517
13 96
1011 1184
285 289
842 1146
969 1187
840 1073
877 1369
844 1192
555 1089
911 953
949 979
11 696
981 1426
912 1326
758 859
174 579
1106 1313
213 278
448 818
1270 1421
153 1395
65 528
810 1436
15 707
851 1208
1291 1480
1143 1316
329 345
894 1026
180 222
130 630
209 923
378 466
424 582
33 697
778 814
88 404
1122 1149
824 1455
505 692
1145 1281
964 1206
854 1334
169 477
21 350
174 592
449 1285
172 482
1018 1442
916 1165
181 716
286 769
456 655
901 1042
1025 1337
32 364
155 700
936 1265
210 895
342 526
894 1268
221 236
1238 1337
264 606
312 354
976 1337
385 603
192 474
1080 1165
997 1396
936 1157
1455 1456
240 370
138 359
520 1178
184 1000
583 709
836 889
918 1453
524 1068
1052 1453
90 547
766 830
716 1238
425 537
309 362
1147 1461
828 1415
762 832
968 1166
104 603
799 1128
453 491
986 991
760 1173
913 1415
933 1064
778 1190
281 909
836 1131
987 1300
918 1466
544 730
310 563
1091 1128
1151 1179
1371 1411
510 594
1040 1348
64 278
537 727
1304 1357
431 974
367 1484
43 569
225 317
328 738
414 778
1016 1075
246 376
12 209
432 566
31 222
1378 1464
47 166
38 612
774 1434
1008 1372
777 951
1030 1131
450 556
801 1308
1035 1246
1370 1465
767 1431
844 1126
1363 1425
126 580
324 861
1280 1427
1132 1300
122 875
373 457
629 679
878 1383
864 1485
1067 1319
86 400
614 785
745 1268
265 402
3 631
526 672
218 290
388 967
911 1008
930 1021
944 956
239 349
170 515
1099 1207
612 631
288 736
1057 1247
441 978
169 290
1106 1139
316 983
471 628
445 1393
168 590
369 580
1028 1448
1289 1489
888 1145
234 392
909 1204
969 1255
730 744
60 1407
944 1427
292 518
39 72
1050 1099
148 244
953 1166
244 706
240 1230
1052 1145
1365 1376
2 126
174 647
745 1402
554 639
1161 1317
583 1340
476 1214
869 1145
234 634
915 1261
60 481
373 712
939 1389
791 1225
445 588
739 806
159 231
68 601
1145 1228
131 132
537 1345
757 1348
784 1222
166 355
756 1389
305 1224
129 473
819 1445
196 234
96 296
354 820
929 1051
1099 1462
340 1181
458 648
783 933
867 1341
330 1402
576 640
326 465
171 591
639 696
897 1220
448 1128
198 953
1089 1161
813 1226
846 1174
868 933
219 487
890 1217
1060 1103
296 707
802 1104
310 376
260 784
590 659
1063 1108
999 1352
23 548
1017 1406
55 271
772 1346
813 1347
94 199
338 596
802 1454
217 535
931 1110
843 1226
29 484
318 358
707 1365
576 653
894 1457
1216 1242
161 374
259 717
37 604
1133 1473
400 427
952 1169
23 440
938 1234
69 556
201 712
108 484
244 1311
280 1005
835 998
305 769
200 487
35 679
76 680
871 1180
532 1485
1165 1398
862 1360
249 608
411 441
810 941
221 546
1422 1468
792 1301
331 677
33 1020
193 218
358 551
265 323
776 1064
855 1357
182 325
402 557
18 1385
835 890
945 1250
186 444
1060 1237
43 395
87 438
765 1319
809 1362
432 621
36 621
1003 1376
201 725
182 446
618 1242
30 577
341 439
585 1065
313 377
879 1017
917 1309
765 1440
768 957
1301 1420
74 1034
1171 1310
417 1373
47 113
520 562
771 1376
0 38
1197 1484
216 565
161 629
875 1433
842 1256
798 1186
600 676
619 689
39 114
259 383
789 1366
963 1024
868 1430
267 503
93 350
354 391
879 1030
125 1093
395 688
73 637
1203 1356
307 575
565 1099
642 794
279 742
675 742
821 1025
480 503
745 1215
146 1152
877 1371
77 527
242 860
247 1204
1092 1259
75 454
281 293
387 689
1168 1254
239 296
230 742
304 691
472 504
1310 1374
1351 1375
275 1387
960 1261
108 981
803 1277
364 412
1064 1318
603 694
60 415
41 173
34 1217
786 1044
225 519
758 982
44 178
923 1315
548 1172
908 926
672 915
858 1105
1252 1261
92 111
23 240
262 522
305 1158
382 587
1041 1455
160 245
1187 1280
906 1267
132 183
185 1470
973 1028
202 656
2 302
913 1391
784 1277
1073 1151
844 1328
498 654
281 656
597 633
406 1065
335 367
987 1047
491 651
978 998
2 423
76 143
595 708
1235 1334
419 482
262 535
382 600
110 141
855 1049
371 936
94 133
178 541
351 469
1337 1466
1008 1227
751 1342
166 423
405 705
4 361
625 708
465 490
778 950
234 823
864 990
1075 1173
316 367
118 611
1014 1163
274 1124
544 719
2 436
991 1179
889 1168
249 313
908 1181
1288 1402
295 1183
162 1068
1103 1393
1144 1165
187 603
151 680
30 390
33 136
852 993
1294 1338
609 1235
236 495
530 713
764 880
619 1428
980 1407
61 1137
947 1001
59 310
859 1117
1086 1345
248 734
154 547
161 1489
316 380
887 1364
200 434
463 1073
134 605
510 596
801 1068
92 608
73 329
501 547
193 394
346 1427
1199 1343
399 499
416 668
481 568
945 1426
1179 1364
637 1081
755 1302
10 165
189 396
722 1125
961 1407
763 897
128 386
778 1434
193 515
587 671
864 1474
1012 1372
831 1068
242 673
402 625
257 1439
589 717
887 1377
30 753
752 1418
790 1444
1077 1474
98 399
392 617
1280 1308
290 569
429 1438
1241 1316
437 1262
1301 1367
1111 1472
963 1079
75 388
775 1257
341 507
415 456
290 461
842 1203
86 402
471 738
672 728
259 330
830 1085
835 1200
847 1254
153 1331
82 404
1071 1147
923 1020
653 1159
782 1044
933 1442
1043 1085
1115 1190
55 1173
93 1465
1023 1372
1344 1427
272 915
112 697
621 803
1275 1327
1407 1483
132 346
1002 1434
288 630
12 695
894 1083
490 993
1400 1443
20 61
765 932
364 588
897 1088
470 755
231 244
148 475
456 591
561 644
165 644
220 351
1020 1158
247 454
362 700
1203 1316
180 400
273 591
779 988
1050 1222
470 647
597 688
1020 1279
865 1442
137 703
104 526
1217 1335
31 950
900 1399
222 252
208 354
554 762
144 598
1339 1446
286 1176
398 1417
556 808
822 927
280 644
321 645
354 593
7 714
31 1071
409 465
872 1458
806 1333
221 414
6 260
74 660
275 650
555 704
276 1289
629 1407
794 986
763 1407
1107 1217
164 553
632 658
2 491
871 940
277 430
356 494
213 711
161 255
806 1225
828 1243
41 604
887 1298
918 1402
627 701
305 650
766 1008
1165 1279
276 363
455 594
138 658
83 722
358 432
1199 1277
523 728
882 1075
641 720
150 897
305 542
790 1486
807 1426
1008 1416
3 1143
966 1419
386 615
754 782
1003 1486
1125 1183
146 899
177 212
256 505
1078 1108
907 960
549 1023
144 1203
1216 1486
323 451
792 1424
826 1008
979 1250
910 1416
485 486
705 718
173 857
536 680
388 553
780 1306
374 618
748 1475
1000 1430
52 459
131 752
29 741
309 1024
1178 1473
801 1486
997 1132
106 695
759 1260
0 1208
1032 1355
550 1086
125 156
985 1014
350 503
314 580
556 608
888 1081
967 1374
234 328
1091 1440
63 446
482 807
924 1448
1051 1489
1037 1325
844 1196
775 1325
1243 1430
589 677
47 357
459 796
60 67
464 911
156 529
197 301
202 645
853 871
252 1405
143 186
129 288
915 968
206 242
772 919
1085 1379
551 1445
771 923
193 717
1161 1374
177 709
963 1389
911 1199
419 471
751 981
352 1235
770 1223
1064 1441
748 912
874 1051
937 1336
837 1169
90 417
895 1339
40 596
1244 1264
222 307
1120 1457
1335 1382
858 1457
433 527
825 1280
179 876
776 866
234 583
893 1451
160 368
822 982
1075 1162
187 242
25 180
99 129
1096 1221
10 20
122 261
605 1398
1008 1108
377 487
1022 1457
855 1051
1163 1167
26 674
779 1406
760 1164
220 890
583 713
108 191
579 1237
794 1162
44 435
305 705
832 1188
52 259
790 1420
964 1344
1346 1409
807 1360
755 941
87 253
188 305
226 597
759 1060
1098 1280
592 654
542 1062
270 603
303 551
91 143
803 837
94 377
612 1306
1341 1452
374 431
145 608
76 737
802 1403
291 433
203 549
98 267
511 665
1299 1455
409 654
961 1396
746 1242
23 618
1237 1479
748 1288
335 853
541 958
38 374
912 1130
184 428
244 442
142 431
183 203
1167 1356
565 793
119 447
993 1240
280 1304
1185 1410
822 1358
968 1183
209 377
283 326
135 162
852 1237
57 737
1294 1353
511 678
1236 1348
615 735
773 1358
988 1246
532 737
234 1080
91 506
891 1313
1051 1073
149 447
278 332
1188 1307
286 681
19 337
1261 1297
815 1210
54 331
61 1273
213 324
339 463
146 1088
633 681
72 119
149 339
591 684
737 738
1201 1367
230 678
669 1277
1278 1358
290 692
1071 1257
875 1382
983 1144
231 1280
12 455
691 743
369 692
1050 1090
162 399
814 1079
370 1331
1055 1434
681 735
128 522
73 586
255 563
446 1326
582 692
1263 1319
375 628
320 692
153 286
311 643
75 632
149 581
429 635
869 1136
888 1149
437 459
1407 1485
132 348
63 514
936 1082
282 292
526 918
89 651
71 1277
152 182
811 1050
5 657
528 698
1242 1273
555 572
1333 1391
426 458
30 192
320 705
1027 1321
424 762
553 647
4 176
723 1095
60 485
220 474
473 654
187 297
1140 1383
1286 1437
472 695
803 1468
92 410
364 603
236 1357
354 824
841 1171
321 647
68 726
539 577
4 1236
1258 1459
1013 1399
15 82
961 980
1086 1389
372 585
1105 1402
1149 1445
220 716
94 311
242 246
808 886
35 670
293 1194
577 724
525 534
57 200
996 1351
115 370
834 1289
120 485
1216 1354
768 935
1059 1407
828 1474
84 1471
302 381
57 321
184 362
585 706
277 324
975 1120
878 1187
119 381
882 1077
333 606
228 324
300 429
324 786
599 725
642 1361
838 1007
103 558
189 561
516 727
244 268
1137 1303
161 499
376 424
842 897
243 568
91 440
22 340
316 558
624 674
1257 1341
195 497
38 550
346 666
939 1180
1197 1475
975 1362
129 853
177 335
1185 1357
242 730
402 682
93 112
354 382
576 1249
1280 1365
450 615
87 563
1002 1128
1095 1319
1287 1489
72 403
110 695
748 1477
108 622
154 738
1102 1480
302 636
1009 1252
314 461
387 680
51 236
861 1273
839 962
1271 1373
911 1067
835 1257
852 1426
47 238
52 582
313 623
5 470
137 397
969 1193
1015 1309
67 338
867 1145
858 1096
162 575
981 1432
1036 1368
929 976
1113 1322
920 1156
59 1093
349 1340
292 577
178 1458
83 403
248 470
159 398
417 693
183 526
697 976
647 1384
702 1091
1128 1199
135 714
971 986
44 303
315 537
48 422
650 756
83 645
1439 1441
110 253
984 1046
1113 1456
846 1341
127 193
142 1225
335 371
959 989
1165 1323
895 1462
81 720
642 1053
623 774
1010 1220
894 1274
125 534
911 1443
166 306
245 599
59 180
97 435
424 830
1265 1446
294 720
302 315
49 660
119 1362
324 599
444 664
1008 1231
488 707
689 697
474 543
1007 1272
1334 1401
4 365
448 1308
971 1349
1378 1444
533 1123
390 1303
1295 1446
1369 1395
522 705
1248 1334
978 1244
52 261
852 876
702 1346
1299 1336
1151 1172
1123 1339
175 368
1450 1468
221 484
50 602
748 1169
219 559
1184 1470
769 1228
194 731
1057 1106
455 543
496 544
265 382
302 678
517 603
940 1460
1060 1296
167 261
1091 1363
511 559
82 382
161 675
235 624
746 1365
796 957
1255 1471
353 616
809 1421
938 1306
518 720
325 554
270 618
349 911
89 277
256 454
516 1024
846 899
63 261
376 721
216 503
763 901
49 97
969 1006
7 100
485 664
1051 1304
3 395
1050 1079
907 1030
483 968
1153 1473
707 861
210 580
213 326
70 277
209 850
1152 1248
61 457
28 280
902 1073
286 575
585 1137
1127 1420
915 1012
206 286
1159 1372
832 977
271 452
30 60
95 455
35 175
50 978
7 113
540 576
517 858
691 745
98 645
805 1261
824 1274
1242 1262
851 1377
44 116
238 396
72 592
595 633
254 340
825 1095
603 753
869 909
19 473
1168 1434
220 463
865 1433
1020 1041
1066 1157
345 1397
257 530
169 646
1263 1442
370 407
67 406
375 522
980 1090
278 589
625 633
869 1259
948 1323
1149 1313
294 533
132 471
909 1331
169 538
848 1092
755 864
1059 1275
658 702
262 702
248 538
29 1403
602 1036
1242 1396
767 874
906 1447
1198 1326
76 431
76 202
807 1175
297 1339
755 756
908 998
185 603
226 641
820 885
226 412
773 810
346 1460
1425 1453
1144 1211
321 649
618 872
482 1011
834 1399
1178 1209
1087 1350
207 254
850 1114
210 259
430 528
1111 1155
490 542
1130 1168
978 1299
398 724
26 1081
270 1478
356 727
485 1403
323 550
853 1304
875 1063
405 885
212 490
124 377
294 1017
397 472
3 87
235 1376
646 947
862 1245
232 1078
63 74
221 660
815 904
106 444
59 369
1048 1112
1067 1125
1012 1189
201 718
762 1014
877 1001
1111 1168
383 429
295 316
462 493
1394 1456
277 447
101 221
455 719
1194 1287
210 622
148 976
528 1197
42 257
295 437
439 1125
1041 1193
741 1197
441 676
537 909
1345 1348
981 1300
926 1364
1173 1241
445 502
854 1195
1428 1467
930 1190
968 1482
665 1444
1210 1244
816 859
1141 1144
165 340
1118 1426
791 1031
285 405
44 50
362 625
620 1149
854 1316
812 1090
789 1372
300 915
451 559
901 1024
82 692
445 515
395 923
109 566
842 1383
823 1141
1043 1373
152 936
274 633
1250 1437
1175 1263
158 687
449 1159
94 702
930 1203
990 1254
61 525
957 1040
981 1434
520 810
560 623
802 1139
1143 1203
1087 1271
20 349
111 467
37 289
1004 1273
190 531
935 1439
1416 1483
874 1163
203 995
763 1332
491 644
1299 1312
260 711
894 1263
999 1279
1138 1394
280 811
767 1158
612 1284
901 1158
1226 1443
978 1112
131 193
974 1407
1114 1387
345 418
608 1286
152 252
331 483
224 357
773 865
1279 1454
1311 1443
781 1214
1135 1446
187 475
1071 1461
539 634
930 1458
1367 1459
129 655
671 709
743 814
844 866
1209 1287
1341 1443
277 489
645 656
227 668
903 951
531 1345
708 712
307 368
78 545
1233 1351
363 714
449 717
984 1290
471 476
622 645
1195 1473
35 848
269 786
126 212
527 556
1280 1288
375 953
975 1177
254 663
1049 1126
842 1062
264 1085
854 887
1062 1065
427 554
231 679
1191 1475
124 553
346 1420
578 723
187 609
357 1249
1019 1405
752 1290
769 1459
810 1231
1278 1336
999 1426
7 89
1218 1470
1075 1421
1157 1460
272 545
332 559
1172 1475
58 441
1009 1188
341 500
1215 1293
14 105
1053 1231
139 1039
1049 1260
367 903
441 623
353 739
297 844
1078 1409
311 513
1022 1248
819 1185
956 1190
290 575
1250 1371
1043 1307
1329 1435
403 452
1349 1350
1029 1143
81 172
1414 1479
232 341
256 698
770 1148
123 1337
976 1253
14 347
879 1320
750 1206
772 965
450 914
104 277
419 1335
842 1438
238 277
288 623
95 457
1365 1479
1029 1264
315 460
375 511
757 1330
1441 1474
1037 1384
1064 1258
135 529
88 454
874 1097
304 981
753 807
920 984
1099 1215
95 578
671 1448
153 290
364 473
176 688
9 282
570 578
791 1449
1006 1374
200 227
16 406
114 712
76 191
843 858
153 411
461 527
268 361
120 234
803 1459
825 1218
258 1107
363 406
51 777
791 1341
13 293
305 401
871 1041
771 1103
1124 1258
26 720
1202 1326
1040 1264
897 1215
809 1102
50 296
1122 1333
929 1167
113 581
51 669
1226 1390
937 1287
145 533
978 1288
1212 1226
150 648
131 369
351 638
136 484
208 589
549 653
1202 1447
784 1459
1214 1272
534 759
345 594
998 1159
196 471
215 484
523 600
146 650
261 371
123 666
263 417
834 1401
115 253
249 482
185 726
778 1240
1153 1154
349 834
1190 1450
1102 1108
66 253
852 933
1060 1111
678 780
180 769
829 949
1216 1358
1 272
288 302
193 213
984 1466
822 1175
22 331
200 603
184 366
958 1184
450 485
796 893
837 894
73 498
307 436
1389 1407
919 1229
100 143
86 208
471 544
490 557
830 891
931 1468
1000 1073
423 732
53 970
211 324
194 680
276 719
433 962
185 860
1067 1477
597 1299
12 380
251 662
265 331
674 1253
27 688
1042 1420
1322 1474
401 606
0 33
65 391
538 611
128 447
119 627
172 224
311 568
222 984
1173 1472
142 503
465 1385
162 1384
854 968
743 1366
1037 1318
327 633
1022 1195
948 1017
1041 1208
1201 1426
447 1489
51 469
992 1023
109 447
854 1318
1095 1444
955 1141
1029 1090
793 1079
493 558
849 1388
828 1036
60 181
1291 1477
928 1388
136 405
1115 1251
245 348
971 977
883 1093
1284 1437
1022 1437
1342 1378
55 187
170 928
445 638
324 348
458 577
1110 1257
67 463
507 698
1133 1389
44 1233
355 866
112 1108
1311 1432
17 53
1330 1445
225 756
791 1396
247 515
156 885
118 364
1019 1260
131 303
76 367
241 471
540 996
132 1467
340 413
806 1152
864 1093
396 759
1237 1338
934 1337
428 1465
150 474
57 246
122 375
115 187
235 252
919 921
794 1155
641 647
200 416
790 1413
659 701
707 1415
115 308
356 434
309 359
419 719
6 321
792 1230
1200 1284
298 429
437 773
753 1238
887 1238
183 1122
1226 1458
131 437
76 501
134 708
203 313
212 547
57 1427
506 1482
187 719
1309 1348
420 432
678 956
227 1020
65 204
98 152
442 716
139 678
221 488
353 378
313 1245
1262 1357
589 591
1091 1475
142 545
376 483
1095 1365
792 1364
1241 1419
100 319
933 1074
298 563
480 540
449 961
177 502
965 1292
57 851
327 446
313 548
401 432
332 561
103 738
819 945
824 1023
87 501
207 795
40 389
1134 1185
26 225
284 786
762 1313
743 1071
192 1197
168 574
635 720
1091 1488
299 505
1044 1413
82 507
249 684
796 1082
1104 1198
202 572
16 153
188 674
670 677
408 448
113 1025
37 212
121 620
788 790
540 688
34 99
113 1146
125 217
765 806
985 1075
658 680
1028 1445
902 1077
291 1152
52 641
1055 1319
29 1152
179 453
1022 1142
1154 1261
1407 1478
271 685
821 1088
12 690
36 1047
325 921
1180 1435
526 682
56 467
498 583
162 405
74 521
280 626
791 1330
247 449
51 537
794 847
1071 1384
257 642
1291 1424
854 1386
702 1258
1244 1312
136 352
1015 1489
807 1045
61 703
888 1384
32 645
87 1106
44 241
85 242
651 919
18 1006
725 868
320 819
222 247
227 591
1175 1333
1362 1425
300 1335
61 824
176 811
401 1158
126 953
1089 1266
96 293
159 349
30 427
250 696
412 529
164 427
458 645
788 1274
1170 1339
227 712
461 650
39 661
254 586
911 1381
792 1164
1067 1103
1105 1395
957 1231
795 1169
16 650
1198 1330
642 1112
318 463
590 656
807 1179
1221 1462
809 1225
50 419
377 548
363 650
1190 1331
435 489
968 989
1281 1449
62 658
1024 1298
175 535
1288 1344
377 669
762 1005
877 992
242 481
1075 1236
333 599
272 360
1315 1339
633 716
146 894
495 782
1033 1360
140 325
502 906
777 882
942 1178
1282 1283
260 326
413 605
745 1078
757 1132
1190 1465
591 611
835 1237
11 561
623 1317
29 615
774 1486
989 1411
175 669
39 1037
684 775
82 212
123 213
1081 1414
246 549
1125 1420
836 1317
1169 1234
487 611
1118 1417
755 1365
1011 1291
1137 1430
1164 1304
343 374
1162 1194
325 734
297 672
321 1029
907 1089
758 966
1057 1299
754 1261
900 1315
7 280
955 1022
979 1379
1161 1356
127 1099
760 783
1032 1242
1125 1433
218 234
968 1486
355 734
866 1438
361 1451
27 114
426 614
137 511
82 575
763 1202
1484 1487
324 337
804 974
201 1435
493 560
223 699
236 1392
1141 1269
354 630
915 963
579 748
1286 1364
1029 1442
444 523
227 296
466 578
421 1330
221 222
990 1487
405 568
816 1334
248 584
915 1313
901 1149
1061 1138
1272 1321
24 58
43 71
1230 1324
316 1398
1254 1452
350 753
1045 1278
1186 1254
1177 1434
206 479
937 1452
57 356
475 640
807 1113
810 859
848 1151
180 463
106 248
1205 1388
962 1401
17 176
1135 1329
674 705
123 602
1487 1488
1112 1345
802 1385
1313 1335
544 595
134 468
359 815
1183 1225
999 1404
801 931
980 1162
892 1049
1186 1267
358 361
593 1396
440 659
1195 1464
954 1109
178 659
305 471
398 662
105 531
809 1401
454 944
841 1353
1070 1176
316 485
75 130
173 665
202 1366
44 551
756 757
835 1050
887 1240
1028 1179
1102 1165
857 1068
755 1286
10 149
438 1350
391 1009
124 665
745 1012
523 899
831 1052
536 609
720 955
752 1402
179 308
599 665
1352 1397
359 1178
777 937
1164 1346
268 565
617 719
732 1423
362 429
778 1310
191 318
354 1248
471 601
1097 1292
489 655
1267 1474
374 439
29 670
810 1235
194 966
865 1171
202 332
1268 1295
382 1202
738 1066
528 1256
896 1423
836 1143
156 1384
9 139
33 496
986 1353
1201 1241
258 614
824 1254
63 375
1011 1117
496 671
95 327
573 625
220 1261
872 1187
359 373
825 846
830 1190
954 1485
384 1140
19 453
596 730
670 679
375 502
227 338
213 440
1032 1297
1092 1311
863 1259
102 343
761 1211
382 397
239 577
60 117
557 923
271 566
343 671
787 1385
769 779
1268 1429
1395 1470
378 628
584 733
668 1141
33 630
907 1157
327 582
63 509
1124 1128
1161 1424
521 569
493 507
1059 1147
907 1278
1314 1373
1066 1271
665 698
296 572
57 61
1134 1442
1202 1317
751 1152
517 985
1045 1104
864 1029
814 1437
396 695
704 811
179 697
767 867
232 937
1101 1386
493 749
317 523
17 231
915 1381
170 1227
440 822
887 1282
32 539
1281 1438
1107 1322
1093 1387
1212 1338
346 406
895 1402
277 306
811 1408
64 427
883 1284
124 478
321 534
749 1469
632 655
810 927
101 201
18 432
207 368
797 1402
432 715
1003 1241
583 655
316 540
794 1333
882 1180
481 607
300 532
868 1053
1212 1351
642 1464
871 1058
198 255
544 663
77 1197
1216 1470
768 1051
148 848
416 599
216 1477
154 370
1179 1295
420 489
783 1295
950 1472
210 1433
807 1423
447 1117
1371 1465
1048 1226
1067 1239
1406 1459
1447 1460
330 717
388 658
448 672
921 1121
155 1359
819 1110
862 1480
631 1059
884 1239
717 833
925 1011
741 1190
818 885
284 951
177 330
256 623
383 664
1097 1239
954 1190
866 1077
260 1267
810 1411
934 952
216 672
450 610
49 266
796 1018
73 623
367 841
436 446
947 1416
21 204
293 397
55 983
757 1026
471 669
1152 1296
218 223
911 941
849 1258
899 1375
9 86
126 634
801 1483
895 1081
1241 1489
740 1207
26 174
320 392
485 725
177 572
509 1311
600 675
1050 1140
52 577
53 1445
245 1386
787 1440
840 1303
834 963
237 744
746 850
378 454
25 1090
93 699
678 1389
1094 1304
20 1160
343 618
329 454
716 863
81 352
946 1325
1087 1264
278 637
166 167
825 1035
1105 1318
816 1215
869 1078
220 632
731 1373
753 866
76 358
136 409
67 575
793 1204
419 468
723 1374
9 570
212 404
1031 1261
795 984
509 627
206 589
307 937
1332 1374
664 686
43 73
1101 1441
309 458
1087 1277
751 1328
830 1392
162 704
800 1449
795 876
201 403
822 979
882 993
200 407
821 1279
917 987
812 1459
1409 1449
457 1231
92 581
106 250
171 645
300 1284
929 1226
1001 1102
1019 1385
250 645
986 1208
38 237
325 1233
1376 1393
101 256
1054 1113
773 1100
413 528
186 1303
251 466
363 707
344 428
896 1170
1042 1224
80 318
1207 1328
829 1116
636 721
264 1078
840 982
1227 1391
372 648
193 380
878 1008
520 1300
1191 1468
289 613
108 538
511 1480
1111 1216
1276 1283
116 133
995 1004
752 1283
1077 1339
571 713
516 777
572 1352
787 1240
64 616
38 1418
1213 1348
1051 1057
297 595
154 546
80 331
725 1301
995 1125
186 498
755 1409
958 1014
87 721
20 731
450 544
1370 1453
767 1419
149 552
1042 1358
434 721
38 492
258 724
1113 1238
1044 1404
170 382
180 1070
211 383
376 487
947 1471
842 1189
155 259
564 1181
770 791
66 675
1069 1353
365 742
170 732
221 734
135 1448
1016 1197
1043 1300
913 961
1097 1307
770 912
1083 1372
556 660
948 1184
695 738
327 342
879 1084
515 1036
433 445
1138 1200
953 1383
354 566
109 506
16 278
288 737
854 1377
854 1148
62 394
754 1210
745 1390
297 971
858 1267
1307 1359
622 1256
204 514
116 630
1224 1361
295 632
138 160
322 506
454 625
1187 1442
1 1057
30 68
269 350
120 227
83 574
424 638
28 409
14 474
69 181
55 246
113 224
412 520
871 1034
754 1452
298 1172
1316 1421
125 463
433 579
448 1116
105 225
358 405
542 980
776 918
1149 1429
901 1327
192 638
329 872
936 1321
788 1157
543 572
199 533
916 1342
998 1381
50 410
118 544
799 1171
43 141
875 937
37 592
460 695
897 1450
754 876
215 598
817 932
275 649
304 1350
1209 1456
333 590
992 1458
1005 1397
76 668
260 1014
370 657
1422 1456
212 714
353 424
468 1165
143 614
561 1127
1097 1107
646 1171
940 1160
167 419
198 257
838 883
884 1228
299 309
1049 1295
975 1117
562 719
362 365
910 1402
24 1309
1056 1456
982 1278
311 319
789 1112
135 322
481 730
849 897
1174 1448
852 1168
1220 1335
843 1348
244 494
189 558
746 1415
1021 1354
138 1007
207 612
246 311
605 658
843 1469
394 1377
1278 1397
793 830
56 271
591 615
949 1077
145 1023
85 743
866 1308
107 502
990 1115
315 1434
107 273
1022 1067
43 746
84 784
84 555
225 494
989 1415
1173 1236
137 381
6 864
362 728
1048 1470
821 1013
807 849
559 784
784 1131
844 1182
1083 1427
190 392
228 684
830 1018
1074 1378
272 727
93 459
79 561
201 258
280 551
134 1022
533 731
623 1442
1016 1373
362 620
754 1144
260 572
339 636
466 677
42 386
9 209
178 395
59 969
362 741
255 386
845 1383
831 1485
342 503
1147 1196
111 341
869 959
1182 1419
93 472
243 1399
269 405
807 1212
289 1286
447 677
867 1034
1340 1483
92 220
1372 1435
816 1217
1103 1247
676 685
285 534
422 1034
1019 1024
169 588
444 527
955 1268
886 1397
359 685
388 1386
507 583
584 1032
589 1147
83 521
50 344
1242 1446
10 945
182 234
964 1209
29 177
39 599
840 850
828 1284
41 645
915 1438
1003 1285
772 1389
340 1466
1121 1277
895 1459
136 653
103 476
277 363
194 594
1202 1387
825 1400
1367 1454
312 357
809 1392
105 293
124 306
31 78
846 1459
522 581
972 1046
958 1111
889 1277
512 1290
39 612
933 1054
1227 1272
965 1272
924 1005
896 1172
187 712
780 1226
799 1239
360 374
783 1002
277 376
502 723
101 379
763 764
152 610
811 1478
933 1175
311 374
25 771
887 1473
1 562
87 602
801 1177
128 145
1148 1221
396 1128
647 710
979 1183
564 941
762 1185
1001 1467
1078 1162
8 494
789 1059
1074 1420
1160 1460
392 605
889 1411
82 379
1255 1468
133 610
441 726
680 1008
427 562
1387 1395
265 500
31 333
762 1306
3 500
872 949
572 657
75 376
527 914
1366 1457
958 1366
956 1293
854 1245
1148 1234
743 1185
1092 1302
902 1178
102 334
88 436
747 1304
1028 1317
46 210
232 1383
755 1424
101 634
279 677
812 1140
1073 1181
495 1204
56 339
882 1384
849 1207
484 557
693 896
631 1250
187 270
183 565
255 441
201 1373
361 571
872 1312
294 1335
779 1084
139 229
1240 1479
70 395
1340 1417
391 450
814 1307
76 1112
456 579
308 452
323 1218
920 979
156 583
419 1451
1134 1433
141 460
667 735
784 1320
226 504
97 353
588 627
973 1192
238 743
240 1341
183 578
632 633
310 353
53 468
669 700
932 1339
166 345
80 830
465 641
778 872
377 528
365 1228
962 1218
781 1143
505 979
1332 1431
477 651
499 1164
1027 1320
53 589
751 1156
78 353
465 533
1411 1431
1218 1265
196 345
294 651
275 409
354 702
421 692
1242 1393
887 1165
1126 1447
331 1472
1239 1324
898 1031
573 1234
29 353
807 1172
1027 1441
562 587
639 807
1205 1447
45 297
205 286
313 1051
1248 1265
269 944
269 715
1096 1396
769 1038
1137 1168
20 654
309 528
87 186
1181 1211
1117 1455
1262 1284
1248 1386
843 1337
991 1235
115 369
142 243
854 937
415 1304
587 593
995 1061
126 383
802 1457
566 655
332 488
318 590
501 711
155 303
341 1476
905 1060
817 1176
572 591
94 323
522 770
805 829
829 1186
956 1227
703 781
290 383
691 1481
212 729
721 835
430 888
605 660
75 431
61 496
761 1136
186 676
93 219
1058 1359
1137 1423
151 160
383 1486
147 684
1002 1235
465 1030
1015 1174
745 1313
368 1363
397 832
872 1125
283 730
844 1063
186 568
